c family: ordering principle
c known_status: UNSAT
c difficulty_level: hard
c description: larger ordering principle formula
c generated: deterministic complex CNF training pack
p cnf 91 2198
-1 -2 -3 -4 -5 -6 -7 -8 -9 -10 -11 -12 -13 0
1 -14 -15 -16 -17 -18 -19 -20 -21 -22 -23 -24 -25 0
2 14 -26 -27 -28 -29 -30 -31 -32 -33 -34 -35 -36 0
3 15 26 -37 -38 -39 -40 -41 -42 -43 -44 -45 -46 0
4 16 27 37 -47 -48 -49 -50 -51 -52 -53 -54 -55 0
5 17 28 38 47 -56 -57 -58 -59 -60 -61 -62 -63 0
6 18 29 39 48 56 -64 -65 -66 -67 -68 -69 -70 0
7 19 30 40 49 57 64 -71 -72 -73 -74 -75 -76 0
8 20 31 41 50 58 65 71 -77 -78 -79 -80 -81 0
9 21 32 42 51 59 66 72 77 -82 -83 -84 -85 0
10 22 33 43 52 60 67 73 78 82 -86 -87 -88 0
11 23 34 44 53 61 68 74 79 83 86 -89 -90 0
12 24 35 45 54 62 69 75 80 84 87 89 -91 0
13 25 36 46 55 63 70 76 81 85 88 90 91 0
-1 -14 2 0
-1 -15 3 0
-1 -16 4 0
-1 -17 5 0
-1 -18 6 0
-1 -19 7 0
-1 -20 8 0
-1 -21 9 0
-1 -22 10 0
-1 -23 11 0
-1 -24 12 0
-1 -25 13 0
-2 14 1 0
-2 -26 3 0
-2 -27 4 0
-2 -28 5 0
-2 -29 6 0
-2 -30 7 0
-2 -31 8 0
-2 -32 9 0
-2 -33 10 0
-2 -34 11 0
-2 -35 12 0
-2 -36 13 0
-3 15 1 0
-3 26 2 0
-3 -37 4 0
-3 -38 5 0
-3 -39 6 0
-3 -40 7 0
-3 -41 8 0
-3 -42 9 0
-3 -43 10 0
-3 -44 11 0
-3 -45 12 0
-3 -46 13 0
-4 16 1 0
-4 27 2 0
-4 37 3 0
-4 -47 5 0
-4 -48 6 0
-4 -49 7 0
-4 -50 8 0
-4 -51 9 0
-4 -52 10 0
-4 -53 11 0
-4 -54 12 0
-4 -55 13 0
-5 17 1 0
-5 28 2 0
-5 38 3 0
-5 47 4 0
-5 -56 6 0
-5 -57 7 0
-5 -58 8 0
-5 -59 9 0
-5 -60 10 0
-5 -61 11 0
-5 -62 12 0
-5 -63 13 0
-6 18 1 0
-6 29 2 0
-6 39 3 0
-6 48 4 0
-6 56 5 0
-6 -64 7 0
-6 -65 8 0
-6 -66 9 0
-6 -67 10 0
-6 -68 11 0
-6 -69 12 0
-6 -70 13 0
-7 19 1 0
-7 30 2 0
-7 40 3 0
-7 49 4 0
-7 57 5 0
-7 64 6 0
-7 -71 8 0
-7 -72 9 0
-7 -73 10 0
-7 -74 11 0
-7 -75 12 0
-7 -76 13 0
-8 20 1 0
-8 31 2 0
-8 41 3 0
-8 50 4 0
-8 58 5 0
-8 65 6 0
-8 71 7 0
-8 -77 9 0
-8 -78 10 0
-8 -79 11 0
-8 -80 12 0
-8 -81 13 0
-9 21 1 0
-9 32 2 0
-9 42 3 0
-9 51 4 0
-9 59 5 0
-9 66 6 0
-9 72 7 0
-9 77 8 0
-9 -82 10 0
-9 -83 11 0
-9 -84 12 0
-9 -85 13 0
-10 22 1 0
-10 33 2 0
-10 43 3 0
-10 52 4 0
-10 60 5 0
-10 67 6 0
-10 73 7 0
-10 78 8 0
-10 82 9 0
-10 -86 11 0
-10 -87 12 0
-10 -88 13 0
-11 23 1 0
-11 34 2 0
-11 44 3 0
-11 53 4 0
-11 61 5 0
-11 68 6 0
-11 74 7 0
-11 79 8 0
-11 83 9 0
-11 86 10 0
-11 -89 12 0
-11 -90 13 0
-12 24 1 0
-12 35 2 0
-12 45 3 0
-12 54 4 0
-12 62 5 0
-12 69 6 0
-12 75 7 0
-12 80 8 0
-12 84 9 0
-12 87 10 0
-12 89 11 0
-12 -91 13 0
-13 25 1 0
-13 36 2 0
-13 46 3 0
-13 55 4 0
-13 63 5 0
-13 70 6 0
-13 76 7 0
-13 81 8 0
-13 85 9 0
-13 88 10 0
-13 90 11 0
-13 91 12 0
1 -2 14 0
1 -3 15 0
1 -4 16 0
1 -5 17 0
1 -6 18 0
1 -7 19 0
1 -8 20 0
1 -9 21 0
1 -10 22 0
1 -11 23 0
1 -12 24 0
1 -13 25 0
-14 2 -1 0
-14 -26 15 0
-14 -27 16 0
-14 -28 17 0
-14 -29 18 0
-14 -30 19 0
-14 -31 20 0
-14 -32 21 0
-14 -33 22 0
-14 -34 23 0
-14 -35 24 0
-14 -36 25 0
-15 3 -1 0
-15 26 14 0
-15 -37 16 0
-15 -38 17 0
-15 -39 18 0
-15 -40 19 0
-15 -41 20 0
-15 -42 21 0
-15 -43 22 0
-15 -44 23 0
-15 -45 24 0
-15 -46 25 0
-16 4 -1 0
-16 27 14 0
-16 37 15 0
-16 -47 17 0
-16 -48 18 0
-16 -49 19 0
-16 -50 20 0
-16 -51 21 0
-16 -52 22 0
-16 -53 23 0
-16 -54 24 0
-16 -55 25 0
-17 5 -1 0
-17 28 14 0
-17 38 15 0
-17 47 16 0
-17 -56 18 0
-17 -57 19 0
-17 -58 20 0
-17 -59 21 0
-17 -60 22 0
-17 -61 23 0
-17 -62 24 0
-17 -63 25 0
-18 6 -1 0
-18 29 14 0
-18 39 15 0
-18 48 16 0
-18 56 17 0
-18 -64 19 0
-18 -65 20 0
-18 -66 21 0
-18 -67 22 0
-18 -68 23 0
-18 -69 24 0
-18 -70 25 0
-19 7 -1 0
-19 30 14 0
-19 40 15 0
-19 49 16 0
-19 57 17 0
-19 64 18 0
-19 -71 20 0
-19 -72 21 0
-19 -73 22 0
-19 -74 23 0
-19 -75 24 0
-19 -76 25 0
-20 8 -1 0
-20 31 14 0
-20 41 15 0
-20 50 16 0
-20 58 17 0
-20 65 18 0
-20 71 19 0
-20 -77 21 0
-20 -78 22 0
-20 -79 23 0
-20 -80 24 0
-20 -81 25 0
-21 9 -1 0
-21 32 14 0
-21 42 15 0
-21 51 16 0
-21 59 17 0
-21 66 18 0
-21 72 19 0
-21 77 20 0
-21 -82 22 0
-21 -83 23 0
-21 -84 24 0
-21 -85 25 0
-22 10 -1 0
-22 33 14 0
-22 43 15 0
-22 52 16 0
-22 60 17 0
-22 67 18 0
-22 73 19 0
-22 78 20 0
-22 82 21 0
-22 -86 23 0
-22 -87 24 0
-22 -88 25 0
-23 11 -1 0
-23 34 14 0
-23 44 15 0
-23 53 16 0
-23 61 17 0
-23 68 18 0
-23 74 19 0
-23 79 20 0
-23 83 21 0
-23 86 22 0
-23 -89 24 0
-23 -90 25 0
-24 12 -1 0
-24 35 14 0
-24 45 15 0
-24 54 16 0
-24 62 17 0
-24 69 18 0
-24 75 19 0
-24 80 20 0
-24 84 21 0
-24 87 22 0
-24 89 23 0
-24 -91 25 0
-25 13 -1 0
-25 36 14 0
-25 46 15 0
-25 55 16 0
-25 63 17 0
-25 70 18 0
-25 76 19 0
-25 81 20 0
-25 85 21 0
-25 88 22 0
-25 90 23 0
-25 91 24 0
2 -1 -14 0
2 -3 26 0
2 -4 27 0
2 -5 28 0
2 -6 29 0
2 -7 30 0
2 -8 31 0
2 -9 32 0
2 -10 33 0
2 -11 34 0
2 -12 35 0
2 -13 36 0
14 1 -2 0
14 -15 26 0
14 -16 27 0
14 -17 28 0
14 -18 29 0
14 -19 30 0
14 -20 31 0
14 -21 32 0
14 -22 33 0
14 -23 34 0
14 -24 35 0
14 -25 36 0
-26 3 -2 0
-26 15 -14 0
-26 -37 27 0
-26 -38 28 0
-26 -39 29 0
-26 -40 30 0
-26 -41 31 0
-26 -42 32 0
-26 -43 33 0
-26 -44 34 0
-26 -45 35 0
-26 -46 36 0
-27 4 -2 0
-27 16 -14 0
-27 37 26 0
-27 -47 28 0
-27 -48 29 0
-27 -49 30 0
-27 -50 31 0
-27 -51 32 0
-27 -52 33 0
-27 -53 34 0
-27 -54 35 0
-27 -55 36 0
-28 5 -2 0
-28 17 -14 0
-28 38 26 0
-28 47 27 0
-28 -56 29 0
-28 -57 30 0
-28 -58 31 0
-28 -59 32 0
-28 -60 33 0
-28 -61 34 0
-28 -62 35 0
-28 -63 36 0
-29 6 -2 0
-29 18 -14 0
-29 39 26 0
-29 48 27 0
-29 56 28 0
-29 -64 30 0
-29 -65 31 0
-29 -66 32 0
-29 -67 33 0
-29 -68 34 0
-29 -69 35 0
-29 -70 36 0
-30 7 -2 0
-30 19 -14 0
-30 40 26 0
-30 49 27 0
-30 57 28 0
-30 64 29 0
-30 -71 31 0
-30 -72 32 0
-30 -73 33 0
-30 -74 34 0
-30 -75 35 0
-30 -76 36 0
-31 8 -2 0
-31 20 -14 0
-31 41 26 0
-31 50 27 0
-31 58 28 0
-31 65 29 0
-31 71 30 0
-31 -77 32 0
-31 -78 33 0
-31 -79 34 0
-31 -80 35 0
-31 -81 36 0
-32 9 -2 0
-32 21 -14 0
-32 42 26 0
-32 51 27 0
-32 59 28 0
-32 66 29 0
-32 72 30 0
-32 77 31 0
-32 -82 33 0
-32 -83 34 0
-32 -84 35 0
-32 -85 36 0
-33 10 -2 0
-33 22 -14 0
-33 43 26 0
-33 52 27 0
-33 60 28 0
-33 67 29 0
-33 73 30 0
-33 78 31 0
-33 82 32 0
-33 -86 34 0
-33 -87 35 0
-33 -88 36 0
-34 11 -2 0
-34 23 -14 0
-34 44 26 0
-34 53 27 0
-34 61 28 0
-34 68 29 0
-34 74 30 0
-34 79 31 0
-34 83 32 0
-34 86 33 0
-34 -89 35 0
-34 -90 36 0
-35 12 -2 0
-35 24 -14 0
-35 45 26 0
-35 54 27 0
-35 62 28 0
-35 69 29 0
-35 75 30 0
-35 80 31 0
-35 84 32 0
-35 87 33 0
-35 89 34 0
-35 -91 36 0
-36 13 -2 0
-36 25 -14 0
-36 46 26 0
-36 55 27 0
-36 63 28 0
-36 70 29 0
-36 76 30 0
-36 81 31 0
-36 85 32 0
-36 88 33 0
-36 90 34 0
-36 91 35 0
3 -1 -15 0
3 -2 -26 0
3 -4 37 0
3 -5 38 0
3 -6 39 0
3 -7 40 0
3 -8 41 0
3 -9 42 0
3 -10 43 0
3 -11 44 0
3 -12 45 0
3 -13 46 0
15 1 -3 0
15 -14 -26 0
15 -16 37 0
15 -17 38 0
15 -18 39 0
15 -19 40 0
15 -20 41 0
15 -21 42 0
15 -22 43 0
15 -23 44 0
15 -24 45 0
15 -25 46 0
26 2 -3 0
26 14 -15 0
26 -27 37 0
26 -28 38 0
26 -29 39 0
26 -30 40 0
26 -31 41 0
26 -32 42 0
26 -33 43 0
26 -34 44 0
26 -35 45 0
26 -36 46 0
-37 4 -3 0
-37 16 -15 0
-37 27 -26 0
-37 -47 38 0
-37 -48 39 0
-37 -49 40 0
-37 -50 41 0
-37 -51 42 0
-37 -52 43 0
-37 -53 44 0
-37 -54 45 0
-37 -55 46 0
-38 5 -3 0
-38 17 -15 0
-38 28 -26 0
-38 47 37 0
-38 -56 39 0
-38 -57 40 0
-38 -58 41 0
-38 -59 42 0
-38 -60 43 0
-38 -61 44 0
-38 -62 45 0
-38 -63 46 0
-39 6 -3 0
-39 18 -15 0
-39 29 -26 0
-39 48 37 0
-39 56 38 0
-39 -64 40 0
-39 -65 41 0
-39 -66 42 0
-39 -67 43 0
-39 -68 44 0
-39 -69 45 0
-39 -70 46 0
-40 7 -3 0
-40 19 -15 0
-40 30 -26 0
-40 49 37 0
-40 57 38 0
-40 64 39 0
-40 -71 41 0
-40 -72 42 0
-40 -73 43 0
-40 -74 44 0
-40 -75 45 0
-40 -76 46 0
-41 8 -3 0
-41 20 -15 0
-41 31 -26 0
-41 50 37 0
-41 58 38 0
-41 65 39 0
-41 71 40 0
-41 -77 42 0
-41 -78 43 0
-41 -79 44 0
-41 -80 45 0
-41 -81 46 0
-42 9 -3 0
-42 21 -15 0
-42 32 -26 0
-42 51 37 0
-42 59 38 0
-42 66 39 0
-42 72 40 0
-42 77 41 0
-42 -82 43 0
-42 -83 44 0
-42 -84 45 0
-42 -85 46 0
-43 10 -3 0
-43 22 -15 0
-43 33 -26 0
-43 52 37 0
-43 60 38 0
-43 67 39 0
-43 73 40 0
-43 78 41 0
-43 82 42 0
-43 -86 44 0
-43 -87 45 0
-43 -88 46 0
-44 11 -3 0
-44 23 -15 0
-44 34 -26 0
-44 53 37 0
-44 61 38 0
-44 68 39 0
-44 74 40 0
-44 79 41 0
-44 83 42 0
-44 86 43 0
-44 -89 45 0
-44 -90 46 0
-45 12 -3 0
-45 24 -15 0
-45 35 -26 0
-45 54 37 0
-45 62 38 0
-45 69 39 0
-45 75 40 0
-45 80 41 0
-45 84 42 0
-45 87 43 0
-45 89 44 0
-45 -91 46 0
-46 13 -3 0
-46 25 -15 0
-46 36 -26 0
-46 55 37 0
-46 63 38 0
-46 70 39 0
-46 76 40 0
-46 81 41 0
-46 85 42 0
-46 88 43 0
-46 90 44 0
-46 91 45 0
4 -1 -16 0
4 -2 -27 0
4 -3 -37 0
4 -5 47 0
4 -6 48 0
4 -7 49 0
4 -8 50 0
4 -9 51 0
4 -10 52 0
4 -11 53 0
4 -12 54 0
4 -13 55 0
16 1 -4 0
16 -14 -27 0
16 -15 -37 0
16 -17 47 0
16 -18 48 0
16 -19 49 0
16 -20 50 0
16 -21 51 0
16 -22 52 0
16 -23 53 0
16 -24 54 0
16 -25 55 0
27 2 -4 0
27 14 -16 0
27 -26 -37 0
27 -28 47 0
27 -29 48 0
27 -30 49 0
27 -31 50 0
27 -32 51 0
27 -33 52 0
27 -34 53 0
27 -35 54 0
27 -36 55 0
37 3 -4 0
37 15 -16 0
37 26 -27 0
37 -38 47 0
37 -39 48 0
37 -40 49 0
37 -41 50 0
37 -42 51 0
37 -43 52 0
37 -44 53 0
37 -45 54 0
37 -46 55 0
-47 5 -4 0
-47 17 -16 0
-47 28 -27 0
-47 38 -37 0
-47 -56 48 0
-47 -57 49 0
-47 -58 50 0
-47 -59 51 0
-47 -60 52 0
-47 -61 53 0
-47 -62 54 0
-47 -63 55 0
-48 6 -4 0
-48 18 -16 0
-48 29 -27 0
-48 39 -37 0
-48 56 47 0
-48 -64 49 0
-48 -65 50 0
-48 -66 51 0
-48 -67 52 0
-48 -68 53 0
-48 -69 54 0
-48 -70 55 0
-49 7 -4 0
-49 19 -16 0
-49 30 -27 0
-49 40 -37 0
-49 57 47 0
-49 64 48 0
-49 -71 50 0
-49 -72 51 0
-49 -73 52 0
-49 -74 53 0
-49 -75 54 0
-49 -76 55 0
-50 8 -4 0
-50 20 -16 0
-50 31 -27 0
-50 41 -37 0
-50 58 47 0
-50 65 48 0
-50 71 49 0
-50 -77 51 0
-50 -78 52 0
-50 -79 53 0
-50 -80 54 0
-50 -81 55 0
-51 9 -4 0
-51 21 -16 0
-51 32 -27 0
-51 42 -37 0
-51 59 47 0
-51 66 48 0
-51 72 49 0
-51 77 50 0
-51 -82 52 0
-51 -83 53 0
-51 -84 54 0
-51 -85 55 0
-52 10 -4 0
-52 22 -16 0
-52 33 -27 0
-52 43 -37 0
-52 60 47 0
-52 67 48 0
-52 73 49 0
-52 78 50 0
-52 82 51 0
-52 -86 53 0
-52 -87 54 0
-52 -88 55 0
-53 11 -4 0
-53 23 -16 0
-53 34 -27 0
-53 44 -37 0
-53 61 47 0
-53 68 48 0
-53 74 49 0
-53 79 50 0
-53 83 51 0
-53 86 52 0
-53 -89 54 0
-53 -90 55 0
-54 12 -4 0
-54 24 -16 0
-54 35 -27 0
-54 45 -37 0
-54 62 47 0
-54 69 48 0
-54 75 49 0
-54 80 50 0
-54 84 51 0
-54 87 52 0
-54 89 53 0
-54 -91 55 0
-55 13 -4 0
-55 25 -16 0
-55 36 -27 0
-55 46 -37 0
-55 63 47 0
-55 70 48 0
-55 76 49 0
-55 81 50 0
-55 85 51 0
-55 88 52 0
-55 90 53 0
-55 91 54 0
5 -1 -17 0
5 -2 -28 0
5 -3 -38 0
5 -4 -47 0
5 -6 56 0
5 -7 57 0
5 -8 58 0
5 -9 59 0
5 -10 60 0
5 -11 61 0
5 -12 62 0
5 -13 63 0
17 1 -5 0
17 -14 -28 0
17 -15 -38 0
17 -16 -47 0
17 -18 56 0
17 -19 57 0
17 -20 58 0
17 -21 59 0
17 -22 60 0
17 -23 61 0
17 -24 62 0
17 -25 63 0
28 2 -5 0
28 14 -17 0
28 -26 -38 0
28 -27 -47 0
28 -29 56 0
28 -30 57 0
28 -31 58 0
28 -32 59 0
28 -33 60 0
28 -34 61 0
28 -35 62 0
28 -36 63 0
38 3 -5 0
38 15 -17 0
38 26 -28 0
38 -37 -47 0
38 -39 56 0
38 -40 57 0
38 -41 58 0
38 -42 59 0
38 -43 60 0
38 -44 61 0
38 -45 62 0
38 -46 63 0
47 4 -5 0
47 16 -17 0
47 27 -28 0
47 37 -38 0
47 -48 56 0
47 -49 57 0
47 -50 58 0
47 -51 59 0
47 -52 60 0
47 -53 61 0
47 -54 62 0
47 -55 63 0
-56 6 -5 0
-56 18 -17 0
-56 29 -28 0
-56 39 -38 0
-56 48 -47 0
-56 -64 57 0
-56 -65 58 0
-56 -66 59 0
-56 -67 60 0
-56 -68 61 0
-56 -69 62 0
-56 -70 63 0
-57 7 -5 0
-57 19 -17 0
-57 30 -28 0
-57 40 -38 0
-57 49 -47 0
-57 64 56 0
-57 -71 58 0
-57 -72 59 0
-57 -73 60 0
-57 -74 61 0
-57 -75 62 0
-57 -76 63 0
-58 8 -5 0
-58 20 -17 0
-58 31 -28 0
-58 41 -38 0
-58 50 -47 0
-58 65 56 0
-58 71 57 0
-58 -77 59 0
-58 -78 60 0
-58 -79 61 0
-58 -80 62 0
-58 -81 63 0
-59 9 -5 0
-59 21 -17 0
-59 32 -28 0
-59 42 -38 0
-59 51 -47 0
-59 66 56 0
-59 72 57 0
-59 77 58 0
-59 -82 60 0
-59 -83 61 0
-59 -84 62 0
-59 -85 63 0
-60 10 -5 0
-60 22 -17 0
-60 33 -28 0
-60 43 -38 0
-60 52 -47 0
-60 67 56 0
-60 73 57 0
-60 78 58 0
-60 82 59 0
-60 -86 61 0
-60 -87 62 0
-60 -88 63 0
-61 11 -5 0
-61 23 -17 0
-61 34 -28 0
-61 44 -38 0
-61 53 -47 0
-61 68 56 0
-61 74 57 0
-61 79 58 0
-61 83 59 0
-61 86 60 0
-61 -89 62 0
-61 -90 63 0
-62 12 -5 0
-62 24 -17 0
-62 35 -28 0
-62 45 -38 0
-62 54 -47 0
-62 69 56 0
-62 75 57 0
-62 80 58 0
-62 84 59 0
-62 87 60 0
-62 89 61 0
-62 -91 63 0
-63 13 -5 0
-63 25 -17 0
-63 36 -28 0
-63 46 -38 0
-63 55 -47 0
-63 70 56 0
-63 76 57 0
-63 81 58 0
-63 85 59 0
-63 88 60 0
-63 90 61 0
-63 91 62 0
6 -1 -18 0
6 -2 -29 0
6 -3 -39 0
6 -4 -48 0
6 -5 -56 0
6 -7 64 0
6 -8 65 0
6 -9 66 0
6 -10 67 0
6 -11 68 0
6 -12 69 0
6 -13 70 0
18 1 -6 0
18 -14 -29 0
18 -15 -39 0
18 -16 -48 0
18 -17 -56 0
18 -19 64 0
18 -20 65 0
18 -21 66 0
18 -22 67 0
18 -23 68 0
18 -24 69 0
18 -25 70 0
29 2 -6 0
29 14 -18 0
29 -26 -39 0
29 -27 -48 0
29 -28 -56 0
29 -30 64 0
29 -31 65 0
29 -32 66 0
29 -33 67 0
29 -34 68 0
29 -35 69 0
29 -36 70 0
39 3 -6 0
39 15 -18 0
39 26 -29 0
39 -37 -48 0
39 -38 -56 0
39 -40 64 0
39 -41 65 0
39 -42 66 0
39 -43 67 0
39 -44 68 0
39 -45 69 0
39 -46 70 0
48 4 -6 0
48 16 -18 0
48 27 -29 0
48 37 -39 0
48 -47 -56 0
48 -49 64 0
48 -50 65 0
48 -51 66 0
48 -52 67 0
48 -53 68 0
48 -54 69 0
48 -55 70 0
56 5 -6 0
56 17 -18 0
56 28 -29 0
56 38 -39 0
56 47 -48 0
56 -57 64 0
56 -58 65 0
56 -59 66 0
56 -60 67 0
56 -61 68 0
56 -62 69 0
56 -63 70 0
-64 7 -6 0
-64 19 -18 0
-64 30 -29 0
-64 40 -39 0
-64 49 -48 0
-64 57 -56 0
-64 -71 65 0
-64 -72 66 0
-64 -73 67 0
-64 -74 68 0
-64 -75 69 0
-64 -76 70 0
-65 8 -6 0
-65 20 -18 0
-65 31 -29 0
-65 41 -39 0
-65 50 -48 0
-65 58 -56 0
-65 71 64 0
-65 -77 66 0
-65 -78 67 0
-65 -79 68 0
-65 -80 69 0
-65 -81 70 0
-66 9 -6 0
-66 21 -18 0
-66 32 -29 0
-66 42 -39 0
-66 51 -48 0
-66 59 -56 0
-66 72 64 0
-66 77 65 0
-66 -82 67 0
-66 -83 68 0
-66 -84 69 0
-66 -85 70 0
-67 10 -6 0
-67 22 -18 0
-67 33 -29 0
-67 43 -39 0
-67 52 -48 0
-67 60 -56 0
-67 73 64 0
-67 78 65 0
-67 82 66 0
-67 -86 68 0
-67 -87 69 0
-67 -88 70 0
-68 11 -6 0
-68 23 -18 0
-68 34 -29 0
-68 44 -39 0
-68 53 -48 0
-68 61 -56 0
-68 74 64 0
-68 79 65 0
-68 83 66 0
-68 86 67 0
-68 -89 69 0
-68 -90 70 0
-69 12 -6 0
-69 24 -18 0
-69 35 -29 0
-69 45 -39 0
-69 54 -48 0
-69 62 -56 0
-69 75 64 0
-69 80 65 0
-69 84 66 0
-69 87 67 0
-69 89 68 0
-69 -91 70 0
-70 13 -6 0
-70 25 -18 0
-70 36 -29 0
-70 46 -39 0
-70 55 -48 0
-70 63 -56 0
-70 76 64 0
-70 81 65 0
-70 85 66 0
-70 88 67 0
-70 90 68 0
-70 91 69 0
7 -1 -19 0
7 -2 -30 0
7 -3 -40 0
7 -4 -49 0
7 -5 -57 0
7 -6 -64 0
7 -8 71 0
7 -9 72 0
7 -10 73 0
7 -11 74 0
7 -12 75 0
7 -13 76 0
19 1 -7 0
19 -14 -30 0
19 -15 -40 0
19 -16 -49 0
19 -17 -57 0
19 -18 -64 0
19 -20 71 0
19 -21 72 0
19 -22 73 0
19 -23 74 0
19 -24 75 0
19 -25 76 0
30 2 -7 0
30 14 -19 0
30 -26 -40 0
30 -27 -49 0
30 -28 -57 0
30 -29 -64 0
30 -31 71 0
30 -32 72 0
30 -33 73 0
30 -34 74 0
30 -35 75 0
30 -36 76 0
40 3 -7 0
40 15 -19 0
40 26 -30 0
40 -37 -49 0
40 -38 -57 0
40 -39 -64 0
40 -41 71 0
40 -42 72 0
40 -43 73 0
40 -44 74 0
40 -45 75 0
40 -46 76 0
49 4 -7 0
49 16 -19 0
49 27 -30 0
49 37 -40 0
49 -47 -57 0
49 -48 -64 0
49 -50 71 0
49 -51 72 0
49 -52 73 0
49 -53 74 0
49 -54 75 0
49 -55 76 0
57 5 -7 0
57 17 -19 0
57 28 -30 0
57 38 -40 0
57 47 -49 0
57 -56 -64 0
57 -58 71 0
57 -59 72 0
57 -60 73 0
57 -61 74 0
57 -62 75 0
57 -63 76 0
64 6 -7 0
64 18 -19 0
64 29 -30 0
64 39 -40 0
64 48 -49 0
64 56 -57 0
64 -65 71 0
64 -66 72 0
64 -67 73 0
64 -68 74 0
64 -69 75 0
64 -70 76 0
-71 8 -7 0
-71 20 -19 0
-71 31 -30 0
-71 41 -40 0
-71 50 -49 0
-71 58 -57 0
-71 65 -64 0
-71 -77 72 0
-71 -78 73 0
-71 -79 74 0
-71 -80 75 0
-71 -81 76 0
-72 9 -7 0
-72 21 -19 0
-72 32 -30 0
-72 42 -40 0
-72 51 -49 0
-72 59 -57 0
-72 66 -64 0
-72 77 71 0
-72 -82 73 0
-72 -83 74 0
-72 -84 75 0
-72 -85 76 0
-73 10 -7 0
-73 22 -19 0
-73 33 -30 0
-73 43 -40 0
-73 52 -49 0
-73 60 -57 0
-73 67 -64 0
-73 78 71 0
-73 82 72 0
-73 -86 74 0
-73 -87 75 0
-73 -88 76 0
-74 11 -7 0
-74 23 -19 0
-74 34 -30 0
-74 44 -40 0
-74 53 -49 0
-74 61 -57 0
-74 68 -64 0
-74 79 71 0
-74 83 72 0
-74 86 73 0
-74 -89 75 0
-74 -90 76 0
-75 12 -7 0
-75 24 -19 0
-75 35 -30 0
-75 45 -40 0
-75 54 -49 0
-75 62 -57 0
-75 69 -64 0
-75 80 71 0
-75 84 72 0
-75 87 73 0
-75 89 74 0
-75 -91 76 0
-76 13 -7 0
-76 25 -19 0
-76 36 -30 0
-76 46 -40 0
-76 55 -49 0
-76 63 -57 0
-76 70 -64 0
-76 81 71 0
-76 85 72 0
-76 88 73 0
-76 90 74 0
-76 91 75 0
8 -1 -20 0
8 -2 -31 0
8 -3 -41 0
8 -4 -50 0
8 -5 -58 0
8 -6 -65 0
8 -7 -71 0
8 -9 77 0
8 -10 78 0
8 -11 79 0
8 -12 80 0
8 -13 81 0
20 1 -8 0
20 -14 -31 0
20 -15 -41 0
20 -16 -50 0
20 -17 -58 0
20 -18 -65 0
20 -19 -71 0
20 -21 77 0
20 -22 78 0
20 -23 79 0
20 -24 80 0
20 -25 81 0
31 2 -8 0
31 14 -20 0
31 -26 -41 0
31 -27 -50 0
31 -28 -58 0
31 -29 -65 0
31 -30 -71 0
31 -32 77 0
31 -33 78 0
31 -34 79 0
31 -35 80 0
31 -36 81 0
41 3 -8 0
41 15 -20 0
41 26 -31 0
41 -37 -50 0
41 -38 -58 0
41 -39 -65 0
41 -40 -71 0
41 -42 77 0
41 -43 78 0
41 -44 79 0
41 -45 80 0
41 -46 81 0
50 4 -8 0
50 16 -20 0
50 27 -31 0
50 37 -41 0
50 -47 -58 0
50 -48 -65 0
50 -49 -71 0
50 -51 77 0
50 -52 78 0
50 -53 79 0
50 -54 80 0
50 -55 81 0
58 5 -8 0
58 17 -20 0
58 28 -31 0
58 38 -41 0
58 47 -50 0
58 -56 -65 0
58 -57 -71 0
58 -59 77 0
58 -60 78 0
58 -61 79 0
58 -62 80 0
58 -63 81 0
65 6 -8 0
65 18 -20 0
65 29 -31 0
65 39 -41 0
65 48 -50 0
65 56 -58 0
65 -64 -71 0
65 -66 77 0
65 -67 78 0
65 -68 79 0
65 -69 80 0
65 -70 81 0
71 7 -8 0
71 19 -20 0
71 30 -31 0
71 40 -41 0
71 49 -50 0
71 57 -58 0
71 64 -65 0
71 -72 77 0
71 -73 78 0
71 -74 79 0
71 -75 80 0
71 -76 81 0
-77 9 -8 0
-77 21 -20 0
-77 32 -31 0
-77 42 -41 0
-77 51 -50 0
-77 59 -58 0
-77 66 -65 0
-77 72 -71 0
-77 -82 78 0
-77 -83 79 0
-77 -84 80 0
-77 -85 81 0
-78 10 -8 0
-78 22 -20 0
-78 33 -31 0
-78 43 -41 0
-78 52 -50 0
-78 60 -58 0
-78 67 -65 0
-78 73 -71 0
-78 82 77 0
-78 -86 79 0
-78 -87 80 0
-78 -88 81 0
-79 11 -8 0
-79 23 -20 0
-79 34 -31 0
-79 44 -41 0
-79 53 -50 0
-79 61 -58 0
-79 68 -65 0
-79 74 -71 0
-79 83 77 0
-79 86 78 0
-79 -89 80 0
-79 -90 81 0
-80 12 -8 0
-80 24 -20 0
-80 35 -31 0
-80 45 -41 0
-80 54 -50 0
-80 62 -58 0
-80 69 -65 0
-80 75 -71 0
-80 84 77 0
-80 87 78 0
-80 89 79 0
-80 -91 81 0
-81 13 -8 0
-81 25 -20 0
-81 36 -31 0
-81 46 -41 0
-81 55 -50 0
-81 63 -58 0
-81 70 -65 0
-81 76 -71 0
-81 85 77 0
-81 88 78 0
-81 90 79 0
-81 91 80 0
9 -1 -21 0
9 -2 -32 0
9 -3 -42 0
9 -4 -51 0
9 -5 -59 0
9 -6 -66 0
9 -7 -72 0
9 -8 -77 0
9 -10 82 0
9 -11 83 0
9 -12 84 0
9 -13 85 0
21 1 -9 0
21 -14 -32 0
21 -15 -42 0
21 -16 -51 0
21 -17 -59 0
21 -18 -66 0
21 -19 -72 0
21 -20 -77 0
21 -22 82 0
21 -23 83 0
21 -24 84 0
21 -25 85 0
32 2 -9 0
32 14 -21 0
32 -26 -42 0
32 -27 -51 0
32 -28 -59 0
32 -29 -66 0
32 -30 -72 0
32 -31 -77 0
32 -33 82 0
32 -34 83 0
32 -35 84 0
32 -36 85 0
42 3 -9 0
42 15 -21 0
42 26 -32 0
42 -37 -51 0
42 -38 -59 0
42 -39 -66 0
42 -40 -72 0
42 -41 -77 0
42 -43 82 0
42 -44 83 0
42 -45 84 0
42 -46 85 0
51 4 -9 0
51 16 -21 0
51 27 -32 0
51 37 -42 0
51 -47 -59 0
51 -48 -66 0
51 -49 -72 0
51 -50 -77 0
51 -52 82 0
51 -53 83 0
51 -54 84 0
51 -55 85 0
59 5 -9 0
59 17 -21 0
59 28 -32 0
59 38 -42 0
59 47 -51 0
59 -56 -66 0
59 -57 -72 0
59 -58 -77 0
59 -60 82 0
59 -61 83 0
59 -62 84 0
59 -63 85 0
66 6 -9 0
66 18 -21 0
66 29 -32 0
66 39 -42 0
66 48 -51 0
66 56 -59 0
66 -64 -72 0
66 -65 -77 0
66 -67 82 0
66 -68 83 0
66 -69 84 0
66 -70 85 0
72 7 -9 0
72 19 -21 0
72 30 -32 0
72 40 -42 0
72 49 -51 0
72 57 -59 0
72 64 -66 0
72 -71 -77 0
72 -73 82 0
72 -74 83 0
72 -75 84 0
72 -76 85 0
77 8 -9 0
77 20 -21 0
77 31 -32 0
77 41 -42 0
77 50 -51 0
77 58 -59 0
77 65 -66 0
77 71 -72 0
77 -78 82 0
77 -79 83 0
77 -80 84 0
77 -81 85 0
-82 10 -9 0
-82 22 -21 0
-82 33 -32 0
-82 43 -42 0
-82 52 -51 0
-82 60 -59 0
-82 67 -66 0
-82 73 -72 0
-82 78 -77 0
-82 -86 83 0
-82 -87 84 0
-82 -88 85 0
-83 11 -9 0
-83 23 -21 0
-83 34 -32 0
-83 44 -42 0
-83 53 -51 0
-83 61 -59 0
-83 68 -66 0
-83 74 -72 0
-83 79 -77 0
-83 86 82 0
-83 -89 84 0
-83 -90 85 0
-84 12 -9 0
-84 24 -21 0
-84 35 -32 0
-84 45 -42 0
-84 54 -51 0
-84 62 -59 0
-84 69 -66 0
-84 75 -72 0
-84 80 -77 0
-84 87 82 0
-84 89 83 0
-84 -91 85 0
-85 13 -9 0
-85 25 -21 0
-85 36 -32 0
-85 46 -42 0
-85 55 -51 0
-85 63 -59 0
-85 70 -66 0
-85 76 -72 0
-85 81 -77 0
-85 88 82 0
-85 90 83 0
-85 91 84 0
10 -1 -22 0
10 -2 -33 0
10 -3 -43 0
10 -4 -52 0
10 -5 -60 0
10 -6 -67 0
10 -7 -73 0
10 -8 -78 0
10 -9 -82 0
10 -11 86 0
10 -12 87 0
10 -13 88 0
22 1 -10 0
22 -14 -33 0
22 -15 -43 0
22 -16 -52 0
22 -17 -60 0
22 -18 -67 0
22 -19 -73 0
22 -20 -78 0
22 -21 -82 0
22 -23 86 0
22 -24 87 0
22 -25 88 0
33 2 -10 0
33 14 -22 0
33 -26 -43 0
33 -27 -52 0
33 -28 -60 0
33 -29 -67 0
33 -30 -73 0
33 -31 -78 0
33 -32 -82 0
33 -34 86 0
33 -35 87 0
33 -36 88 0
43 3 -10 0
43 15 -22 0
43 26 -33 0
43 -37 -52 0
43 -38 -60 0
43 -39 -67 0
43 -40 -73 0
43 -41 -78 0
43 -42 -82 0
43 -44 86 0
43 -45 87 0
43 -46 88 0
52 4 -10 0
52 16 -22 0
52 27 -33 0
52 37 -43 0
52 -47 -60 0
52 -48 -67 0
52 -49 -73 0
52 -50 -78 0
52 -51 -82 0
52 -53 86 0
52 -54 87 0
52 -55 88 0
60 5 -10 0
60 17 -22 0
60 28 -33 0
60 38 -43 0
60 47 -52 0
60 -56 -67 0
60 -57 -73 0
60 -58 -78 0
60 -59 -82 0
60 -61 86 0
60 -62 87 0
60 -63 88 0
67 6 -10 0
67 18 -22 0
67 29 -33 0
67 39 -43 0
67 48 -52 0
67 56 -60 0
67 -64 -73 0
67 -65 -78 0
67 -66 -82 0
67 -68 86 0
67 -69 87 0
67 -70 88 0
73 7 -10 0
73 19 -22 0
73 30 -33 0
73 40 -43 0
73 49 -52 0
73 57 -60 0
73 64 -67 0
73 -71 -78 0
73 -72 -82 0
73 -74 86 0
73 -75 87 0
73 -76 88 0
78 8 -10 0
78 20 -22 0
78 31 -33 0
78 41 -43 0
78 50 -52 0
78 58 -60 0
78 65 -67 0
78 71 -73 0
78 -77 -82 0
78 -79 86 0
78 -80 87 0
78 -81 88 0
82 9 -10 0
82 21 -22 0
82 32 -33 0
82 42 -43 0
82 51 -52 0
82 59 -60 0
82 66 -67 0
82 72 -73 0
82 77 -78 0
82 -83 86 0
82 -84 87 0
82 -85 88 0
-86 11 -10 0
-86 23 -22 0
-86 34 -33 0
-86 44 -43 0
-86 53 -52 0
-86 61 -60 0
-86 68 -67 0
-86 74 -73 0
-86 79 -78 0
-86 83 -82 0
-86 -89 87 0
-86 -90 88 0
-87 12 -10 0
-87 24 -22 0
-87 35 -33 0
-87 45 -43 0
-87 54 -52 0
-87 62 -60 0
-87 69 -67 0
-87 75 -73 0
-87 80 -78 0
-87 84 -82 0
-87 89 86 0
-87 -91 88 0
-88 13 -10 0
-88 25 -22 0
-88 36 -33 0
-88 46 -43 0
-88 55 -52 0
-88 63 -60 0
-88 70 -67 0
-88 76 -73 0
-88 81 -78 0
-88 85 -82 0
-88 90 86 0
-88 91 87 0
11 -1 -23 0
11 -2 -34 0
11 -3 -44 0
11 -4 -53 0
11 -5 -61 0
11 -6 -68 0
11 -7 -74 0
11 -8 -79 0
11 -9 -83 0
11 -10 -86 0
11 -12 89 0
11 -13 90 0
23 1 -11 0
23 -14 -34 0
23 -15 -44 0
23 -16 -53 0
23 -17 -61 0
23 -18 -68 0
23 -19 -74 0
23 -20 -79 0
23 -21 -83 0
23 -22 -86 0
23 -24 89 0
23 -25 90 0
34 2 -11 0
34 14 -23 0
34 -26 -44 0
34 -27 -53 0
34 -28 -61 0
34 -29 -68 0
34 -30 -74 0
34 -31 -79 0
34 -32 -83 0
34 -33 -86 0
34 -35 89 0
34 -36 90 0
44 3 -11 0
44 15 -23 0
44 26 -34 0
44 -37 -53 0
44 -38 -61 0
44 -39 -68 0
44 -40 -74 0
44 -41 -79 0
44 -42 -83 0
44 -43 -86 0
44 -45 89 0
44 -46 90 0
53 4 -11 0
53 16 -23 0
53 27 -34 0
53 37 -44 0
53 -47 -61 0
53 -48 -68 0
53 -49 -74 0
53 -50 -79 0
53 -51 -83 0
53 -52 -86 0
53 -54 89 0
53 -55 90 0
61 5 -11 0
61 17 -23 0
61 28 -34 0
61 38 -44 0
61 47 -53 0
61 -56 -68 0
61 -57 -74 0
61 -58 -79 0
61 -59 -83 0
61 -60 -86 0
61 -62 89 0
61 -63 90 0
68 6 -11 0
68 18 -23 0
68 29 -34 0
68 39 -44 0
68 48 -53 0
68 56 -61 0
68 -64 -74 0
68 -65 -79 0
68 -66 -83 0
68 -67 -86 0
68 -69 89 0
68 -70 90 0
74 7 -11 0
74 19 -23 0
74 30 -34 0
74 40 -44 0
74 49 -53 0
74 57 -61 0
74 64 -68 0
74 -71 -79 0
74 -72 -83 0
74 -73 -86 0
74 -75 89 0
74 -76 90 0
79 8 -11 0
79 20 -23 0
79 31 -34 0
79 41 -44 0
79 50 -53 0
79 58 -61 0
79 65 -68 0
79 71 -74 0
79 -77 -83 0
79 -78 -86 0
79 -80 89 0
79 -81 90 0
83 9 -11 0
83 21 -23 0
83 32 -34 0
83 42 -44 0
83 51 -53 0
83 59 -61 0
83 66 -68 0
83 72 -74 0
83 77 -79 0
83 -82 -86 0
83 -84 89 0
83 -85 90 0
86 10 -11 0
86 22 -23 0
86 33 -34 0
86 43 -44 0
86 52 -53 0
86 60 -61 0
86 67 -68 0
86 73 -74 0
86 78 -79 0
86 82 -83 0
86 -87 89 0
86 -88 90 0
-89 12 -11 0
-89 24 -23 0
-89 35 -34 0
-89 45 -44 0
-89 54 -53 0
-89 62 -61 0
-89 69 -68 0
-89 75 -74 0
-89 80 -79 0
-89 84 -83 0
-89 87 -86 0
-89 -91 90 0
-90 13 -11 0
-90 25 -23 0
-90 36 -34 0
-90 46 -44 0
-90 55 -53 0
-90 63 -61 0
-90 70 -68 0
-90 76 -74 0
-90 81 -79 0
-90 85 -83 0
-90 88 -86 0
-90 91 89 0
12 -1 -24 0
12 -2 -35 0
12 -3 -45 0
12 -4 -54 0
12 -5 -62 0
12 -6 -69 0
12 -7 -75 0
12 -8 -80 0
12 -9 -84 0
12 -10 -87 0
12 -11 -89 0
12 -13 91 0
24 1 -12 0
24 -14 -35 0
24 -15 -45 0
24 -16 -54 0
24 -17 -62 0
24 -18 -69 0
24 -19 -75 0
24 -20 -80 0
24 -21 -84 0
24 -22 -87 0
24 -23 -89 0
24 -25 91 0
35 2 -12 0
35 14 -24 0
35 -26 -45 0
35 -27 -54 0
35 -28 -62 0
35 -29 -69 0
35 -30 -75 0
35 -31 -80 0
35 -32 -84 0
35 -33 -87 0
35 -34 -89 0
35 -36 91 0
45 3 -12 0
45 15 -24 0
45 26 -35 0
45 -37 -54 0
45 -38 -62 0
45 -39 -69 0
45 -40 -75 0
45 -41 -80 0
45 -42 -84 0
45 -43 -87 0
45 -44 -89 0
45 -46 91 0
54 4 -12 0
54 16 -24 0
54 27 -35 0
54 37 -45 0
54 -47 -62 0
54 -48 -69 0
54 -49 -75 0
54 -50 -80 0
54 -51 -84 0
54 -52 -87 0
54 -53 -89 0
54 -55 91 0
62 5 -12 0
62 17 -24 0
62 28 -35 0
62 38 -45 0
62 47 -54 0
62 -56 -69 0
62 -57 -75 0
62 -58 -80 0
62 -59 -84 0
62 -60 -87 0
62 -61 -89 0
62 -63 91 0
69 6 -12 0
69 18 -24 0
69 29 -35 0
69 39 -45 0
69 48 -54 0
69 56 -62 0
69 -64 -75 0
69 -65 -80 0
69 -66 -84 0
69 -67 -87 0
69 -68 -89 0
69 -70 91 0
75 7 -12 0
75 19 -24 0
75 30 -35 0
75 40 -45 0
75 49 -54 0
75 57 -62 0
75 64 -69 0
75 -71 -80 0
75 -72 -84 0
75 -73 -87 0
75 -74 -89 0
75 -76 91 0
80 8 -12 0
80 20 -24 0
80 31 -35 0
80 41 -45 0
80 50 -54 0
80 58 -62 0
80 65 -69 0
80 71 -75 0
80 -77 -84 0
80 -78 -87 0
80 -79 -89 0
80 -81 91 0
84 9 -12 0
84 21 -24 0
84 32 -35 0
84 42 -45 0
84 51 -54 0
84 59 -62 0
84 66 -69 0
84 72 -75 0
84 77 -80 0
84 -82 -87 0
84 -83 -89 0
84 -85 91 0
87 10 -12 0
87 22 -24 0
87 33 -35 0
87 43 -45 0
87 52 -54 0
87 60 -62 0
87 67 -69 0
87 73 -75 0
87 78 -80 0
87 82 -84 0
87 -86 -89 0
87 -88 91 0
89 11 -12 0
89 23 -24 0
89 34 -35 0
89 44 -45 0
89 53 -54 0
89 61 -62 0
89 68 -69 0
89 74 -75 0
89 79 -80 0
89 83 -84 0
89 86 -87 0
89 -90 91 0
-91 13 -12 0
-91 25 -24 0
-91 36 -35 0
-91 46 -45 0
-91 55 -54 0
-91 63 -62 0
-91 70 -69 0
-91 76 -75 0
-91 81 -80 0
-91 85 -84 0
-91 88 -87 0
-91 90 -89 0
13 -1 -25 0
13 -2 -36 0
13 -3 -46 0
13 -4 -55 0
13 -5 -63 0
13 -6 -70 0
13 -7 -76 0
13 -8 -81 0
13 -9 -85 0
13 -10 -88 0
13 -11 -90 0
13 -12 -91 0
25 1 -13 0
25 -14 -36 0
25 -15 -46 0
25 -16 -55 0
25 -17 -63 0
25 -18 -70 0
25 -19 -76 0
25 -20 -81 0
25 -21 -85 0
25 -22 -88 0
25 -23 -90 0
25 -24 -91 0
36 2 -13 0
36 14 -25 0
36 -26 -46 0
36 -27 -55 0
36 -28 -63 0
36 -29 -70 0
36 -30 -76 0
36 -31 -81 0
36 -32 -85 0
36 -33 -88 0
36 -34 -90 0
36 -35 -91 0
46 3 -13 0
46 15 -25 0
46 26 -36 0
46 -37 -55 0
46 -38 -63 0
46 -39 -70 0
46 -40 -76 0
46 -41 -81 0
46 -42 -85 0
46 -43 -88 0
46 -44 -90 0
46 -45 -91 0
55 4 -13 0
55 16 -25 0
55 27 -36 0
55 37 -46 0
55 -47 -63 0
55 -48 -70 0
55 -49 -76 0
55 -50 -81 0
55 -51 -85 0
55 -52 -88 0
55 -53 -90 0
55 -54 -91 0
63 5 -13 0
63 17 -25 0
63 28 -36 0
63 38 -46 0
63 47 -55 0
63 -56 -70 0
63 -57 -76 0
63 -58 -81 0
63 -59 -85 0
63 -60 -88 0
63 -61 -90 0
63 -62 -91 0
70 6 -13 0
70 18 -25 0
70 29 -36 0
70 39 -46 0
70 48 -55 0
70 56 -63 0
70 -64 -76 0
70 -65 -81 0
70 -66 -85 0
70 -67 -88 0
70 -68 -90 0
70 -69 -91 0
76 7 -13 0
76 19 -25 0
76 30 -36 0
76 40 -46 0
76 49 -55 0
76 57 -63 0
76 64 -70 0
76 -71 -81 0
76 -72 -85 0
76 -73 -88 0
76 -74 -90 0
76 -75 -91 0
81 8 -13 0
81 20 -25 0
81 31 -36 0
81 41 -46 0
81 50 -55 0
81 58 -63 0
81 65 -70 0
81 71 -76 0
81 -77 -85 0
81 -78 -88 0
81 -79 -90 0
81 -80 -91 0
85 9 -13 0
85 21 -25 0
85 32 -36 0
85 42 -46 0
85 51 -55 0
85 59 -63 0
85 66 -70 0
85 72 -76 0
85 77 -81 0
85 -82 -88 0
85 -83 -90 0
85 -84 -91 0
88 10 -13 0
88 22 -25 0
88 33 -36 0
88 43 -46 0
88 52 -55 0
88 60 -63 0
88 67 -70 0
88 73 -76 0
88 78 -81 0
88 82 -85 0
88 -86 -90 0
88 -87 -91 0
90 11 -13 0
90 23 -25 0
90 34 -36 0
90 44 -46 0
90 53 -55 0
90 61 -63 0
90 68 -70 0
90 74 -76 0
90 79 -81 0
90 83 -85 0
90 86 -88 0
90 -89 -91 0
91 12 -13 0
91 24 -25 0
91 35 -36 0
91 45 -46 0
91 54 -55 0
91 62 -63 0
91 69 -70 0
91 75 -76 0
91 80 -81 0
91 84 -85 0
91 87 -88 0
91 89 -90 0
