c family: ordering principle
c known_status: UNSAT
c difficulty_level: hard
c description: larger ordering principle formula
c generated: deterministic complex CNF training pack
p cnf 153 4914
-1 -2 -3 -4 -5 -6 -7 -8 -9 -10 -11 -12 -13 -14 -15 -16 -17 0
1 -18 -19 -20 -21 -22 -23 -24 -25 -26 -27 -28 -29 -30 -31 -32 -33 0
2 18 -34 -35 -36 -37 -38 -39 -40 -41 -42 -43 -44 -45 -46 -47 -48 0
3 19 34 -49 -50 -51 -52 -53 -54 -55 -56 -57 -58 -59 -60 -61 -62 0
4 20 35 49 -63 -64 -65 -66 -67 -68 -69 -70 -71 -72 -73 -74 -75 0
5 21 36 50 63 -76 -77 -78 -79 -80 -81 -82 -83 -84 -85 -86 -87 0
6 22 37 51 64 76 -88 -89 -90 -91 -92 -93 -94 -95 -96 -97 -98 0
7 23 38 52 65 77 88 -99 -100 -101 -102 -103 -104 -105 -106 -107 -108 0
8 24 39 53 66 78 89 99 -109 -110 -111 -112 -113 -114 -115 -116 -117 0
9 25 40 54 67 79 90 100 109 -118 -119 -120 -121 -122 -123 -124 -125 0
10 26 41 55 68 80 91 101 110 118 -126 -127 -128 -129 -130 -131 -132 0
11 27 42 56 69 81 92 102 111 119 126 -133 -134 -135 -136 -137 -138 0
12 28 43 57 70 82 93 103 112 120 127 133 -139 -140 -141 -142 -143 0
13 29 44 58 71 83 94 104 113 121 128 134 139 -144 -145 -146 -147 0
14 30 45 59 72 84 95 105 114 122 129 135 140 144 -148 -149 -150 0
15 31 46 60 73 85 96 106 115 123 130 136 141 145 148 -151 -152 0
16 32 47 61 74 86 97 107 116 124 131 137 142 146 149 151 -153 0
17 33 48 62 75 87 98 108 117 125 132 138 143 147 150 152 153 0
-1 -18 2 0
-1 -19 3 0
-1 -20 4 0
-1 -21 5 0
-1 -22 6 0
-1 -23 7 0
-1 -24 8 0
-1 -25 9 0
-1 -26 10 0
-1 -27 11 0
-1 -28 12 0
-1 -29 13 0
-1 -30 14 0
-1 -31 15 0
-1 -32 16 0
-1 -33 17 0
-2 18 1 0
-2 -34 3 0
-2 -35 4 0
-2 -36 5 0
-2 -37 6 0
-2 -38 7 0
-2 -39 8 0
-2 -40 9 0
-2 -41 10 0
-2 -42 11 0
-2 -43 12 0
-2 -44 13 0
-2 -45 14 0
-2 -46 15 0
-2 -47 16 0
-2 -48 17 0
-3 19 1 0
-3 34 2 0
-3 -49 4 0
-3 -50 5 0
-3 -51 6 0
-3 -52 7 0
-3 -53 8 0
-3 -54 9 0
-3 -55 10 0
-3 -56 11 0
-3 -57 12 0
-3 -58 13 0
-3 -59 14 0
-3 -60 15 0
-3 -61 16 0
-3 -62 17 0
-4 20 1 0
-4 35 2 0
-4 49 3 0
-4 -63 5 0
-4 -64 6 0
-4 -65 7 0
-4 -66 8 0
-4 -67 9 0
-4 -68 10 0
-4 -69 11 0
-4 -70 12 0
-4 -71 13 0
-4 -72 14 0
-4 -73 15 0
-4 -74 16 0
-4 -75 17 0
-5 21 1 0
-5 36 2 0
-5 50 3 0
-5 63 4 0
-5 -76 6 0
-5 -77 7 0
-5 -78 8 0
-5 -79 9 0
-5 -80 10 0
-5 -81 11 0
-5 -82 12 0
-5 -83 13 0
-5 -84 14 0
-5 -85 15 0
-5 -86 16 0
-5 -87 17 0
-6 22 1 0
-6 37 2 0
-6 51 3 0
-6 64 4 0
-6 76 5 0
-6 -88 7 0
-6 -89 8 0
-6 -90 9 0
-6 -91 10 0
-6 -92 11 0
-6 -93 12 0
-6 -94 13 0
-6 -95 14 0
-6 -96 15 0
-6 -97 16 0
-6 -98 17 0
-7 23 1 0
-7 38 2 0
-7 52 3 0
-7 65 4 0
-7 77 5 0
-7 88 6 0
-7 -99 8 0
-7 -100 9 0
-7 -101 10 0
-7 -102 11 0
-7 -103 12 0
-7 -104 13 0
-7 -105 14 0
-7 -106 15 0
-7 -107 16 0
-7 -108 17 0
-8 24 1 0
-8 39 2 0
-8 53 3 0
-8 66 4 0
-8 78 5 0
-8 89 6 0
-8 99 7 0
-8 -109 9 0
-8 -110 10 0
-8 -111 11 0
-8 -112 12 0
-8 -113 13 0
-8 -114 14 0
-8 -115 15 0
-8 -116 16 0
-8 -117 17 0
-9 25 1 0
-9 40 2 0
-9 54 3 0
-9 67 4 0
-9 79 5 0
-9 90 6 0
-9 100 7 0
-9 109 8 0
-9 -118 10 0
-9 -119 11 0
-9 -120 12 0
-9 -121 13 0
-9 -122 14 0
-9 -123 15 0
-9 -124 16 0
-9 -125 17 0
-10 26 1 0
-10 41 2 0
-10 55 3 0
-10 68 4 0
-10 80 5 0
-10 91 6 0
-10 101 7 0
-10 110 8 0
-10 118 9 0
-10 -126 11 0
-10 -127 12 0
-10 -128 13 0
-10 -129 14 0
-10 -130 15 0
-10 -131 16 0
-10 -132 17 0
-11 27 1 0
-11 42 2 0
-11 56 3 0
-11 69 4 0
-11 81 5 0
-11 92 6 0
-11 102 7 0
-11 111 8 0
-11 119 9 0
-11 126 10 0
-11 -133 12 0
-11 -134 13 0
-11 -135 14 0
-11 -136 15 0
-11 -137 16 0
-11 -138 17 0
-12 28 1 0
-12 43 2 0
-12 57 3 0
-12 70 4 0
-12 82 5 0
-12 93 6 0
-12 103 7 0
-12 112 8 0
-12 120 9 0
-12 127 10 0
-12 133 11 0
-12 -139 13 0
-12 -140 14 0
-12 -141 15 0
-12 -142 16 0
-12 -143 17 0
-13 29 1 0
-13 44 2 0
-13 58 3 0
-13 71 4 0
-13 83 5 0
-13 94 6 0
-13 104 7 0
-13 113 8 0
-13 121 9 0
-13 128 10 0
-13 134 11 0
-13 139 12 0
-13 -144 14 0
-13 -145 15 0
-13 -146 16 0
-13 -147 17 0
-14 30 1 0
-14 45 2 0
-14 59 3 0
-14 72 4 0
-14 84 5 0
-14 95 6 0
-14 105 7 0
-14 114 8 0
-14 122 9 0
-14 129 10 0
-14 135 11 0
-14 140 12 0
-14 144 13 0
-14 -148 15 0
-14 -149 16 0
-14 -150 17 0
-15 31 1 0
-15 46 2 0
-15 60 3 0
-15 73 4 0
-15 85 5 0
-15 96 6 0
-15 106 7 0
-15 115 8 0
-15 123 9 0
-15 130 10 0
-15 136 11 0
-15 141 12 0
-15 145 13 0
-15 148 14 0
-15 -151 16 0
-15 -152 17 0
-16 32 1 0
-16 47 2 0
-16 61 3 0
-16 74 4 0
-16 86 5 0
-16 97 6 0
-16 107 7 0
-16 116 8 0
-16 124 9 0
-16 131 10 0
-16 137 11 0
-16 142 12 0
-16 146 13 0
-16 149 14 0
-16 151 15 0
-16 -153 17 0
-17 33 1 0
-17 48 2 0
-17 62 3 0
-17 75 4 0
-17 87 5 0
-17 98 6 0
-17 108 7 0
-17 117 8 0
-17 125 9 0
-17 132 10 0
-17 138 11 0
-17 143 12 0
-17 147 13 0
-17 150 14 0
-17 152 15 0
-17 153 16 0
1 -2 18 0
1 -3 19 0
1 -4 20 0
1 -5 21 0
1 -6 22 0
1 -7 23 0
1 -8 24 0
1 -9 25 0
1 -10 26 0
1 -11 27 0
1 -12 28 0
1 -13 29 0
1 -14 30 0
1 -15 31 0
1 -16 32 0
1 -17 33 0
-18 2 -1 0
-18 -34 19 0
-18 -35 20 0
-18 -36 21 0
-18 -37 22 0
-18 -38 23 0
-18 -39 24 0
-18 -40 25 0
-18 -41 26 0
-18 -42 27 0
-18 -43 28 0
-18 -44 29 0
-18 -45 30 0
-18 -46 31 0
-18 -47 32 0
-18 -48 33 0
-19 3 -1 0
-19 34 18 0
-19 -49 20 0
-19 -50 21 0
-19 -51 22 0
-19 -52 23 0
-19 -53 24 0
-19 -54 25 0
-19 -55 26 0
-19 -56 27 0
-19 -57 28 0
-19 -58 29 0
-19 -59 30 0
-19 -60 31 0
-19 -61 32 0
-19 -62 33 0
-20 4 -1 0
-20 35 18 0
-20 49 19 0
-20 -63 21 0
-20 -64 22 0
-20 -65 23 0
-20 -66 24 0
-20 -67 25 0
-20 -68 26 0
-20 -69 27 0
-20 -70 28 0
-20 -71 29 0
-20 -72 30 0
-20 -73 31 0
-20 -74 32 0
-20 -75 33 0
-21 5 -1 0
-21 36 18 0
-21 50 19 0
-21 63 20 0
-21 -76 22 0
-21 -77 23 0
-21 -78 24 0
-21 -79 25 0
-21 -80 26 0
-21 -81 27 0
-21 -82 28 0
-21 -83 29 0
-21 -84 30 0
-21 -85 31 0
-21 -86 32 0
-21 -87 33 0
-22 6 -1 0
-22 37 18 0
-22 51 19 0
-22 64 20 0
-22 76 21 0
-22 -88 23 0
-22 -89 24 0
-22 -90 25 0
-22 -91 26 0
-22 -92 27 0
-22 -93 28 0
-22 -94 29 0
-22 -95 30 0
-22 -96 31 0
-22 -97 32 0
-22 -98 33 0
-23 7 -1 0
-23 38 18 0
-23 52 19 0
-23 65 20 0
-23 77 21 0
-23 88 22 0
-23 -99 24 0
-23 -100 25 0
-23 -101 26 0
-23 -102 27 0
-23 -103 28 0
-23 -104 29 0
-23 -105 30 0
-23 -106 31 0
-23 -107 32 0
-23 -108 33 0
-24 8 -1 0
-24 39 18 0
-24 53 19 0
-24 66 20 0
-24 78 21 0
-24 89 22 0
-24 99 23 0
-24 -109 25 0
-24 -110 26 0
-24 -111 27 0
-24 -112 28 0
-24 -113 29 0
-24 -114 30 0
-24 -115 31 0
-24 -116 32 0
-24 -117 33 0
-25 9 -1 0
-25 40 18 0
-25 54 19 0
-25 67 20 0
-25 79 21 0
-25 90 22 0
-25 100 23 0
-25 109 24 0
-25 -118 26 0
-25 -119 27 0
-25 -120 28 0
-25 -121 29 0
-25 -122 30 0
-25 -123 31 0
-25 -124 32 0
-25 -125 33 0
-26 10 -1 0
-26 41 18 0
-26 55 19 0
-26 68 20 0
-26 80 21 0
-26 91 22 0
-26 101 23 0
-26 110 24 0
-26 118 25 0
-26 -126 27 0
-26 -127 28 0
-26 -128 29 0
-26 -129 30 0
-26 -130 31 0
-26 -131 32 0
-26 -132 33 0
-27 11 -1 0
-27 42 18 0
-27 56 19 0
-27 69 20 0
-27 81 21 0
-27 92 22 0
-27 102 23 0
-27 111 24 0
-27 119 25 0
-27 126 26 0
-27 -133 28 0
-27 -134 29 0
-27 -135 30 0
-27 -136 31 0
-27 -137 32 0
-27 -138 33 0
-28 12 -1 0
-28 43 18 0
-28 57 19 0
-28 70 20 0
-28 82 21 0
-28 93 22 0
-28 103 23 0
-28 112 24 0
-28 120 25 0
-28 127 26 0
-28 133 27 0
-28 -139 29 0
-28 -140 30 0
-28 -141 31 0
-28 -142 32 0
-28 -143 33 0
-29 13 -1 0
-29 44 18 0
-29 58 19 0
-29 71 20 0
-29 83 21 0
-29 94 22 0
-29 104 23 0
-29 113 24 0
-29 121 25 0
-29 128 26 0
-29 134 27 0
-29 139 28 0
-29 -144 30 0
-29 -145 31 0
-29 -146 32 0
-29 -147 33 0
-30 14 -1 0
-30 45 18 0
-30 59 19 0
-30 72 20 0
-30 84 21 0
-30 95 22 0
-30 105 23 0
-30 114 24 0
-30 122 25 0
-30 129 26 0
-30 135 27 0
-30 140 28 0
-30 144 29 0
-30 -148 31 0
-30 -149 32 0
-30 -150 33 0
-31 15 -1 0
-31 46 18 0
-31 60 19 0
-31 73 20 0
-31 85 21 0
-31 96 22 0
-31 106 23 0
-31 115 24 0
-31 123 25 0
-31 130 26 0
-31 136 27 0
-31 141 28 0
-31 145 29 0
-31 148 30 0
-31 -151 32 0
-31 -152 33 0
-32 16 -1 0
-32 47 18 0
-32 61 19 0
-32 74 20 0
-32 86 21 0
-32 97 22 0
-32 107 23 0
-32 116 24 0
-32 124 25 0
-32 131 26 0
-32 137 27 0
-32 142 28 0
-32 146 29 0
-32 149 30 0
-32 151 31 0
-32 -153 33 0
-33 17 -1 0
-33 48 18 0
-33 62 19 0
-33 75 20 0
-33 87 21 0
-33 98 22 0
-33 108 23 0
-33 117 24 0
-33 125 25 0
-33 132 26 0
-33 138 27 0
-33 143 28 0
-33 147 29 0
-33 150 30 0
-33 152 31 0
-33 153 32 0
2 -1 -18 0
2 -3 34 0
2 -4 35 0
2 -5 36 0
2 -6 37 0
2 -7 38 0
2 -8 39 0
2 -9 40 0
2 -10 41 0
2 -11 42 0
2 -12 43 0
2 -13 44 0
2 -14 45 0
2 -15 46 0
2 -16 47 0
2 -17 48 0
18 1 -2 0
18 -19 34 0
18 -20 35 0
18 -21 36 0
18 -22 37 0
18 -23 38 0
18 -24 39 0
18 -25 40 0
18 -26 41 0
18 -27 42 0
18 -28 43 0
18 -29 44 0
18 -30 45 0
18 -31 46 0
18 -32 47 0
18 -33 48 0
-34 3 -2 0
-34 19 -18 0
-34 -49 35 0
-34 -50 36 0
-34 -51 37 0
-34 -52 38 0
-34 -53 39 0
-34 -54 40 0
-34 -55 41 0
-34 -56 42 0
-34 -57 43 0
-34 -58 44 0
-34 -59 45 0
-34 -60 46 0
-34 -61 47 0
-34 -62 48 0
-35 4 -2 0
-35 20 -18 0
-35 49 34 0
-35 -63 36 0
-35 -64 37 0
-35 -65 38 0
-35 -66 39 0
-35 -67 40 0
-35 -68 41 0
-35 -69 42 0
-35 -70 43 0
-35 -71 44 0
-35 -72 45 0
-35 -73 46 0
-35 -74 47 0
-35 -75 48 0
-36 5 -2 0
-36 21 -18 0
-36 50 34 0
-36 63 35 0
-36 -76 37 0
-36 -77 38 0
-36 -78 39 0
-36 -79 40 0
-36 -80 41 0
-36 -81 42 0
-36 -82 43 0
-36 -83 44 0
-36 -84 45 0
-36 -85 46 0
-36 -86 47 0
-36 -87 48 0
-37 6 -2 0
-37 22 -18 0
-37 51 34 0
-37 64 35 0
-37 76 36 0
-37 -88 38 0
-37 -89 39 0
-37 -90 40 0
-37 -91 41 0
-37 -92 42 0
-37 -93 43 0
-37 -94 44 0
-37 -95 45 0
-37 -96 46 0
-37 -97 47 0
-37 -98 48 0
-38 7 -2 0
-38 23 -18 0
-38 52 34 0
-38 65 35 0
-38 77 36 0
-38 88 37 0
-38 -99 39 0
-38 -100 40 0
-38 -101 41 0
-38 -102 42 0
-38 -103 43 0
-38 -104 44 0
-38 -105 45 0
-38 -106 46 0
-38 -107 47 0
-38 -108 48 0
-39 8 -2 0
-39 24 -18 0
-39 53 34 0
-39 66 35 0
-39 78 36 0
-39 89 37 0
-39 99 38 0
-39 -109 40 0
-39 -110 41 0
-39 -111 42 0
-39 -112 43 0
-39 -113 44 0
-39 -114 45 0
-39 -115 46 0
-39 -116 47 0
-39 -117 48 0
-40 9 -2 0
-40 25 -18 0
-40 54 34 0
-40 67 35 0
-40 79 36 0
-40 90 37 0
-40 100 38 0
-40 109 39 0
-40 -118 41 0
-40 -119 42 0
-40 -120 43 0
-40 -121 44 0
-40 -122 45 0
-40 -123 46 0
-40 -124 47 0
-40 -125 48 0
-41 10 -2 0
-41 26 -18 0
-41 55 34 0
-41 68 35 0
-41 80 36 0
-41 91 37 0
-41 101 38 0
-41 110 39 0
-41 118 40 0
-41 -126 42 0
-41 -127 43 0
-41 -128 44 0
-41 -129 45 0
-41 -130 46 0
-41 -131 47 0
-41 -132 48 0
-42 11 -2 0
-42 27 -18 0
-42 56 34 0
-42 69 35 0
-42 81 36 0
-42 92 37 0
-42 102 38 0
-42 111 39 0
-42 119 40 0
-42 126 41 0
-42 -133 43 0
-42 -134 44 0
-42 -135 45 0
-42 -136 46 0
-42 -137 47 0
-42 -138 48 0
-43 12 -2 0
-43 28 -18 0
-43 57 34 0
-43 70 35 0
-43 82 36 0
-43 93 37 0
-43 103 38 0
-43 112 39 0
-43 120 40 0
-43 127 41 0
-43 133 42 0
-43 -139 44 0
-43 -140 45 0
-43 -141 46 0
-43 -142 47 0
-43 -143 48 0
-44 13 -2 0
-44 29 -18 0
-44 58 34 0
-44 71 35 0
-44 83 36 0
-44 94 37 0
-44 104 38 0
-44 113 39 0
-44 121 40 0
-44 128 41 0
-44 134 42 0
-44 139 43 0
-44 -144 45 0
-44 -145 46 0
-44 -146 47 0
-44 -147 48 0
-45 14 -2 0
-45 30 -18 0
-45 59 34 0
-45 72 35 0
-45 84 36 0
-45 95 37 0
-45 105 38 0
-45 114 39 0
-45 122 40 0
-45 129 41 0
-45 135 42 0
-45 140 43 0
-45 144 44 0
-45 -148 46 0
-45 -149 47 0
-45 -150 48 0
-46 15 -2 0
-46 31 -18 0
-46 60 34 0
-46 73 35 0
-46 85 36 0
-46 96 37 0
-46 106 38 0
-46 115 39 0
-46 123 40 0
-46 130 41 0
-46 136 42 0
-46 141 43 0
-46 145 44 0
-46 148 45 0
-46 -151 47 0
-46 -152 48 0
-47 16 -2 0
-47 32 -18 0
-47 61 34 0
-47 74 35 0
-47 86 36 0
-47 97 37 0
-47 107 38 0
-47 116 39 0
-47 124 40 0
-47 131 41 0
-47 137 42 0
-47 142 43 0
-47 146 44 0
-47 149 45 0
-47 151 46 0
-47 -153 48 0
-48 17 -2 0
-48 33 -18 0
-48 62 34 0
-48 75 35 0
-48 87 36 0
-48 98 37 0
-48 108 38 0
-48 117 39 0
-48 125 40 0
-48 132 41 0
-48 138 42 0
-48 143 43 0
-48 147 44 0
-48 150 45 0
-48 152 46 0
-48 153 47 0
3 -1 -19 0
3 -2 -34 0
3 -4 49 0
3 -5 50 0
3 -6 51 0
3 -7 52 0
3 -8 53 0
3 -9 54 0
3 -10 55 0
3 -11 56 0
3 -12 57 0
3 -13 58 0
3 -14 59 0
3 -15 60 0
3 -16 61 0
3 -17 62 0
19 1 -3 0
19 -18 -34 0
19 -20 49 0
19 -21 50 0
19 -22 51 0
19 -23 52 0
19 -24 53 0
19 -25 54 0
19 -26 55 0
19 -27 56 0
19 -28 57 0
19 -29 58 0
19 -30 59 0
19 -31 60 0
19 -32 61 0
19 -33 62 0
34 2 -3 0
34 18 -19 0
34 -35 49 0
34 -36 50 0
34 -37 51 0
34 -38 52 0
34 -39 53 0
34 -40 54 0
34 -41 55 0
34 -42 56 0
34 -43 57 0
34 -44 58 0
34 -45 59 0
34 -46 60 0
34 -47 61 0
34 -48 62 0
-49 4 -3 0
-49 20 -19 0
-49 35 -34 0
-49 -63 50 0
-49 -64 51 0
-49 -65 52 0
-49 -66 53 0
-49 -67 54 0
-49 -68 55 0
-49 -69 56 0
-49 -70 57 0
-49 -71 58 0
-49 -72 59 0
-49 -73 60 0
-49 -74 61 0
-49 -75 62 0
-50 5 -3 0
-50 21 -19 0
-50 36 -34 0
-50 63 49 0
-50 -76 51 0
-50 -77 52 0
-50 -78 53 0
-50 -79 54 0
-50 -80 55 0
-50 -81 56 0
-50 -82 57 0
-50 -83 58 0
-50 -84 59 0
-50 -85 60 0
-50 -86 61 0
-50 -87 62 0
-51 6 -3 0
-51 22 -19 0
-51 37 -34 0
-51 64 49 0
-51 76 50 0
-51 -88 52 0
-51 -89 53 0
-51 -90 54 0
-51 -91 55 0
-51 -92 56 0
-51 -93 57 0
-51 -94 58 0
-51 -95 59 0
-51 -96 60 0
-51 -97 61 0
-51 -98 62 0
-52 7 -3 0
-52 23 -19 0
-52 38 -34 0
-52 65 49 0
-52 77 50 0
-52 88 51 0
-52 -99 53 0
-52 -100 54 0
-52 -101 55 0
-52 -102 56 0
-52 -103 57 0
-52 -104 58 0
-52 -105 59 0
-52 -106 60 0
-52 -107 61 0
-52 -108 62 0
-53 8 -3 0
-53 24 -19 0
-53 39 -34 0
-53 66 49 0
-53 78 50 0
-53 89 51 0
-53 99 52 0
-53 -109 54 0
-53 -110 55 0
-53 -111 56 0
-53 -112 57 0
-53 -113 58 0
-53 -114 59 0
-53 -115 60 0
-53 -116 61 0
-53 -117 62 0
-54 9 -3 0
-54 25 -19 0
-54 40 -34 0
-54 67 49 0
-54 79 50 0
-54 90 51 0
-54 100 52 0
-54 109 53 0
-54 -118 55 0
-54 -119 56 0
-54 -120 57 0
-54 -121 58 0
-54 -122 59 0
-54 -123 60 0
-54 -124 61 0
-54 -125 62 0
-55 10 -3 0
-55 26 -19 0
-55 41 -34 0
-55 68 49 0
-55 80 50 0
-55 91 51 0
-55 101 52 0
-55 110 53 0
-55 118 54 0
-55 -126 56 0
-55 -127 57 0
-55 -128 58 0
-55 -129 59 0
-55 -130 60 0
-55 -131 61 0
-55 -132 62 0
-56 11 -3 0
-56 27 -19 0
-56 42 -34 0
-56 69 49 0
-56 81 50 0
-56 92 51 0
-56 102 52 0
-56 111 53 0
-56 119 54 0
-56 126 55 0
-56 -133 57 0
-56 -134 58 0
-56 -135 59 0
-56 -136 60 0
-56 -137 61 0
-56 -138 62 0
-57 12 -3 0
-57 28 -19 0
-57 43 -34 0
-57 70 49 0
-57 82 50 0
-57 93 51 0
-57 103 52 0
-57 112 53 0
-57 120 54 0
-57 127 55 0
-57 133 56 0
-57 -139 58 0
-57 -140 59 0
-57 -141 60 0
-57 -142 61 0
-57 -143 62 0
-58 13 -3 0
-58 29 -19 0
-58 44 -34 0
-58 71 49 0
-58 83 50 0
-58 94 51 0
-58 104 52 0
-58 113 53 0
-58 121 54 0
-58 128 55 0
-58 134 56 0
-58 139 57 0
-58 -144 59 0
-58 -145 60 0
-58 -146 61 0
-58 -147 62 0
-59 14 -3 0
-59 30 -19 0
-59 45 -34 0
-59 72 49 0
-59 84 50 0
-59 95 51 0
-59 105 52 0
-59 114 53 0
-59 122 54 0
-59 129 55 0
-59 135 56 0
-59 140 57 0
-59 144 58 0
-59 -148 60 0
-59 -149 61 0
-59 -150 62 0
-60 15 -3 0
-60 31 -19 0
-60 46 -34 0
-60 73 49 0
-60 85 50 0
-60 96 51 0
-60 106 52 0
-60 115 53 0
-60 123 54 0
-60 130 55 0
-60 136 56 0
-60 141 57 0
-60 145 58 0
-60 148 59 0
-60 -151 61 0
-60 -152 62 0
-61 16 -3 0
-61 32 -19 0
-61 47 -34 0
-61 74 49 0
-61 86 50 0
-61 97 51 0
-61 107 52 0
-61 116 53 0
-61 124 54 0
-61 131 55 0
-61 137 56 0
-61 142 57 0
-61 146 58 0
-61 149 59 0
-61 151 60 0
-61 -153 62 0
-62 17 -3 0
-62 33 -19 0
-62 48 -34 0
-62 75 49 0
-62 87 50 0
-62 98 51 0
-62 108 52 0
-62 117 53 0
-62 125 54 0
-62 132 55 0
-62 138 56 0
-62 143 57 0
-62 147 58 0
-62 150 59 0
-62 152 60 0
-62 153 61 0
4 -1 -20 0
4 -2 -35 0
4 -3 -49 0
4 -5 63 0
4 -6 64 0
4 -7 65 0
4 -8 66 0
4 -9 67 0
4 -10 68 0
4 -11 69 0
4 -12 70 0
4 -13 71 0
4 -14 72 0
4 -15 73 0
4 -16 74 0
4 -17 75 0
20 1 -4 0
20 -18 -35 0
20 -19 -49 0
20 -21 63 0
20 -22 64 0
20 -23 65 0
20 -24 66 0
20 -25 67 0
20 -26 68 0
20 -27 69 0
20 -28 70 0
20 -29 71 0
20 -30 72 0
20 -31 73 0
20 -32 74 0
20 -33 75 0
35 2 -4 0
35 18 -20 0
35 -34 -49 0
35 -36 63 0
35 -37 64 0
35 -38 65 0
35 -39 66 0
35 -40 67 0
35 -41 68 0
35 -42 69 0
35 -43 70 0
35 -44 71 0
35 -45 72 0
35 -46 73 0
35 -47 74 0
35 -48 75 0
49 3 -4 0
49 19 -20 0
49 34 -35 0
49 -50 63 0
49 -51 64 0
49 -52 65 0
49 -53 66 0
49 -54 67 0
49 -55 68 0
49 -56 69 0
49 -57 70 0
49 -58 71 0
49 -59 72 0
49 -60 73 0
49 -61 74 0
49 -62 75 0
-63 5 -4 0
-63 21 -20 0
-63 36 -35 0
-63 50 -49 0
-63 -76 64 0
-63 -77 65 0
-63 -78 66 0
-63 -79 67 0
-63 -80 68 0
-63 -81 69 0
-63 -82 70 0
-63 -83 71 0
-63 -84 72 0
-63 -85 73 0
-63 -86 74 0
-63 -87 75 0
-64 6 -4 0
-64 22 -20 0
-64 37 -35 0
-64 51 -49 0
-64 76 63 0
-64 -88 65 0
-64 -89 66 0
-64 -90 67 0
-64 -91 68 0
-64 -92 69 0
-64 -93 70 0
-64 -94 71 0
-64 -95 72 0
-64 -96 73 0
-64 -97 74 0
-64 -98 75 0
-65 7 -4 0
-65 23 -20 0
-65 38 -35 0
-65 52 -49 0
-65 77 63 0
-65 88 64 0
-65 -99 66 0
-65 -100 67 0
-65 -101 68 0
-65 -102 69 0
-65 -103 70 0
-65 -104 71 0
-65 -105 72 0
-65 -106 73 0
-65 -107 74 0
-65 -108 75 0
-66 8 -4 0
-66 24 -20 0
-66 39 -35 0
-66 53 -49 0
-66 78 63 0
-66 89 64 0
-66 99 65 0
-66 -109 67 0
-66 -110 68 0
-66 -111 69 0
-66 -112 70 0
-66 -113 71 0
-66 -114 72 0
-66 -115 73 0
-66 -116 74 0
-66 -117 75 0
-67 9 -4 0
-67 25 -20 0
-67 40 -35 0
-67 54 -49 0
-67 79 63 0
-67 90 64 0
-67 100 65 0
-67 109 66 0
-67 -118 68 0
-67 -119 69 0
-67 -120 70 0
-67 -121 71 0
-67 -122 72 0
-67 -123 73 0
-67 -124 74 0
-67 -125 75 0
-68 10 -4 0
-68 26 -20 0
-68 41 -35 0
-68 55 -49 0
-68 80 63 0
-68 91 64 0
-68 101 65 0
-68 110 66 0
-68 118 67 0
-68 -126 69 0
-68 -127 70 0
-68 -128 71 0
-68 -129 72 0
-68 -130 73 0
-68 -131 74 0
-68 -132 75 0
-69 11 -4 0
-69 27 -20 0
-69 42 -35 0
-69 56 -49 0
-69 81 63 0
-69 92 64 0
-69 102 65 0
-69 111 66 0
-69 119 67 0
-69 126 68 0
-69 -133 70 0
-69 -134 71 0
-69 -135 72 0
-69 -136 73 0
-69 -137 74 0
-69 -138 75 0
-70 12 -4 0
-70 28 -20 0
-70 43 -35 0
-70 57 -49 0
-70 82 63 0
-70 93 64 0
-70 103 65 0
-70 112 66 0
-70 120 67 0
-70 127 68 0
-70 133 69 0
-70 -139 71 0
-70 -140 72 0
-70 -141 73 0
-70 -142 74 0
-70 -143 75 0
-71 13 -4 0
-71 29 -20 0
-71 44 -35 0
-71 58 -49 0
-71 83 63 0
-71 94 64 0
-71 104 65 0
-71 113 66 0
-71 121 67 0
-71 128 68 0
-71 134 69 0
-71 139 70 0
-71 -144 72 0
-71 -145 73 0
-71 -146 74 0
-71 -147 75 0
-72 14 -4 0
-72 30 -20 0
-72 45 -35 0
-72 59 -49 0
-72 84 63 0
-72 95 64 0
-72 105 65 0
-72 114 66 0
-72 122 67 0
-72 129 68 0
-72 135 69 0
-72 140 70 0
-72 144 71 0
-72 -148 73 0
-72 -149 74 0
-72 -150 75 0
-73 15 -4 0
-73 31 -20 0
-73 46 -35 0
-73 60 -49 0
-73 85 63 0
-73 96 64 0
-73 106 65 0
-73 115 66 0
-73 123 67 0
-73 130 68 0
-73 136 69 0
-73 141 70 0
-73 145 71 0
-73 148 72 0
-73 -151 74 0
-73 -152 75 0
-74 16 -4 0
-74 32 -20 0
-74 47 -35 0
-74 61 -49 0
-74 86 63 0
-74 97 64 0
-74 107 65 0
-74 116 66 0
-74 124 67 0
-74 131 68 0
-74 137 69 0
-74 142 70 0
-74 146 71 0
-74 149 72 0
-74 151 73 0
-74 -153 75 0
-75 17 -4 0
-75 33 -20 0
-75 48 -35 0
-75 62 -49 0
-75 87 63 0
-75 98 64 0
-75 108 65 0
-75 117 66 0
-75 125 67 0
-75 132 68 0
-75 138 69 0
-75 143 70 0
-75 147 71 0
-75 150 72 0
-75 152 73 0
-75 153 74 0
5 -1 -21 0
5 -2 -36 0
5 -3 -50 0
5 -4 -63 0
5 -6 76 0
5 -7 77 0
5 -8 78 0
5 -9 79 0
5 -10 80 0
5 -11 81 0
5 -12 82 0
5 -13 83 0
5 -14 84 0
5 -15 85 0
5 -16 86 0
5 -17 87 0
21 1 -5 0
21 -18 -36 0
21 -19 -50 0
21 -20 -63 0
21 -22 76 0
21 -23 77 0
21 -24 78 0
21 -25 79 0
21 -26 80 0
21 -27 81 0
21 -28 82 0
21 -29 83 0
21 -30 84 0
21 -31 85 0
21 -32 86 0
21 -33 87 0
36 2 -5 0
36 18 -21 0
36 -34 -50 0
36 -35 -63 0
36 -37 76 0
36 -38 77 0
36 -39 78 0
36 -40 79 0
36 -41 80 0
36 -42 81 0
36 -43 82 0
36 -44 83 0
36 -45 84 0
36 -46 85 0
36 -47 86 0
36 -48 87 0
50 3 -5 0
50 19 -21 0
50 34 -36 0
50 -49 -63 0
50 -51 76 0
50 -52 77 0
50 -53 78 0
50 -54 79 0
50 -55 80 0
50 -56 81 0
50 -57 82 0
50 -58 83 0
50 -59 84 0
50 -60 85 0
50 -61 86 0
50 -62 87 0
63 4 -5 0
63 20 -21 0
63 35 -36 0
63 49 -50 0
63 -64 76 0
63 -65 77 0
63 -66 78 0
63 -67 79 0
63 -68 80 0
63 -69 81 0
63 -70 82 0
63 -71 83 0
63 -72 84 0
63 -73 85 0
63 -74 86 0
63 -75 87 0
-76 6 -5 0
-76 22 -21 0
-76 37 -36 0
-76 51 -50 0
-76 64 -63 0
-76 -88 77 0
-76 -89 78 0
-76 -90 79 0
-76 -91 80 0
-76 -92 81 0
-76 -93 82 0
-76 -94 83 0
-76 -95 84 0
-76 -96 85 0
-76 -97 86 0
-76 -98 87 0
-77 7 -5 0
-77 23 -21 0
-77 38 -36 0
-77 52 -50 0
-77 65 -63 0
-77 88 76 0
-77 -99 78 0
-77 -100 79 0
-77 -101 80 0
-77 -102 81 0
-77 -103 82 0
-77 -104 83 0
-77 -105 84 0
-77 -106 85 0
-77 -107 86 0
-77 -108 87 0
-78 8 -5 0
-78 24 -21 0
-78 39 -36 0
-78 53 -50 0
-78 66 -63 0
-78 89 76 0
-78 99 77 0
-78 -109 79 0
-78 -110 80 0
-78 -111 81 0
-78 -112 82 0
-78 -113 83 0
-78 -114 84 0
-78 -115 85 0
-78 -116 86 0
-78 -117 87 0
-79 9 -5 0
-79 25 -21 0
-79 40 -36 0
-79 54 -50 0
-79 67 -63 0
-79 90 76 0
-79 100 77 0
-79 109 78 0
-79 -118 80 0
-79 -119 81 0
-79 -120 82 0
-79 -121 83 0
-79 -122 84 0
-79 -123 85 0
-79 -124 86 0
-79 -125 87 0
-80 10 -5 0
-80 26 -21 0
-80 41 -36 0
-80 55 -50 0
-80 68 -63 0
-80 91 76 0
-80 101 77 0
-80 110 78 0
-80 118 79 0
-80 -126 81 0
-80 -127 82 0
-80 -128 83 0
-80 -129 84 0
-80 -130 85 0
-80 -131 86 0
-80 -132 87 0
-81 11 -5 0
-81 27 -21 0
-81 42 -36 0
-81 56 -50 0
-81 69 -63 0
-81 92 76 0
-81 102 77 0
-81 111 78 0
-81 119 79 0
-81 126 80 0
-81 -133 82 0
-81 -134 83 0
-81 -135 84 0
-81 -136 85 0
-81 -137 86 0
-81 -138 87 0
-82 12 -5 0
-82 28 -21 0
-82 43 -36 0
-82 57 -50 0
-82 70 -63 0
-82 93 76 0
-82 103 77 0
-82 112 78 0
-82 120 79 0
-82 127 80 0
-82 133 81 0
-82 -139 83 0
-82 -140 84 0
-82 -141 85 0
-82 -142 86 0
-82 -143 87 0
-83 13 -5 0
-83 29 -21 0
-83 44 -36 0
-83 58 -50 0
-83 71 -63 0
-83 94 76 0
-83 104 77 0
-83 113 78 0
-83 121 79 0
-83 128 80 0
-83 134 81 0
-83 139 82 0
-83 -144 84 0
-83 -145 85 0
-83 -146 86 0
-83 -147 87 0
-84 14 -5 0
-84 30 -21 0
-84 45 -36 0
-84 59 -50 0
-84 72 -63 0
-84 95 76 0
-84 105 77 0
-84 114 78 0
-84 122 79 0
-84 129 80 0
-84 135 81 0
-84 140 82 0
-84 144 83 0
-84 -148 85 0
-84 -149 86 0
-84 -150 87 0
-85 15 -5 0
-85 31 -21 0
-85 46 -36 0
-85 60 -50 0
-85 73 -63 0
-85 96 76 0
-85 106 77 0
-85 115 78 0
-85 123 79 0
-85 130 80 0
-85 136 81 0
-85 141 82 0
-85 145 83 0
-85 148 84 0
-85 -151 86 0
-85 -152 87 0
-86 16 -5 0
-86 32 -21 0
-86 47 -36 0
-86 61 -50 0
-86 74 -63 0
-86 97 76 0
-86 107 77 0
-86 116 78 0
-86 124 79 0
-86 131 80 0
-86 137 81 0
-86 142 82 0
-86 146 83 0
-86 149 84 0
-86 151 85 0
-86 -153 87 0
-87 17 -5 0
-87 33 -21 0
-87 48 -36 0
-87 62 -50 0
-87 75 -63 0
-87 98 76 0
-87 108 77 0
-87 117 78 0
-87 125 79 0
-87 132 80 0
-87 138 81 0
-87 143 82 0
-87 147 83 0
-87 150 84 0
-87 152 85 0
-87 153 86 0
6 -1 -22 0
6 -2 -37 0
6 -3 -51 0
6 -4 -64 0
6 -5 -76 0
6 -7 88 0
6 -8 89 0
6 -9 90 0
6 -10 91 0
6 -11 92 0
6 -12 93 0
6 -13 94 0
6 -14 95 0
6 -15 96 0
6 -16 97 0
6 -17 98 0
22 1 -6 0
22 -18 -37 0
22 -19 -51 0
22 -20 -64 0
22 -21 -76 0
22 -23 88 0
22 -24 89 0
22 -25 90 0
22 -26 91 0
22 -27 92 0
22 -28 93 0
22 -29 94 0
22 -30 95 0
22 -31 96 0
22 -32 97 0
22 -33 98 0
37 2 -6 0
37 18 -22 0
37 -34 -51 0
37 -35 -64 0
37 -36 -76 0
37 -38 88 0
37 -39 89 0
37 -40 90 0
37 -41 91 0
37 -42 92 0
37 -43 93 0
37 -44 94 0
37 -45 95 0
37 -46 96 0
37 -47 97 0
37 -48 98 0
51 3 -6 0
51 19 -22 0
51 34 -37 0
51 -49 -64 0
51 -50 -76 0
51 -52 88 0
51 -53 89 0
51 -54 90 0
51 -55 91 0
51 -56 92 0
51 -57 93 0
51 -58 94 0
51 -59 95 0
51 -60 96 0
51 -61 97 0
51 -62 98 0
64 4 -6 0
64 20 -22 0
64 35 -37 0
64 49 -51 0
64 -63 -76 0
64 -65 88 0
64 -66 89 0
64 -67 90 0
64 -68 91 0
64 -69 92 0
64 -70 93 0
64 -71 94 0
64 -72 95 0
64 -73 96 0
64 -74 97 0
64 -75 98 0
76 5 -6 0
76 21 -22 0
76 36 -37 0
76 50 -51 0
76 63 -64 0
76 -77 88 0
76 -78 89 0
76 -79 90 0
76 -80 91 0
76 -81 92 0
76 -82 93 0
76 -83 94 0
76 -84 95 0
76 -85 96 0
76 -86 97 0
76 -87 98 0
-88 7 -6 0
-88 23 -22 0
-88 38 -37 0
-88 52 -51 0
-88 65 -64 0
-88 77 -76 0
-88 -99 89 0
-88 -100 90 0
-88 -101 91 0
-88 -102 92 0
-88 -103 93 0
-88 -104 94 0
-88 -105 95 0
-88 -106 96 0
-88 -107 97 0
-88 -108 98 0
-89 8 -6 0
-89 24 -22 0
-89 39 -37 0
-89 53 -51 0
-89 66 -64 0
-89 78 -76 0
-89 99 88 0
-89 -109 90 0
-89 -110 91 0
-89 -111 92 0
-89 -112 93 0
-89 -113 94 0
-89 -114 95 0
-89 -115 96 0
-89 -116 97 0
-89 -117 98 0
-90 9 -6 0
-90 25 -22 0
-90 40 -37 0
-90 54 -51 0
-90 67 -64 0
-90 79 -76 0
-90 100 88 0
-90 109 89 0
-90 -118 91 0
-90 -119 92 0
-90 -120 93 0
-90 -121 94 0
-90 -122 95 0
-90 -123 96 0
-90 -124 97 0
-90 -125 98 0
-91 10 -6 0
-91 26 -22 0
-91 41 -37 0
-91 55 -51 0
-91 68 -64 0
-91 80 -76 0
-91 101 88 0
-91 110 89 0
-91 118 90 0
-91 -126 92 0
-91 -127 93 0
-91 -128 94 0
-91 -129 95 0
-91 -130 96 0
-91 -131 97 0
-91 -132 98 0
-92 11 -6 0
-92 27 -22 0
-92 42 -37 0
-92 56 -51 0
-92 69 -64 0
-92 81 -76 0
-92 102 88 0
-92 111 89 0
-92 119 90 0
-92 126 91 0
-92 -133 93 0
-92 -134 94 0
-92 -135 95 0
-92 -136 96 0
-92 -137 97 0
-92 -138 98 0
-93 12 -6 0
-93 28 -22 0
-93 43 -37 0
-93 57 -51 0
-93 70 -64 0
-93 82 -76 0
-93 103 88 0
-93 112 89 0
-93 120 90 0
-93 127 91 0
-93 133 92 0
-93 -139 94 0
-93 -140 95 0
-93 -141 96 0
-93 -142 97 0
-93 -143 98 0
-94 13 -6 0
-94 29 -22 0
-94 44 -37 0
-94 58 -51 0
-94 71 -64 0
-94 83 -76 0
-94 104 88 0
-94 113 89 0
-94 121 90 0
-94 128 91 0
-94 134 92 0
-94 139 93 0
-94 -144 95 0
-94 -145 96 0
-94 -146 97 0
-94 -147 98 0
-95 14 -6 0
-95 30 -22 0
-95 45 -37 0
-95 59 -51 0
-95 72 -64 0
-95 84 -76 0
-95 105 88 0
-95 114 89 0
-95 122 90 0
-95 129 91 0
-95 135 92 0
-95 140 93 0
-95 144 94 0
-95 -148 96 0
-95 -149 97 0
-95 -150 98 0
-96 15 -6 0
-96 31 -22 0
-96 46 -37 0
-96 60 -51 0
-96 73 -64 0
-96 85 -76 0
-96 106 88 0
-96 115 89 0
-96 123 90 0
-96 130 91 0
-96 136 92 0
-96 141 93 0
-96 145 94 0
-96 148 95 0
-96 -151 97 0
-96 -152 98 0
-97 16 -6 0
-97 32 -22 0
-97 47 -37 0
-97 61 -51 0
-97 74 -64 0
-97 86 -76 0
-97 107 88 0
-97 116 89 0
-97 124 90 0
-97 131 91 0
-97 137 92 0
-97 142 93 0
-97 146 94 0
-97 149 95 0
-97 151 96 0
-97 -153 98 0
-98 17 -6 0
-98 33 -22 0
-98 48 -37 0
-98 62 -51 0
-98 75 -64 0
-98 87 -76 0
-98 108 88 0
-98 117 89 0
-98 125 90 0
-98 132 91 0
-98 138 92 0
-98 143 93 0
-98 147 94 0
-98 150 95 0
-98 152 96 0
-98 153 97 0
7 -1 -23 0
7 -2 -38 0
7 -3 -52 0
7 -4 -65 0
7 -5 -77 0
7 -6 -88 0
7 -8 99 0
7 -9 100 0
7 -10 101 0
7 -11 102 0
7 -12 103 0
7 -13 104 0
7 -14 105 0
7 -15 106 0
7 -16 107 0
7 -17 108 0
23 1 -7 0
23 -18 -38 0
23 -19 -52 0
23 -20 -65 0
23 -21 -77 0
23 -22 -88 0
23 -24 99 0
23 -25 100 0
23 -26 101 0
23 -27 102 0
23 -28 103 0
23 -29 104 0
23 -30 105 0
23 -31 106 0
23 -32 107 0
23 -33 108 0
38 2 -7 0
38 18 -23 0
38 -34 -52 0
38 -35 -65 0
38 -36 -77 0
38 -37 -88 0
38 -39 99 0
38 -40 100 0
38 -41 101 0
38 -42 102 0
38 -43 103 0
38 -44 104 0
38 -45 105 0
38 -46 106 0
38 -47 107 0
38 -48 108 0
52 3 -7 0
52 19 -23 0
52 34 -38 0
52 -49 -65 0
52 -50 -77 0
52 -51 -88 0
52 -53 99 0
52 -54 100 0
52 -55 101 0
52 -56 102 0
52 -57 103 0
52 -58 104 0
52 -59 105 0
52 -60 106 0
52 -61 107 0
52 -62 108 0
65 4 -7 0
65 20 -23 0
65 35 -38 0
65 49 -52 0
65 -63 -77 0
65 -64 -88 0
65 -66 99 0
65 -67 100 0
65 -68 101 0
65 -69 102 0
65 -70 103 0
65 -71 104 0
65 -72 105 0
65 -73 106 0
65 -74 107 0
65 -75 108 0
77 5 -7 0
77 21 -23 0
77 36 -38 0
77 50 -52 0
77 63 -65 0
77 -76 -88 0
77 -78 99 0
77 -79 100 0
77 -80 101 0
77 -81 102 0
77 -82 103 0
77 -83 104 0
77 -84 105 0
77 -85 106 0
77 -86 107 0
77 -87 108 0
88 6 -7 0
88 22 -23 0
88 37 -38 0
88 51 -52 0
88 64 -65 0
88 76 -77 0
88 -89 99 0
88 -90 100 0
88 -91 101 0
88 -92 102 0
88 -93 103 0
88 -94 104 0
88 -95 105 0
88 -96 106 0
88 -97 107 0
88 -98 108 0
-99 8 -7 0
-99 24 -23 0
-99 39 -38 0
-99 53 -52 0
-99 66 -65 0
-99 78 -77 0
-99 89 -88 0
-99 -109 100 0
-99 -110 101 0
-99 -111 102 0
-99 -112 103 0
-99 -113 104 0
-99 -114 105 0
-99 -115 106 0
-99 -116 107 0
-99 -117 108 0
-100 9 -7 0
-100 25 -23 0
-100 40 -38 0
-100 54 -52 0
-100 67 -65 0
-100 79 -77 0
-100 90 -88 0
-100 109 99 0
-100 -118 101 0
-100 -119 102 0
-100 -120 103 0
-100 -121 104 0
-100 -122 105 0
-100 -123 106 0
-100 -124 107 0
-100 -125 108 0
-101 10 -7 0
-101 26 -23 0
-101 41 -38 0
-101 55 -52 0
-101 68 -65 0
-101 80 -77 0
-101 91 -88 0
-101 110 99 0
-101 118 100 0
-101 -126 102 0
-101 -127 103 0
-101 -128 104 0
-101 -129 105 0
-101 -130 106 0
-101 -131 107 0
-101 -132 108 0
-102 11 -7 0
-102 27 -23 0
-102 42 -38 0
-102 56 -52 0
-102 69 -65 0
-102 81 -77 0
-102 92 -88 0
-102 111 99 0
-102 119 100 0
-102 126 101 0
-102 -133 103 0
-102 -134 104 0
-102 -135 105 0
-102 -136 106 0
-102 -137 107 0
-102 -138 108 0
-103 12 -7 0
-103 28 -23 0
-103 43 -38 0
-103 57 -52 0
-103 70 -65 0
-103 82 -77 0
-103 93 -88 0
-103 112 99 0
-103 120 100 0
-103 127 101 0
-103 133 102 0
-103 -139 104 0
-103 -140 105 0
-103 -141 106 0
-103 -142 107 0
-103 -143 108 0
-104 13 -7 0
-104 29 -23 0
-104 44 -38 0
-104 58 -52 0
-104 71 -65 0
-104 83 -77 0
-104 94 -88 0
-104 113 99 0
-104 121 100 0
-104 128 101 0
-104 134 102 0
-104 139 103 0
-104 -144 105 0
-104 -145 106 0
-104 -146 107 0
-104 -147 108 0
-105 14 -7 0
-105 30 -23 0
-105 45 -38 0
-105 59 -52 0
-105 72 -65 0
-105 84 -77 0
-105 95 -88 0
-105 114 99 0
-105 122 100 0
-105 129 101 0
-105 135 102 0
-105 140 103 0
-105 144 104 0
-105 -148 106 0
-105 -149 107 0
-105 -150 108 0
-106 15 -7 0
-106 31 -23 0
-106 46 -38 0
-106 60 -52 0
-106 73 -65 0
-106 85 -77 0
-106 96 -88 0
-106 115 99 0
-106 123 100 0
-106 130 101 0
-106 136 102 0
-106 141 103 0
-106 145 104 0
-106 148 105 0
-106 -151 107 0
-106 -152 108 0
-107 16 -7 0
-107 32 -23 0
-107 47 -38 0
-107 61 -52 0
-107 74 -65 0
-107 86 -77 0
-107 97 -88 0
-107 116 99 0
-107 124 100 0
-107 131 101 0
-107 137 102 0
-107 142 103 0
-107 146 104 0
-107 149 105 0
-107 151 106 0
-107 -153 108 0
-108 17 -7 0
-108 33 -23 0
-108 48 -38 0
-108 62 -52 0
-108 75 -65 0
-108 87 -77 0
-108 98 -88 0
-108 117 99 0
-108 125 100 0
-108 132 101 0
-108 138 102 0
-108 143 103 0
-108 147 104 0
-108 150 105 0
-108 152 106 0
-108 153 107 0
8 -1 -24 0
8 -2 -39 0
8 -3 -53 0
8 -4 -66 0
8 -5 -78 0
8 -6 -89 0
8 -7 -99 0
8 -9 109 0
8 -10 110 0
8 -11 111 0
8 -12 112 0
8 -13 113 0
8 -14 114 0
8 -15 115 0
8 -16 116 0
8 -17 117 0
24 1 -8 0
24 -18 -39 0
24 -19 -53 0
24 -20 -66 0
24 -21 -78 0
24 -22 -89 0
24 -23 -99 0
24 -25 109 0
24 -26 110 0
24 -27 111 0
24 -28 112 0
24 -29 113 0
24 -30 114 0
24 -31 115 0
24 -32 116 0
24 -33 117 0
39 2 -8 0
39 18 -24 0
39 -34 -53 0
39 -35 -66 0
39 -36 -78 0
39 -37 -89 0
39 -38 -99 0
39 -40 109 0
39 -41 110 0
39 -42 111 0
39 -43 112 0
39 -44 113 0
39 -45 114 0
39 -46 115 0
39 -47 116 0
39 -48 117 0
53 3 -8 0
53 19 -24 0
53 34 -39 0
53 -49 -66 0
53 -50 -78 0
53 -51 -89 0
53 -52 -99 0
53 -54 109 0
53 -55 110 0
53 -56 111 0
53 -57 112 0
53 -58 113 0
53 -59 114 0
53 -60 115 0
53 -61 116 0
53 -62 117 0
66 4 -8 0
66 20 -24 0
66 35 -39 0
66 49 -53 0
66 -63 -78 0
66 -64 -89 0
66 -65 -99 0
66 -67 109 0
66 -68 110 0
66 -69 111 0
66 -70 112 0
66 -71 113 0
66 -72 114 0
66 -73 115 0
66 -74 116 0
66 -75 117 0
78 5 -8 0
78 21 -24 0
78 36 -39 0
78 50 -53 0
78 63 -66 0
78 -76 -89 0
78 -77 -99 0
78 -79 109 0
78 -80 110 0
78 -81 111 0
78 -82 112 0
78 -83 113 0
78 -84 114 0
78 -85 115 0
78 -86 116 0
78 -87 117 0
89 6 -8 0
89 22 -24 0
89 37 -39 0
89 51 -53 0
89 64 -66 0
89 76 -78 0
89 -88 -99 0
89 -90 109 0
89 -91 110 0
89 -92 111 0
89 -93 112 0
89 -94 113 0
89 -95 114 0
89 -96 115 0
89 -97 116 0
89 -98 117 0
99 7 -8 0
99 23 -24 0
99 38 -39 0
99 52 -53 0
99 65 -66 0
99 77 -78 0
99 88 -89 0
99 -100 109 0
99 -101 110 0
99 -102 111 0
99 -103 112 0
99 -104 113 0
99 -105 114 0
99 -106 115 0
99 -107 116 0
99 -108 117 0
-109 9 -8 0
-109 25 -24 0
-109 40 -39 0
-109 54 -53 0
-109 67 -66 0
-109 79 -78 0
-109 90 -89 0
-109 100 -99 0
-109 -118 110 0
-109 -119 111 0
-109 -120 112 0
-109 -121 113 0
-109 -122 114 0
-109 -123 115 0
-109 -124 116 0
-109 -125 117 0
-110 10 -8 0
-110 26 -24 0
-110 41 -39 0
-110 55 -53 0
-110 68 -66 0
-110 80 -78 0
-110 91 -89 0
-110 101 -99 0
-110 118 109 0
-110 -126 111 0
-110 -127 112 0
-110 -128 113 0
-110 -129 114 0
-110 -130 115 0
-110 -131 116 0
-110 -132 117 0
-111 11 -8 0
-111 27 -24 0
-111 42 -39 0
-111 56 -53 0
-111 69 -66 0
-111 81 -78 0
-111 92 -89 0
-111 102 -99 0
-111 119 109 0
-111 126 110 0
-111 -133 112 0
-111 -134 113 0
-111 -135 114 0
-111 -136 115 0
-111 -137 116 0
-111 -138 117 0
-112 12 -8 0
-112 28 -24 0
-112 43 -39 0
-112 57 -53 0
-112 70 -66 0
-112 82 -78 0
-112 93 -89 0
-112 103 -99 0
-112 120 109 0
-112 127 110 0
-112 133 111 0
-112 -139 113 0
-112 -140 114 0
-112 -141 115 0
-112 -142 116 0
-112 -143 117 0
-113 13 -8 0
-113 29 -24 0
-113 44 -39 0
-113 58 -53 0
-113 71 -66 0
-113 83 -78 0
-113 94 -89 0
-113 104 -99 0
-113 121 109 0
-113 128 110 0
-113 134 111 0
-113 139 112 0
-113 -144 114 0
-113 -145 115 0
-113 -146 116 0
-113 -147 117 0
-114 14 -8 0
-114 30 -24 0
-114 45 -39 0
-114 59 -53 0
-114 72 -66 0
-114 84 -78 0
-114 95 -89 0
-114 105 -99 0
-114 122 109 0
-114 129 110 0
-114 135 111 0
-114 140 112 0
-114 144 113 0
-114 -148 115 0
-114 -149 116 0
-114 -150 117 0
-115 15 -8 0
-115 31 -24 0
-115 46 -39 0
-115 60 -53 0
-115 73 -66 0
-115 85 -78 0
-115 96 -89 0
-115 106 -99 0
-115 123 109 0
-115 130 110 0
-115 136 111 0
-115 141 112 0
-115 145 113 0
-115 148 114 0
-115 -151 116 0
-115 -152 117 0
-116 16 -8 0
-116 32 -24 0
-116 47 -39 0
-116 61 -53 0
-116 74 -66 0
-116 86 -78 0
-116 97 -89 0
-116 107 -99 0
-116 124 109 0
-116 131 110 0
-116 137 111 0
-116 142 112 0
-116 146 113 0
-116 149 114 0
-116 151 115 0
-116 -153 117 0
-117 17 -8 0
-117 33 -24 0
-117 48 -39 0
-117 62 -53 0
-117 75 -66 0
-117 87 -78 0
-117 98 -89 0
-117 108 -99 0
-117 125 109 0
-117 132 110 0
-117 138 111 0
-117 143 112 0
-117 147 113 0
-117 150 114 0
-117 152 115 0
-117 153 116 0
9 -1 -25 0
9 -2 -40 0
9 -3 -54 0
9 -4 -67 0
9 -5 -79 0
9 -6 -90 0
9 -7 -100 0
9 -8 -109 0
9 -10 118 0
9 -11 119 0
9 -12 120 0
9 -13 121 0
9 -14 122 0
9 -15 123 0
9 -16 124 0
9 -17 125 0
25 1 -9 0
25 -18 -40 0
25 -19 -54 0
25 -20 -67 0
25 -21 -79 0
25 -22 -90 0
25 -23 -100 0
25 -24 -109 0
25 -26 118 0
25 -27 119 0
25 -28 120 0
25 -29 121 0
25 -30 122 0
25 -31 123 0
25 -32 124 0
25 -33 125 0
40 2 -9 0
40 18 -25 0
40 -34 -54 0
40 -35 -67 0
40 -36 -79 0
40 -37 -90 0
40 -38 -100 0
40 -39 -109 0
40 -41 118 0
40 -42 119 0
40 -43 120 0
40 -44 121 0
40 -45 122 0
40 -46 123 0
40 -47 124 0
40 -48 125 0
54 3 -9 0
54 19 -25 0
54 34 -40 0
54 -49 -67 0
54 -50 -79 0
54 -51 -90 0
54 -52 -100 0
54 -53 -109 0
54 -55 118 0
54 -56 119 0
54 -57 120 0
54 -58 121 0
54 -59 122 0
54 -60 123 0
54 -61 124 0
54 -62 125 0
67 4 -9 0
67 20 -25 0
67 35 -40 0
67 49 -54 0
67 -63 -79 0
67 -64 -90 0
67 -65 -100 0
67 -66 -109 0
67 -68 118 0
67 -69 119 0
67 -70 120 0
67 -71 121 0
67 -72 122 0
67 -73 123 0
67 -74 124 0
67 -75 125 0
79 5 -9 0
79 21 -25 0
79 36 -40 0
79 50 -54 0
79 63 -67 0
79 -76 -90 0
79 -77 -100 0
79 -78 -109 0
79 -80 118 0
79 -81 119 0
79 -82 120 0
79 -83 121 0
79 -84 122 0
79 -85 123 0
79 -86 124 0
79 -87 125 0
90 6 -9 0
90 22 -25 0
90 37 -40 0
90 51 -54 0
90 64 -67 0
90 76 -79 0
90 -88 -100 0
90 -89 -109 0
90 -91 118 0
90 -92 119 0
90 -93 120 0
90 -94 121 0
90 -95 122 0
90 -96 123 0
90 -97 124 0
90 -98 125 0
100 7 -9 0
100 23 -25 0
100 38 -40 0
100 52 -54 0
100 65 -67 0
100 77 -79 0
100 88 -90 0
100 -99 -109 0
100 -101 118 0
100 -102 119 0
100 -103 120 0
100 -104 121 0
100 -105 122 0
100 -106 123 0
100 -107 124 0
100 -108 125 0
109 8 -9 0
109 24 -25 0
109 39 -40 0
109 53 -54 0
109 66 -67 0
109 78 -79 0
109 89 -90 0
109 99 -100 0
109 -110 118 0
109 -111 119 0
109 -112 120 0
109 -113 121 0
109 -114 122 0
109 -115 123 0
109 -116 124 0
109 -117 125 0
-118 10 -9 0
-118 26 -25 0
-118 41 -40 0
-118 55 -54 0
-118 68 -67 0
-118 80 -79 0
-118 91 -90 0
-118 101 -100 0
-118 110 -109 0
-118 -126 119 0
-118 -127 120 0
-118 -128 121 0
-118 -129 122 0
-118 -130 123 0
-118 -131 124 0
-118 -132 125 0
-119 11 -9 0
-119 27 -25 0
-119 42 -40 0
-119 56 -54 0
-119 69 -67 0
-119 81 -79 0
-119 92 -90 0
-119 102 -100 0
-119 111 -109 0
-119 126 118 0
-119 -133 120 0
-119 -134 121 0
-119 -135 122 0
-119 -136 123 0
-119 -137 124 0
-119 -138 125 0
-120 12 -9 0
-120 28 -25 0
-120 43 -40 0
-120 57 -54 0
-120 70 -67 0
-120 82 -79 0
-120 93 -90 0
-120 103 -100 0
-120 112 -109 0
-120 127 118 0
-120 133 119 0
-120 -139 121 0
-120 -140 122 0
-120 -141 123 0
-120 -142 124 0
-120 -143 125 0
-121 13 -9 0
-121 29 -25 0
-121 44 -40 0
-121 58 -54 0
-121 71 -67 0
-121 83 -79 0
-121 94 -90 0
-121 104 -100 0
-121 113 -109 0
-121 128 118 0
-121 134 119 0
-121 139 120 0
-121 -144 122 0
-121 -145 123 0
-121 -146 124 0
-121 -147 125 0
-122 14 -9 0
-122 30 -25 0
-122 45 -40 0
-122 59 -54 0
-122 72 -67 0
-122 84 -79 0
-122 95 -90 0
-122 105 -100 0
-122 114 -109 0
-122 129 118 0
-122 135 119 0
-122 140 120 0
-122 144 121 0
-122 -148 123 0
-122 -149 124 0
-122 -150 125 0
-123 15 -9 0
-123 31 -25 0
-123 46 -40 0
-123 60 -54 0
-123 73 -67 0
-123 85 -79 0
-123 96 -90 0
-123 106 -100 0
-123 115 -109 0
-123 130 118 0
-123 136 119 0
-123 141 120 0
-123 145 121 0
-123 148 122 0
-123 -151 124 0
-123 -152 125 0
-124 16 -9 0
-124 32 -25 0
-124 47 -40 0
-124 61 -54 0
-124 74 -67 0
-124 86 -79 0
-124 97 -90 0
-124 107 -100 0
-124 116 -109 0
-124 131 118 0
-124 137 119 0
-124 142 120 0
-124 146 121 0
-124 149 122 0
-124 151 123 0
-124 -153 125 0
-125 17 -9 0
-125 33 -25 0
-125 48 -40 0
-125 62 -54 0
-125 75 -67 0
-125 87 -79 0
-125 98 -90 0
-125 108 -100 0
-125 117 -109 0
-125 132 118 0
-125 138 119 0
-125 143 120 0
-125 147 121 0
-125 150 122 0
-125 152 123 0
-125 153 124 0
10 -1 -26 0
10 -2 -41 0
10 -3 -55 0
10 -4 -68 0
10 -5 -80 0
10 -6 -91 0
10 -7 -101 0
10 -8 -110 0
10 -9 -118 0
10 -11 126 0
10 -12 127 0
10 -13 128 0
10 -14 129 0
10 -15 130 0
10 -16 131 0
10 -17 132 0
26 1 -10 0
26 -18 -41 0
26 -19 -55 0
26 -20 -68 0
26 -21 -80 0
26 -22 -91 0
26 -23 -101 0
26 -24 -110 0
26 -25 -118 0
26 -27 126 0
26 -28 127 0
26 -29 128 0
26 -30 129 0
26 -31 130 0
26 -32 131 0
26 -33 132 0
41 2 -10 0
41 18 -26 0
41 -34 -55 0
41 -35 -68 0
41 -36 -80 0
41 -37 -91 0
41 -38 -101 0
41 -39 -110 0
41 -40 -118 0
41 -42 126 0
41 -43 127 0
41 -44 128 0
41 -45 129 0
41 -46 130 0
41 -47 131 0
41 -48 132 0
55 3 -10 0
55 19 -26 0
55 34 -41 0
55 -49 -68 0
55 -50 -80 0
55 -51 -91 0
55 -52 -101 0
55 -53 -110 0
55 -54 -118 0
55 -56 126 0
55 -57 127 0
55 -58 128 0
55 -59 129 0
55 -60 130 0
55 -61 131 0
55 -62 132 0
68 4 -10 0
68 20 -26 0
68 35 -41 0
68 49 -55 0
68 -63 -80 0
68 -64 -91 0
68 -65 -101 0
68 -66 -110 0
68 -67 -118 0
68 -69 126 0
68 -70 127 0
68 -71 128 0
68 -72 129 0
68 -73 130 0
68 -74 131 0
68 -75 132 0
80 5 -10 0
80 21 -26 0
80 36 -41 0
80 50 -55 0
80 63 -68 0
80 -76 -91 0
80 -77 -101 0
80 -78 -110 0
80 -79 -118 0
80 -81 126 0
80 -82 127 0
80 -83 128 0
80 -84 129 0
80 -85 130 0
80 -86 131 0
80 -87 132 0
91 6 -10 0
91 22 -26 0
91 37 -41 0
91 51 -55 0
91 64 -68 0
91 76 -80 0
91 -88 -101 0
91 -89 -110 0
91 -90 -118 0
91 -92 126 0
91 -93 127 0
91 -94 128 0
91 -95 129 0
91 -96 130 0
91 -97 131 0
91 -98 132 0
101 7 -10 0
101 23 -26 0
101 38 -41 0
101 52 -55 0
101 65 -68 0
101 77 -80 0
101 88 -91 0
101 -99 -110 0
101 -100 -118 0
101 -102 126 0
101 -103 127 0
101 -104 128 0
101 -105 129 0
101 -106 130 0
101 -107 131 0
101 -108 132 0
110 8 -10 0
110 24 -26 0
110 39 -41 0
110 53 -55 0
110 66 -68 0
110 78 -80 0
110 89 -91 0
110 99 -101 0
110 -109 -118 0
110 -111 126 0
110 -112 127 0
110 -113 128 0
110 -114 129 0
110 -115 130 0
110 -116 131 0
110 -117 132 0
118 9 -10 0
118 25 -26 0
118 40 -41 0
118 54 -55 0
118 67 -68 0
118 79 -80 0
118 90 -91 0
118 100 -101 0
118 109 -110 0
118 -119 126 0
118 -120 127 0
118 -121 128 0
118 -122 129 0
118 -123 130 0
118 -124 131 0
118 -125 132 0
-126 11 -10 0
-126 27 -26 0
-126 42 -41 0
-126 56 -55 0
-126 69 -68 0
-126 81 -80 0
-126 92 -91 0
-126 102 -101 0
-126 111 -110 0
-126 119 -118 0
-126 -133 127 0
-126 -134 128 0
-126 -135 129 0
-126 -136 130 0
-126 -137 131 0
-126 -138 132 0
-127 12 -10 0
-127 28 -26 0
-127 43 -41 0
-127 57 -55 0
-127 70 -68 0
-127 82 -80 0
-127 93 -91 0
-127 103 -101 0
-127 112 -110 0
-127 120 -118 0
-127 133 126 0
-127 -139 128 0
-127 -140 129 0
-127 -141 130 0
-127 -142 131 0
-127 -143 132 0
-128 13 -10 0
-128 29 -26 0
-128 44 -41 0
-128 58 -55 0
-128 71 -68 0
-128 83 -80 0
-128 94 -91 0
-128 104 -101 0
-128 113 -110 0
-128 121 -118 0
-128 134 126 0
-128 139 127 0
-128 -144 129 0
-128 -145 130 0
-128 -146 131 0
-128 -147 132 0
-129 14 -10 0
-129 30 -26 0
-129 45 -41 0
-129 59 -55 0
-129 72 -68 0
-129 84 -80 0
-129 95 -91 0
-129 105 -101 0
-129 114 -110 0
-129 122 -118 0
-129 135 126 0
-129 140 127 0
-129 144 128 0
-129 -148 130 0
-129 -149 131 0
-129 -150 132 0
-130 15 -10 0
-130 31 -26 0
-130 46 -41 0
-130 60 -55 0
-130 73 -68 0
-130 85 -80 0
-130 96 -91 0
-130 106 -101 0
-130 115 -110 0
-130 123 -118 0
-130 136 126 0
-130 141 127 0
-130 145 128 0
-130 148 129 0
-130 -151 131 0
-130 -152 132 0
-131 16 -10 0
-131 32 -26 0
-131 47 -41 0
-131 61 -55 0
-131 74 -68 0
-131 86 -80 0
-131 97 -91 0
-131 107 -101 0
-131 116 -110 0
-131 124 -118 0
-131 137 126 0
-131 142 127 0
-131 146 128 0
-131 149 129 0
-131 151 130 0
-131 -153 132 0
-132 17 -10 0
-132 33 -26 0
-132 48 -41 0
-132 62 -55 0
-132 75 -68 0
-132 87 -80 0
-132 98 -91 0
-132 108 -101 0
-132 117 -110 0
-132 125 -118 0
-132 138 126 0
-132 143 127 0
-132 147 128 0
-132 150 129 0
-132 152 130 0
-132 153 131 0
11 -1 -27 0
11 -2 -42 0
11 -3 -56 0
11 -4 -69 0
11 -5 -81 0
11 -6 -92 0
11 -7 -102 0
11 -8 -111 0
11 -9 -119 0
11 -10 -126 0
11 -12 133 0
11 -13 134 0
11 -14 135 0
11 -15 136 0
11 -16 137 0
11 -17 138 0
27 1 -11 0
27 -18 -42 0
27 -19 -56 0
27 -20 -69 0
27 -21 -81 0
27 -22 -92 0
27 -23 -102 0
27 -24 -111 0
27 -25 -119 0
27 -26 -126 0
27 -28 133 0
27 -29 134 0
27 -30 135 0
27 -31 136 0
27 -32 137 0
27 -33 138 0
42 2 -11 0
42 18 -27 0
42 -34 -56 0
42 -35 -69 0
42 -36 -81 0
42 -37 -92 0
42 -38 -102 0
42 -39 -111 0
42 -40 -119 0
42 -41 -126 0
42 -43 133 0
42 -44 134 0
42 -45 135 0
42 -46 136 0
42 -47 137 0
42 -48 138 0
56 3 -11 0
56 19 -27 0
56 34 -42 0
56 -49 -69 0
56 -50 -81 0
56 -51 -92 0
56 -52 -102 0
56 -53 -111 0
56 -54 -119 0
56 -55 -126 0
56 -57 133 0
56 -58 134 0
56 -59 135 0
56 -60 136 0
56 -61 137 0
56 -62 138 0
69 4 -11 0
69 20 -27 0
69 35 -42 0
69 49 -56 0
69 -63 -81 0
69 -64 -92 0
69 -65 -102 0
69 -66 -111 0
69 -67 -119 0
69 -68 -126 0
69 -70 133 0
69 -71 134 0
69 -72 135 0
69 -73 136 0
69 -74 137 0
69 -75 138 0
81 5 -11 0
81 21 -27 0
81 36 -42 0
81 50 -56 0
81 63 -69 0
81 -76 -92 0
81 -77 -102 0
81 -78 -111 0
81 -79 -119 0
81 -80 -126 0
81 -82 133 0
81 -83 134 0
81 -84 135 0
81 -85 136 0
81 -86 137 0
81 -87 138 0
92 6 -11 0
92 22 -27 0
92 37 -42 0
92 51 -56 0
92 64 -69 0
92 76 -81 0
92 -88 -102 0
92 -89 -111 0
92 -90 -119 0
92 -91 -126 0
92 -93 133 0
92 -94 134 0
92 -95 135 0
92 -96 136 0
92 -97 137 0
92 -98 138 0
102 7 -11 0
102 23 -27 0
102 38 -42 0
102 52 -56 0
102 65 -69 0
102 77 -81 0
102 88 -92 0
102 -99 -111 0
102 -100 -119 0
102 -101 -126 0
102 -103 133 0
102 -104 134 0
102 -105 135 0
102 -106 136 0
102 -107 137 0
102 -108 138 0
111 8 -11 0
111 24 -27 0
111 39 -42 0
111 53 -56 0
111 66 -69 0
111 78 -81 0
111 89 -92 0
111 99 -102 0
111 -109 -119 0
111 -110 -126 0
111 -112 133 0
111 -113 134 0
111 -114 135 0
111 -115 136 0
111 -116 137 0
111 -117 138 0
119 9 -11 0
119 25 -27 0
119 40 -42 0
119 54 -56 0
119 67 -69 0
119 79 -81 0
119 90 -92 0
119 100 -102 0
119 109 -111 0
119 -118 -126 0
119 -120 133 0
119 -121 134 0
119 -122 135 0
119 -123 136 0
119 -124 137 0
119 -125 138 0
126 10 -11 0
126 26 -27 0
126 41 -42 0
126 55 -56 0
126 68 -69 0
126 80 -81 0
126 91 -92 0
126 101 -102 0
126 110 -111 0
126 118 -119 0
126 -127 133 0
126 -128 134 0
126 -129 135 0
126 -130 136 0
126 -131 137 0
126 -132 138 0
-133 12 -11 0
-133 28 -27 0
-133 43 -42 0
-133 57 -56 0
-133 70 -69 0
-133 82 -81 0
-133 93 -92 0
-133 103 -102 0
-133 112 -111 0
-133 120 -119 0
-133 127 -126 0
-133 -139 134 0
-133 -140 135 0
-133 -141 136 0
-133 -142 137 0
-133 -143 138 0
-134 13 -11 0
-134 29 -27 0
-134 44 -42 0
-134 58 -56 0
-134 71 -69 0
-134 83 -81 0
-134 94 -92 0
-134 104 -102 0
-134 113 -111 0
-134 121 -119 0
-134 128 -126 0
-134 139 133 0
-134 -144 135 0
-134 -145 136 0
-134 -146 137 0
-134 -147 138 0
-135 14 -11 0
-135 30 -27 0
-135 45 -42 0
-135 59 -56 0
-135 72 -69 0
-135 84 -81 0
-135 95 -92 0
-135 105 -102 0
-135 114 -111 0
-135 122 -119 0
-135 129 -126 0
-135 140 133 0
-135 144 134 0
-135 -148 136 0
-135 -149 137 0
-135 -150 138 0
-136 15 -11 0
-136 31 -27 0
-136 46 -42 0
-136 60 -56 0
-136 73 -69 0
-136 85 -81 0
-136 96 -92 0
-136 106 -102 0
-136 115 -111 0
-136 123 -119 0
-136 130 -126 0
-136 141 133 0
-136 145 134 0
-136 148 135 0
-136 -151 137 0
-136 -152 138 0
-137 16 -11 0
-137 32 -27 0
-137 47 -42 0
-137 61 -56 0
-137 74 -69 0
-137 86 -81 0
-137 97 -92 0
-137 107 -102 0
-137 116 -111 0
-137 124 -119 0
-137 131 -126 0
-137 142 133 0
-137 146 134 0
-137 149 135 0
-137 151 136 0
-137 -153 138 0
-138 17 -11 0
-138 33 -27 0
-138 48 -42 0
-138 62 -56 0
-138 75 -69 0
-138 87 -81 0
-138 98 -92 0
-138 108 -102 0
-138 117 -111 0
-138 125 -119 0
-138 132 -126 0
-138 143 133 0
-138 147 134 0
-138 150 135 0
-138 152 136 0
-138 153 137 0
12 -1 -28 0
12 -2 -43 0
12 -3 -57 0
12 -4 -70 0
12 -5 -82 0
12 -6 -93 0
12 -7 -103 0
12 -8 -112 0
12 -9 -120 0
12 -10 -127 0
12 -11 -133 0
12 -13 139 0
12 -14 140 0
12 -15 141 0
12 -16 142 0
12 -17 143 0
28 1 -12 0
28 -18 -43 0
28 -19 -57 0
28 -20 -70 0
28 -21 -82 0
28 -22 -93 0
28 -23 -103 0
28 -24 -112 0
28 -25 -120 0
28 -26 -127 0
28 -27 -133 0
28 -29 139 0
28 -30 140 0
28 -31 141 0
28 -32 142 0
28 -33 143 0
43 2 -12 0
43 18 -28 0
43 -34 -57 0
43 -35 -70 0
43 -36 -82 0
43 -37 -93 0
43 -38 -103 0
43 -39 -112 0
43 -40 -120 0
43 -41 -127 0
43 -42 -133 0
43 -44 139 0
43 -45 140 0
43 -46 141 0
43 -47 142 0
43 -48 143 0
57 3 -12 0
57 19 -28 0
57 34 -43 0
57 -49 -70 0
57 -50 -82 0
57 -51 -93 0
57 -52 -103 0
57 -53 -112 0
57 -54 -120 0
57 -55 -127 0
57 -56 -133 0
57 -58 139 0
57 -59 140 0
57 -60 141 0
57 -61 142 0
57 -62 143 0
70 4 -12 0
70 20 -28 0
70 35 -43 0
70 49 -57 0
70 -63 -82 0
70 -64 -93 0
70 -65 -103 0
70 -66 -112 0
70 -67 -120 0
70 -68 -127 0
70 -69 -133 0
70 -71 139 0
70 -72 140 0
70 -73 141 0
70 -74 142 0
70 -75 143 0
82 5 -12 0
82 21 -28 0
82 36 -43 0
82 50 -57 0
82 63 -70 0
82 -76 -93 0
82 -77 -103 0
82 -78 -112 0
82 -79 -120 0
82 -80 -127 0
82 -81 -133 0
82 -83 139 0
82 -84 140 0
82 -85 141 0
82 -86 142 0
82 -87 143 0
93 6 -12 0
93 22 -28 0
93 37 -43 0
93 51 -57 0
93 64 -70 0
93 76 -82 0
93 -88 -103 0
93 -89 -112 0
93 -90 -120 0
93 -91 -127 0
93 -92 -133 0
93 -94 139 0
93 -95 140 0
93 -96 141 0
93 -97 142 0
93 -98 143 0
103 7 -12 0
103 23 -28 0
103 38 -43 0
103 52 -57 0
103 65 -70 0
103 77 -82 0
103 88 -93 0
103 -99 -112 0
103 -100 -120 0
103 -101 -127 0
103 -102 -133 0
103 -104 139 0
103 -105 140 0
103 -106 141 0
103 -107 142 0
103 -108 143 0
112 8 -12 0
112 24 -28 0
112 39 -43 0
112 53 -57 0
112 66 -70 0
112 78 -82 0
112 89 -93 0
112 99 -103 0
112 -109 -120 0
112 -110 -127 0
112 -111 -133 0
112 -113 139 0
112 -114 140 0
112 -115 141 0
112 -116 142 0
112 -117 143 0
120 9 -12 0
120 25 -28 0
120 40 -43 0
120 54 -57 0
120 67 -70 0
120 79 -82 0
120 90 -93 0
120 100 -103 0
120 109 -112 0
120 -118 -127 0
120 -119 -133 0
120 -121 139 0
120 -122 140 0
120 -123 141 0
120 -124 142 0
120 -125 143 0
127 10 -12 0
127 26 -28 0
127 41 -43 0
127 55 -57 0
127 68 -70 0
127 80 -82 0
127 91 -93 0
127 101 -103 0
127 110 -112 0
127 118 -120 0
127 -126 -133 0
127 -128 139 0
127 -129 140 0
127 -130 141 0
127 -131 142 0
127 -132 143 0
133 11 -12 0
133 27 -28 0
133 42 -43 0
133 56 -57 0
133 69 -70 0
133 81 -82 0
133 92 -93 0
133 102 -103 0
133 111 -112 0
133 119 -120 0
133 126 -127 0
133 -134 139 0
133 -135 140 0
133 -136 141 0
133 -137 142 0
133 -138 143 0
-139 13 -12 0
-139 29 -28 0
-139 44 -43 0
-139 58 -57 0
-139 71 -70 0
-139 83 -82 0
-139 94 -93 0
-139 104 -103 0
-139 113 -112 0
-139 121 -120 0
-139 128 -127 0
-139 134 -133 0
-139 -144 140 0
-139 -145 141 0
-139 -146 142 0
-139 -147 143 0
-140 14 -12 0
-140 30 -28 0
-140 45 -43 0
-140 59 -57 0
-140 72 -70 0
-140 84 -82 0
-140 95 -93 0
-140 105 -103 0
-140 114 -112 0
-140 122 -120 0
-140 129 -127 0
-140 135 -133 0
-140 144 139 0
-140 -148 141 0
-140 -149 142 0
-140 -150 143 0
-141 15 -12 0
-141 31 -28 0
-141 46 -43 0
-141 60 -57 0
-141 73 -70 0
-141 85 -82 0
-141 96 -93 0
-141 106 -103 0
-141 115 -112 0
-141 123 -120 0
-141 130 -127 0
-141 136 -133 0
-141 145 139 0
-141 148 140 0
-141 -151 142 0
-141 -152 143 0
-142 16 -12 0
-142 32 -28 0
-142 47 -43 0
-142 61 -57 0
-142 74 -70 0
-142 86 -82 0
-142 97 -93 0
-142 107 -103 0
-142 116 -112 0
-142 124 -120 0
-142 131 -127 0
-142 137 -133 0
-142 146 139 0
-142 149 140 0
-142 151 141 0
-142 -153 143 0
-143 17 -12 0
-143 33 -28 0
-143 48 -43 0
-143 62 -57 0
-143 75 -70 0
-143 87 -82 0
-143 98 -93 0
-143 108 -103 0
-143 117 -112 0
-143 125 -120 0
-143 132 -127 0
-143 138 -133 0
-143 147 139 0
-143 150 140 0
-143 152 141 0
-143 153 142 0
13 -1 -29 0
13 -2 -44 0
13 -3 -58 0
13 -4 -71 0
13 -5 -83 0
13 -6 -94 0
13 -7 -104 0
13 -8 -113 0
13 -9 -121 0
13 -10 -128 0
13 -11 -134 0
13 -12 -139 0
13 -14 144 0
13 -15 145 0
13 -16 146 0
13 -17 147 0
29 1 -13 0
29 -18 -44 0
29 -19 -58 0
29 -20 -71 0
29 -21 -83 0
29 -22 -94 0
29 -23 -104 0
29 -24 -113 0
29 -25 -121 0
29 -26 -128 0
29 -27 -134 0
29 -28 -139 0
29 -30 144 0
29 -31 145 0
29 -32 146 0
29 -33 147 0
44 2 -13 0
44 18 -29 0
44 -34 -58 0
44 -35 -71 0
44 -36 -83 0
44 -37 -94 0
44 -38 -104 0
44 -39 -113 0
44 -40 -121 0
44 -41 -128 0
44 -42 -134 0
44 -43 -139 0
44 -45 144 0
44 -46 145 0
44 -47 146 0
44 -48 147 0
58 3 -13 0
58 19 -29 0
58 34 -44 0
58 -49 -71 0
58 -50 -83 0
58 -51 -94 0
58 -52 -104 0
58 -53 -113 0
58 -54 -121 0
58 -55 -128 0
58 -56 -134 0
58 -57 -139 0
58 -59 144 0
58 -60 145 0
58 -61 146 0
58 -62 147 0
71 4 -13 0
71 20 -29 0
71 35 -44 0
71 49 -58 0
71 -63 -83 0
71 -64 -94 0
71 -65 -104 0
71 -66 -113 0
71 -67 -121 0
71 -68 -128 0
71 -69 -134 0
71 -70 -139 0
71 -72 144 0
71 -73 145 0
71 -74 146 0
71 -75 147 0
83 5 -13 0
83 21 -29 0
83 36 -44 0
83 50 -58 0
83 63 -71 0
83 -76 -94 0
83 -77 -104 0
83 -78 -113 0
83 -79 -121 0
83 -80 -128 0
83 -81 -134 0
83 -82 -139 0
83 -84 144 0
83 -85 145 0
83 -86 146 0
83 -87 147 0
94 6 -13 0
94 22 -29 0
94 37 -44 0
94 51 -58 0
94 64 -71 0
94 76 -83 0
94 -88 -104 0
94 -89 -113 0
94 -90 -121 0
94 -91 -128 0
94 -92 -134 0
94 -93 -139 0
94 -95 144 0
94 -96 145 0
94 -97 146 0
94 -98 147 0
104 7 -13 0
104 23 -29 0
104 38 -44 0
104 52 -58 0
104 65 -71 0
104 77 -83 0
104 88 -94 0
104 -99 -113 0
104 -100 -121 0
104 -101 -128 0
104 -102 -134 0
104 -103 -139 0
104 -105 144 0
104 -106 145 0
104 -107 146 0
104 -108 147 0
113 8 -13 0
113 24 -29 0
113 39 -44 0
113 53 -58 0
113 66 -71 0
113 78 -83 0
113 89 -94 0
113 99 -104 0
113 -109 -121 0
113 -110 -128 0
113 -111 -134 0
113 -112 -139 0
113 -114 144 0
113 -115 145 0
113 -116 146 0
113 -117 147 0
121 9 -13 0
121 25 -29 0
121 40 -44 0
121 54 -58 0
121 67 -71 0
121 79 -83 0
121 90 -94 0
121 100 -104 0
121 109 -113 0
121 -118 -128 0
121 -119 -134 0
121 -120 -139 0
121 -122 144 0
121 -123 145 0
121 -124 146 0
121 -125 147 0
128 10 -13 0
128 26 -29 0
128 41 -44 0
128 55 -58 0
128 68 -71 0
128 80 -83 0
128 91 -94 0
128 101 -104 0
128 110 -113 0
128 118 -121 0
128 -126 -134 0
128 -127 -139 0
128 -129 144 0
128 -130 145 0
128 -131 146 0
128 -132 147 0
134 11 -13 0
134 27 -29 0
134 42 -44 0
134 56 -58 0
134 69 -71 0
134 81 -83 0
134 92 -94 0
134 102 -104 0
134 111 -113 0
134 119 -121 0
134 126 -128 0
134 -133 -139 0
134 -135 144 0
134 -136 145 0
134 -137 146 0
134 -138 147 0
139 12 -13 0
139 28 -29 0
139 43 -44 0
139 57 -58 0
139 70 -71 0
139 82 -83 0
139 93 -94 0
139 103 -104 0
139 112 -113 0
139 120 -121 0
139 127 -128 0
139 133 -134 0
139 -140 144 0
139 -141 145 0
139 -142 146 0
139 -143 147 0
-144 14 -13 0
-144 30 -29 0
-144 45 -44 0
-144 59 -58 0
-144 72 -71 0
-144 84 -83 0
-144 95 -94 0
-144 105 -104 0
-144 114 -113 0
-144 122 -121 0
-144 129 -128 0
-144 135 -134 0
-144 140 -139 0
-144 -148 145 0
-144 -149 146 0
-144 -150 147 0
-145 15 -13 0
-145 31 -29 0
-145 46 -44 0
-145 60 -58 0
-145 73 -71 0
-145 85 -83 0
-145 96 -94 0
-145 106 -104 0
-145 115 -113 0
-145 123 -121 0
-145 130 -128 0
-145 136 -134 0
-145 141 -139 0
-145 148 144 0
-145 -151 146 0
-145 -152 147 0
-146 16 -13 0
-146 32 -29 0
-146 47 -44 0
-146 61 -58 0
-146 74 -71 0
-146 86 -83 0
-146 97 -94 0
-146 107 -104 0
-146 116 -113 0
-146 124 -121 0
-146 131 -128 0
-146 137 -134 0
-146 142 -139 0
-146 149 144 0
-146 151 145 0
-146 -153 147 0
-147 17 -13 0
-147 33 -29 0
-147 48 -44 0
-147 62 -58 0
-147 75 -71 0
-147 87 -83 0
-147 98 -94 0
-147 108 -104 0
-147 117 -113 0
-147 125 -121 0
-147 132 -128 0
-147 138 -134 0
-147 143 -139 0
-147 150 144 0
-147 152 145 0
-147 153 146 0
14 -1 -30 0
14 -2 -45 0
14 -3 -59 0
14 -4 -72 0
14 -5 -84 0
14 -6 -95 0
14 -7 -105 0
14 -8 -114 0
14 -9 -122 0
14 -10 -129 0
14 -11 -135 0
14 -12 -140 0
14 -13 -144 0
14 -15 148 0
14 -16 149 0
14 -17 150 0
30 1 -14 0
30 -18 -45 0
30 -19 -59 0
30 -20 -72 0
30 -21 -84 0
30 -22 -95 0
30 -23 -105 0
30 -24 -114 0
30 -25 -122 0
30 -26 -129 0
30 -27 -135 0
30 -28 -140 0
30 -29 -144 0
30 -31 148 0
30 -32 149 0
30 -33 150 0
45 2 -14 0
45 18 -30 0
45 -34 -59 0
45 -35 -72 0
45 -36 -84 0
45 -37 -95 0
45 -38 -105 0
45 -39 -114 0
45 -40 -122 0
45 -41 -129 0
45 -42 -135 0
45 -43 -140 0
45 -44 -144 0
45 -46 148 0
45 -47 149 0
45 -48 150 0
59 3 -14 0
59 19 -30 0
59 34 -45 0
59 -49 -72 0
59 -50 -84 0
59 -51 -95 0
59 -52 -105 0
59 -53 -114 0
59 -54 -122 0
59 -55 -129 0
59 -56 -135 0
59 -57 -140 0
59 -58 -144 0
59 -60 148 0
59 -61 149 0
59 -62 150 0
72 4 -14 0
72 20 -30 0
72 35 -45 0
72 49 -59 0
72 -63 -84 0
72 -64 -95 0
72 -65 -105 0
72 -66 -114 0
72 -67 -122 0
72 -68 -129 0
72 -69 -135 0
72 -70 -140 0
72 -71 -144 0
72 -73 148 0
72 -74 149 0
72 -75 150 0
84 5 -14 0
84 21 -30 0
84 36 -45 0
84 50 -59 0
84 63 -72 0
84 -76 -95 0
84 -77 -105 0
84 -78 -114 0
84 -79 -122 0
84 -80 -129 0
84 -81 -135 0
84 -82 -140 0
84 -83 -144 0
84 -85 148 0
84 -86 149 0
84 -87 150 0
95 6 -14 0
95 22 -30 0
95 37 -45 0
95 51 -59 0
95 64 -72 0
95 76 -84 0
95 -88 -105 0
95 -89 -114 0
95 -90 -122 0
95 -91 -129 0
95 -92 -135 0
95 -93 -140 0
95 -94 -144 0
95 -96 148 0
95 -97 149 0
95 -98 150 0
105 7 -14 0
105 23 -30 0
105 38 -45 0
105 52 -59 0
105 65 -72 0
105 77 -84 0
105 88 -95 0
105 -99 -114 0
105 -100 -122 0
105 -101 -129 0
105 -102 -135 0
105 -103 -140 0
105 -104 -144 0
105 -106 148 0
105 -107 149 0
105 -108 150 0
114 8 -14 0
114 24 -30 0
114 39 -45 0
114 53 -59 0
114 66 -72 0
114 78 -84 0
114 89 -95 0
114 99 -105 0
114 -109 -122 0
114 -110 -129 0
114 -111 -135 0
114 -112 -140 0
114 -113 -144 0
114 -115 148 0
114 -116 149 0
114 -117 150 0
122 9 -14 0
122 25 -30 0
122 40 -45 0
122 54 -59 0
122 67 -72 0
122 79 -84 0
122 90 -95 0
122 100 -105 0
122 109 -114 0
122 -118 -129 0
122 -119 -135 0
122 -120 -140 0
122 -121 -144 0
122 -123 148 0
122 -124 149 0
122 -125 150 0
129 10 -14 0
129 26 -30 0
129 41 -45 0
129 55 -59 0
129 68 -72 0
129 80 -84 0
129 91 -95 0
129 101 -105 0
129 110 -114 0
129 118 -122 0
129 -126 -135 0
129 -127 -140 0
129 -128 -144 0
129 -130 148 0
129 -131 149 0
129 -132 150 0
135 11 -14 0
135 27 -30 0
135 42 -45 0
135 56 -59 0
135 69 -72 0
135 81 -84 0
135 92 -95 0
135 102 -105 0
135 111 -114 0
135 119 -122 0
135 126 -129 0
135 -133 -140 0
135 -134 -144 0
135 -136 148 0
135 -137 149 0
135 -138 150 0
140 12 -14 0
140 28 -30 0
140 43 -45 0
140 57 -59 0
140 70 -72 0
140 82 -84 0
140 93 -95 0
140 103 -105 0
140 112 -114 0
140 120 -122 0
140 127 -129 0
140 133 -135 0
140 -139 -144 0
140 -141 148 0
140 -142 149 0
140 -143 150 0
144 13 -14 0
144 29 -30 0
144 44 -45 0
144 58 -59 0
144 71 -72 0
144 83 -84 0
144 94 -95 0
144 104 -105 0
144 113 -114 0
144 121 -122 0
144 128 -129 0
144 134 -135 0
144 139 -140 0
144 -145 148 0
144 -146 149 0
144 -147 150 0
-148 15 -14 0
-148 31 -30 0
-148 46 -45 0
-148 60 -59 0
-148 73 -72 0
-148 85 -84 0
-148 96 -95 0
-148 106 -105 0
-148 115 -114 0
-148 123 -122 0
-148 130 -129 0
-148 136 -135 0
-148 141 -140 0
-148 145 -144 0
-148 -151 149 0
-148 -152 150 0
-149 16 -14 0
-149 32 -30 0
-149 47 -45 0
-149 61 -59 0
-149 74 -72 0
-149 86 -84 0
-149 97 -95 0
-149 107 -105 0
-149 116 -114 0
-149 124 -122 0
-149 131 -129 0
-149 137 -135 0
-149 142 -140 0
-149 146 -144 0
-149 151 148 0
-149 -153 150 0
-150 17 -14 0
-150 33 -30 0
-150 48 -45 0
-150 62 -59 0
-150 75 -72 0
-150 87 -84 0
-150 98 -95 0
-150 108 -105 0
-150 117 -114 0
-150 125 -122 0
-150 132 -129 0
-150 138 -135 0
-150 143 -140 0
-150 147 -144 0
-150 152 148 0
-150 153 149 0
15 -1 -31 0
15 -2 -46 0
15 -3 -60 0
15 -4 -73 0
15 -5 -85 0
15 -6 -96 0
15 -7 -106 0
15 -8 -115 0
15 -9 -123 0
15 -10 -130 0
15 -11 -136 0
15 -12 -141 0
15 -13 -145 0
15 -14 -148 0
15 -16 151 0
15 -17 152 0
31 1 -15 0
31 -18 -46 0
31 -19 -60 0
31 -20 -73 0
31 -21 -85 0
31 -22 -96 0
31 -23 -106 0
31 -24 -115 0
31 -25 -123 0
31 -26 -130 0
31 -27 -136 0
31 -28 -141 0
31 -29 -145 0
31 -30 -148 0
31 -32 151 0
31 -33 152 0
46 2 -15 0
46 18 -31 0
46 -34 -60 0
46 -35 -73 0
46 -36 -85 0
46 -37 -96 0
46 -38 -106 0
46 -39 -115 0
46 -40 -123 0
46 -41 -130 0
46 -42 -136 0
46 -43 -141 0
46 -44 -145 0
46 -45 -148 0
46 -47 151 0
46 -48 152 0
60 3 -15 0
60 19 -31 0
60 34 -46 0
60 -49 -73 0
60 -50 -85 0
60 -51 -96 0
60 -52 -106 0
60 -53 -115 0
60 -54 -123 0
60 -55 -130 0
60 -56 -136 0
60 -57 -141 0
60 -58 -145 0
60 -59 -148 0
60 -61 151 0
60 -62 152 0
73 4 -15 0
73 20 -31 0
73 35 -46 0
73 49 -60 0
73 -63 -85 0
73 -64 -96 0
73 -65 -106 0
73 -66 -115 0
73 -67 -123 0
73 -68 -130 0
73 -69 -136 0
73 -70 -141 0
73 -71 -145 0
73 -72 -148 0
73 -74 151 0
73 -75 152 0
85 5 -15 0
85 21 -31 0
85 36 -46 0
85 50 -60 0
85 63 -73 0
85 -76 -96 0
85 -77 -106 0
85 -78 -115 0
85 -79 -123 0
85 -80 -130 0
85 -81 -136 0
85 -82 -141 0
85 -83 -145 0
85 -84 -148 0
85 -86 151 0
85 -87 152 0
96 6 -15 0
96 22 -31 0
96 37 -46 0
96 51 -60 0
96 64 -73 0
96 76 -85 0
96 -88 -106 0
96 -89 -115 0
96 -90 -123 0
96 -91 -130 0
96 -92 -136 0
96 -93 -141 0
96 -94 -145 0
96 -95 -148 0
96 -97 151 0
96 -98 152 0
106 7 -15 0
106 23 -31 0
106 38 -46 0
106 52 -60 0
106 65 -73 0
106 77 -85 0
106 88 -96 0
106 -99 -115 0
106 -100 -123 0
106 -101 -130 0
106 -102 -136 0
106 -103 -141 0
106 -104 -145 0
106 -105 -148 0
106 -107 151 0
106 -108 152 0
115 8 -15 0
115 24 -31 0
115 39 -46 0
115 53 -60 0
115 66 -73 0
115 78 -85 0
115 89 -96 0
115 99 -106 0
115 -109 -123 0
115 -110 -130 0
115 -111 -136 0
115 -112 -141 0
115 -113 -145 0
115 -114 -148 0
115 -116 151 0
115 -117 152 0
123 9 -15 0
123 25 -31 0
123 40 -46 0
123 54 -60 0
123 67 -73 0
123 79 -85 0
123 90 -96 0
123 100 -106 0
123 109 -115 0
123 -118 -130 0
123 -119 -136 0
123 -120 -141 0
123 -121 -145 0
123 -122 -148 0
123 -124 151 0
123 -125 152 0
130 10 -15 0
130 26 -31 0
130 41 -46 0
130 55 -60 0
130 68 -73 0
130 80 -85 0
130 91 -96 0
130 101 -106 0
130 110 -115 0
130 118 -123 0
130 -126 -136 0
130 -127 -141 0
130 -128 -145 0
130 -129 -148 0
130 -131 151 0
130 -132 152 0
136 11 -15 0
136 27 -31 0
136 42 -46 0
136 56 -60 0
136 69 -73 0
136 81 -85 0
136 92 -96 0
136 102 -106 0
136 111 -115 0
136 119 -123 0
136 126 -130 0
136 -133 -141 0
136 -134 -145 0
136 -135 -148 0
136 -137 151 0
136 -138 152 0
141 12 -15 0
141 28 -31 0
141 43 -46 0
141 57 -60 0
141 70 -73 0
141 82 -85 0
141 93 -96 0
141 103 -106 0
141 112 -115 0
141 120 -123 0
141 127 -130 0
141 133 -136 0
141 -139 -145 0
141 -140 -148 0
141 -142 151 0
141 -143 152 0
145 13 -15 0
145 29 -31 0
145 44 -46 0
145 58 -60 0
145 71 -73 0
145 83 -85 0
145 94 -96 0
145 104 -106 0
145 113 -115 0
145 121 -123 0
145 128 -130 0
145 134 -136 0
145 139 -141 0
145 -144 -148 0
145 -146 151 0
145 -147 152 0
148 14 -15 0
148 30 -31 0
148 45 -46 0
148 59 -60 0
148 72 -73 0
148 84 -85 0
148 95 -96 0
148 105 -106 0
148 114 -115 0
148 122 -123 0
148 129 -130 0
148 135 -136 0
148 140 -141 0
148 144 -145 0
148 -149 151 0
148 -150 152 0
-151 16 -15 0
-151 32 -31 0
-151 47 -46 0
-151 61 -60 0
-151 74 -73 0
-151 86 -85 0
-151 97 -96 0
-151 107 -106 0
-151 116 -115 0
-151 124 -123 0
-151 131 -130 0
-151 137 -136 0
-151 142 -141 0
-151 146 -145 0
-151 149 -148 0
-151 -153 152 0
-152 17 -15 0
-152 33 -31 0
-152 48 -46 0
-152 62 -60 0
-152 75 -73 0
-152 87 -85 0
-152 98 -96 0
-152 108 -106 0
-152 117 -115 0
-152 125 -123 0
-152 132 -130 0
-152 138 -136 0
-152 143 -141 0
-152 147 -145 0
-152 150 -148 0
-152 153 151 0
16 -1 -32 0
16 -2 -47 0
16 -3 -61 0
16 -4 -74 0
16 -5 -86 0
16 -6 -97 0
16 -7 -107 0
16 -8 -116 0
16 -9 -124 0
16 -10 -131 0
16 -11 -137 0
16 -12 -142 0
16 -13 -146 0
16 -14 -149 0
16 -15 -151 0
16 -17 153 0
32 1 -16 0
32 -18 -47 0
32 -19 -61 0
32 -20 -74 0
32 -21 -86 0
32 -22 -97 0
32 -23 -107 0
32 -24 -116 0
32 -25 -124 0
32 -26 -131 0
32 -27 -137 0
32 -28 -142 0
32 -29 -146 0
32 -30 -149 0
32 -31 -151 0
32 -33 153 0
47 2 -16 0
47 18 -32 0
47 -34 -61 0
47 -35 -74 0
47 -36 -86 0
47 -37 -97 0
47 -38 -107 0
47 -39 -116 0
47 -40 -124 0
47 -41 -131 0
47 -42 -137 0
47 -43 -142 0
47 -44 -146 0
47 -45 -149 0
47 -46 -151 0
47 -48 153 0
61 3 -16 0
61 19 -32 0
61 34 -47 0
61 -49 -74 0
61 -50 -86 0
61 -51 -97 0
61 -52 -107 0
61 -53 -116 0
61 -54 -124 0
61 -55 -131 0
61 -56 -137 0
61 -57 -142 0
61 -58 -146 0
61 -59 -149 0
61 -60 -151 0
61 -62 153 0
74 4 -16 0
74 20 -32 0
74 35 -47 0
74 49 -61 0
74 -63 -86 0
74 -64 -97 0
74 -65 -107 0
74 -66 -116 0
74 -67 -124 0
74 -68 -131 0
74 -69 -137 0
74 -70 -142 0
74 -71 -146 0
74 -72 -149 0
74 -73 -151 0
74 -75 153 0
86 5 -16 0
86 21 -32 0
86 36 -47 0
86 50 -61 0
86 63 -74 0
86 -76 -97 0
86 -77 -107 0
86 -78 -116 0
86 -79 -124 0
86 -80 -131 0
86 -81 -137 0
86 -82 -142 0
86 -83 -146 0
86 -84 -149 0
86 -85 -151 0
86 -87 153 0
97 6 -16 0
97 22 -32 0
97 37 -47 0
97 51 -61 0
97 64 -74 0
97 76 -86 0
97 -88 -107 0
97 -89 -116 0
97 -90 -124 0
97 -91 -131 0
97 -92 -137 0
97 -93 -142 0
97 -94 -146 0
97 -95 -149 0
97 -96 -151 0
97 -98 153 0
107 7 -16 0
107 23 -32 0
107 38 -47 0
107 52 -61 0
107 65 -74 0
107 77 -86 0
107 88 -97 0
107 -99 -116 0
107 -100 -124 0
107 -101 -131 0
107 -102 -137 0
107 -103 -142 0
107 -104 -146 0
107 -105 -149 0
107 -106 -151 0
107 -108 153 0
116 8 -16 0
116 24 -32 0
116 39 -47 0
116 53 -61 0
116 66 -74 0
116 78 -86 0
116 89 -97 0
116 99 -107 0
116 -109 -124 0
116 -110 -131 0
116 -111 -137 0
116 -112 -142 0
116 -113 -146 0
116 -114 -149 0
116 -115 -151 0
116 -117 153 0
124 9 -16 0
124 25 -32 0
124 40 -47 0
124 54 -61 0
124 67 -74 0
124 79 -86 0
124 90 -97 0
124 100 -107 0
124 109 -116 0
124 -118 -131 0
124 -119 -137 0
124 -120 -142 0
124 -121 -146 0
124 -122 -149 0
124 -123 -151 0
124 -125 153 0
131 10 -16 0
131 26 -32 0
131 41 -47 0
131 55 -61 0
131 68 -74 0
131 80 -86 0
131 91 -97 0
131 101 -107 0
131 110 -116 0
131 118 -124 0
131 -126 -137 0
131 -127 -142 0
131 -128 -146 0
131 -129 -149 0
131 -130 -151 0
131 -132 153 0
137 11 -16 0
137 27 -32 0
137 42 -47 0
137 56 -61 0
137 69 -74 0
137 81 -86 0
137 92 -97 0
137 102 -107 0
137 111 -116 0
137 119 -124 0
137 126 -131 0
137 -133 -142 0
137 -134 -146 0
137 -135 -149 0
137 -136 -151 0
137 -138 153 0
142 12 -16 0
142 28 -32 0
142 43 -47 0
142 57 -61 0
142 70 -74 0
142 82 -86 0
142 93 -97 0
142 103 -107 0
142 112 -116 0
142 120 -124 0
142 127 -131 0
142 133 -137 0
142 -139 -146 0
142 -140 -149 0
142 -141 -151 0
142 -143 153 0
146 13 -16 0
146 29 -32 0
146 44 -47 0
146 58 -61 0
146 71 -74 0
146 83 -86 0
146 94 -97 0
146 104 -107 0
146 113 -116 0
146 121 -124 0
146 128 -131 0
146 134 -137 0
146 139 -142 0
146 -144 -149 0
146 -145 -151 0
146 -147 153 0
149 14 -16 0
149 30 -32 0
149 45 -47 0
149 59 -61 0
149 72 -74 0
149 84 -86 0
149 95 -97 0
149 105 -107 0
149 114 -116 0
149 122 -124 0
149 129 -131 0
149 135 -137 0
149 140 -142 0
149 144 -146 0
149 -148 -151 0
149 -150 153 0
151 15 -16 0
151 31 -32 0
151 46 -47 0
151 60 -61 0
151 73 -74 0
151 85 -86 0
151 96 -97 0
151 106 -107 0
151 115 -116 0
151 123 -124 0
151 130 -131 0
151 136 -137 0
151 141 -142 0
151 145 -146 0
151 148 -149 0
151 -152 153 0
-153 17 -16 0
-153 33 -32 0
-153 48 -47 0
-153 62 -61 0
-153 75 -74 0
-153 87 -86 0
-153 98 -97 0
-153 108 -107 0
-153 117 -116 0
-153 125 -124 0
-153 132 -131 0
-153 138 -137 0
-153 143 -142 0
-153 147 -146 0
-153 150 -149 0
-153 152 -151 0
17 -1 -33 0
17 -2 -48 0
17 -3 -62 0
17 -4 -75 0
17 -5 -87 0
17 -6 -98 0
17 -7 -108 0
17 -8 -117 0
17 -9 -125 0
17 -10 -132 0
17 -11 -138 0
17 -12 -143 0
17 -13 -147 0
17 -14 -150 0
17 -15 -152 0
17 -16 -153 0
33 1 -17 0
33 -18 -48 0
33 -19 -62 0
33 -20 -75 0
33 -21 -87 0
33 -22 -98 0
33 -23 -108 0
33 -24 -117 0
33 -25 -125 0
33 -26 -132 0
33 -27 -138 0
33 -28 -143 0
33 -29 -147 0
33 -30 -150 0
33 -31 -152 0
33 -32 -153 0
48 2 -17 0
48 18 -33 0
48 -34 -62 0
48 -35 -75 0
48 -36 -87 0
48 -37 -98 0
48 -38 -108 0
48 -39 -117 0
48 -40 -125 0
48 -41 -132 0
48 -42 -138 0
48 -43 -143 0
48 -44 -147 0
48 -45 -150 0
48 -46 -152 0
48 -47 -153 0
62 3 -17 0
62 19 -33 0
62 34 -48 0
62 -49 -75 0
62 -50 -87 0
62 -51 -98 0
62 -52 -108 0
62 -53 -117 0
62 -54 -125 0
62 -55 -132 0
62 -56 -138 0
62 -57 -143 0
62 -58 -147 0
62 -59 -150 0
62 -60 -152 0
62 -61 -153 0
75 4 -17 0
75 20 -33 0
75 35 -48 0
75 49 -62 0
75 -63 -87 0
75 -64 -98 0
75 -65 -108 0
75 -66 -117 0
75 -67 -125 0
75 -68 -132 0
75 -69 -138 0
75 -70 -143 0
75 -71 -147 0
75 -72 -150 0
75 -73 -152 0
75 -74 -153 0
87 5 -17 0
87 21 -33 0
87 36 -48 0
87 50 -62 0
87 63 -75 0
87 -76 -98 0
87 -77 -108 0
87 -78 -117 0
87 -79 -125 0
87 -80 -132 0
87 -81 -138 0
87 -82 -143 0
87 -83 -147 0
87 -84 -150 0
87 -85 -152 0
87 -86 -153 0
98 6 -17 0
98 22 -33 0
98 37 -48 0
98 51 -62 0
98 64 -75 0
98 76 -87 0
98 -88 -108 0
98 -89 -117 0
98 -90 -125 0
98 -91 -132 0
98 -92 -138 0
98 -93 -143 0
98 -94 -147 0
98 -95 -150 0
98 -96 -152 0
98 -97 -153 0
108 7 -17 0
108 23 -33 0
108 38 -48 0
108 52 -62 0
108 65 -75 0
108 77 -87 0
108 88 -98 0
108 -99 -117 0
108 -100 -125 0
108 -101 -132 0
108 -102 -138 0
108 -103 -143 0
108 -104 -147 0
108 -105 -150 0
108 -106 -152 0
108 -107 -153 0
117 8 -17 0
117 24 -33 0
117 39 -48 0
117 53 -62 0
117 66 -75 0
117 78 -87 0
117 89 -98 0
117 99 -108 0
117 -109 -125 0
117 -110 -132 0
117 -111 -138 0
117 -112 -143 0
117 -113 -147 0
117 -114 -150 0
117 -115 -152 0
117 -116 -153 0
125 9 -17 0
125 25 -33 0
125 40 -48 0
125 54 -62 0
125 67 -75 0
125 79 -87 0
125 90 -98 0
125 100 -108 0
125 109 -117 0
125 -118 -132 0
125 -119 -138 0
125 -120 -143 0
125 -121 -147 0
125 -122 -150 0
125 -123 -152 0
125 -124 -153 0
132 10 -17 0
132 26 -33 0
132 41 -48 0
132 55 -62 0
132 68 -75 0
132 80 -87 0
132 91 -98 0
132 101 -108 0
132 110 -117 0
132 118 -125 0
132 -126 -138 0
132 -127 -143 0
132 -128 -147 0
132 -129 -150 0
132 -130 -152 0
132 -131 -153 0
138 11 -17 0
138 27 -33 0
138 42 -48 0
138 56 -62 0
138 69 -75 0
138 81 -87 0
138 92 -98 0
138 102 -108 0
138 111 -117 0
138 119 -125 0
138 126 -132 0
138 -133 -143 0
138 -134 -147 0
138 -135 -150 0
138 -136 -152 0
138 -137 -153 0
143 12 -17 0
143 28 -33 0
143 43 -48 0
143 57 -62 0
143 70 -75 0
143 82 -87 0
143 93 -98 0
143 103 -108 0
143 112 -117 0
143 120 -125 0
143 127 -132 0
143 133 -138 0
143 -139 -147 0
143 -140 -150 0
143 -141 -152 0
143 -142 -153 0
147 13 -17 0
147 29 -33 0
147 44 -48 0
147 58 -62 0
147 71 -75 0
147 83 -87 0
147 94 -98 0
147 104 -108 0
147 113 -117 0
147 121 -125 0
147 128 -132 0
147 134 -138 0
147 139 -143 0
147 -144 -150 0
147 -145 -152 0
147 -146 -153 0
150 14 -17 0
150 30 -33 0
150 45 -48 0
150 59 -62 0
150 72 -75 0
150 84 -87 0
150 95 -98 0
150 105 -108 0
150 114 -117 0
150 122 -125 0
150 129 -132 0
150 135 -138 0
150 140 -143 0
150 144 -147 0
150 -148 -152 0
150 -149 -153 0
152 15 -17 0
152 31 -33 0
152 46 -48 0
152 60 -62 0
152 73 -75 0
152 85 -87 0
152 96 -98 0
152 106 -108 0
152 115 -117 0
152 123 -125 0
152 130 -132 0
152 136 -138 0
152 141 -143 0
152 145 -147 0
152 148 -150 0
152 -151 -153 0
153 16 -17 0
153 32 -33 0
153 47 -48 0
153 61 -62 0
153 74 -75 0
153 86 -87 0
153 97 -98 0
153 107 -108 0
153 116 -117 0
153 124 -125 0
153 131 -132 0
153 137 -138 0
153 142 -143 0
153 146 -147 0
153 149 -150 0
153 151 -152 0
