c family: orthogonal Latin squares
c known_status: SAT
c difficulty_level: hard
c description: two orthogonal Latin squares of order 5
c generated: deterministic complex CNF training pack
p cnf 625 45150
1 2 3 4 5 6 7 8 9 10 11 12 13 14 15 16 17 18 19 20 21 22 23 24 25 0
-1 -2 0
-1 -3 0
-1 -4 0
-1 -5 0
-1 -6 0
-1 -7 0
-1 -8 0
-1 -9 0
-1 -10 0
-1 -11 0
-1 -12 0
-1 -13 0
-1 -14 0
-1 -15 0
-1 -16 0
-1 -17 0
-1 -18 0
-1 -19 0
-1 -20 0
-1 -21 0
-1 -22 0
-1 -23 0
-1 -24 0
-1 -25 0
-2 -3 0
-2 -4 0
-2 -5 0
-2 -6 0
-2 -7 0
-2 -8 0
-2 -9 0
-2 -10 0
-2 -11 0
-2 -12 0
-2 -13 0
-2 -14 0
-2 -15 0
-2 -16 0
-2 -17 0
-2 -18 0
-2 -19 0
-2 -20 0
-2 -21 0
-2 -22 0
-2 -23 0
-2 -24 0
-2 -25 0
-3 -4 0
-3 -5 0
-3 -6 0
-3 -7 0
-3 -8 0
-3 -9 0
-3 -10 0
-3 -11 0
-3 -12 0
-3 -13 0
-3 -14 0
-3 -15 0
-3 -16 0
-3 -17 0
-3 -18 0
-3 -19 0
-3 -20 0
-3 -21 0
-3 -22 0
-3 -23 0
-3 -24 0
-3 -25 0
-4 -5 0
-4 -6 0
-4 -7 0
-4 -8 0
-4 -9 0
-4 -10 0
-4 -11 0
-4 -12 0
-4 -13 0
-4 -14 0
-4 -15 0
-4 -16 0
-4 -17 0
-4 -18 0
-4 -19 0
-4 -20 0
-4 -21 0
-4 -22 0
-4 -23 0
-4 -24 0
-4 -25 0
-5 -6 0
-5 -7 0
-5 -8 0
-5 -9 0
-5 -10 0
-5 -11 0
-5 -12 0
-5 -13 0
-5 -14 0
-5 -15 0
-5 -16 0
-5 -17 0
-5 -18 0
-5 -19 0
-5 -20 0
-5 -21 0
-5 -22 0
-5 -23 0
-5 -24 0
-5 -25 0
-6 -7 0
-6 -8 0
-6 -9 0
-6 -10 0
-6 -11 0
-6 -12 0
-6 -13 0
-6 -14 0
-6 -15 0
-6 -16 0
-6 -17 0
-6 -18 0
-6 -19 0
-6 -20 0
-6 -21 0
-6 -22 0
-6 -23 0
-6 -24 0
-6 -25 0
-7 -8 0
-7 -9 0
-7 -10 0
-7 -11 0
-7 -12 0
-7 -13 0
-7 -14 0
-7 -15 0
-7 -16 0
-7 -17 0
-7 -18 0
-7 -19 0
-7 -20 0
-7 -21 0
-7 -22 0
-7 -23 0
-7 -24 0
-7 -25 0
-8 -9 0
-8 -10 0
-8 -11 0
-8 -12 0
-8 -13 0
-8 -14 0
-8 -15 0
-8 -16 0
-8 -17 0
-8 -18 0
-8 -19 0
-8 -20 0
-8 -21 0
-8 -22 0
-8 -23 0
-8 -24 0
-8 -25 0
-9 -10 0
-9 -11 0
-9 -12 0
-9 -13 0
-9 -14 0
-9 -15 0
-9 -16 0
-9 -17 0
-9 -18 0
-9 -19 0
-9 -20 0
-9 -21 0
-9 -22 0
-9 -23 0
-9 -24 0
-9 -25 0
-10 -11 0
-10 -12 0
-10 -13 0
-10 -14 0
-10 -15 0
-10 -16 0
-10 -17 0
-10 -18 0
-10 -19 0
-10 -20 0
-10 -21 0
-10 -22 0
-10 -23 0
-10 -24 0
-10 -25 0
-11 -12 0
-11 -13 0
-11 -14 0
-11 -15 0
-11 -16 0
-11 -17 0
-11 -18 0
-11 -19 0
-11 -20 0
-11 -21 0
-11 -22 0
-11 -23 0
-11 -24 0
-11 -25 0
-12 -13 0
-12 -14 0
-12 -15 0
-12 -16 0
-12 -17 0
-12 -18 0
-12 -19 0
-12 -20 0
-12 -21 0
-12 -22 0
-12 -23 0
-12 -24 0
-12 -25 0
-13 -14 0
-13 -15 0
-13 -16 0
-13 -17 0
-13 -18 0
-13 -19 0
-13 -20 0
-13 -21 0
-13 -22 0
-13 -23 0
-13 -24 0
-13 -25 0
-14 -15 0
-14 -16 0
-14 -17 0
-14 -18 0
-14 -19 0
-14 -20 0
-14 -21 0
-14 -22 0
-14 -23 0
-14 -24 0
-14 -25 0
-15 -16 0
-15 -17 0
-15 -18 0
-15 -19 0
-15 -20 0
-15 -21 0
-15 -22 0
-15 -23 0
-15 -24 0
-15 -25 0
-16 -17 0
-16 -18 0
-16 -19 0
-16 -20 0
-16 -21 0
-16 -22 0
-16 -23 0
-16 -24 0
-16 -25 0
-17 -18 0
-17 -19 0
-17 -20 0
-17 -21 0
-17 -22 0
-17 -23 0
-17 -24 0
-17 -25 0
-18 -19 0
-18 -20 0
-18 -21 0
-18 -22 0
-18 -23 0
-18 -24 0
-18 -25 0
-19 -20 0
-19 -21 0
-19 -22 0
-19 -23 0
-19 -24 0
-19 -25 0
-20 -21 0
-20 -22 0
-20 -23 0
-20 -24 0
-20 -25 0
-21 -22 0
-21 -23 0
-21 -24 0
-21 -25 0
-22 -23 0
-22 -24 0
-22 -25 0
-23 -24 0
-23 -25 0
-24 -25 0
26 27 28 29 30 31 32 33 34 35 36 37 38 39 40 41 42 43 44 45 46 47 48 49 50 0
-26 -27 0
-26 -28 0
-26 -29 0
-26 -30 0
-26 -31 0
-26 -32 0
-26 -33 0
-26 -34 0
-26 -35 0
-26 -36 0
-26 -37 0
-26 -38 0
-26 -39 0
-26 -40 0
-26 -41 0
-26 -42 0
-26 -43 0
-26 -44 0
-26 -45 0
-26 -46 0
-26 -47 0
-26 -48 0
-26 -49 0
-26 -50 0
-27 -28 0
-27 -29 0
-27 -30 0
-27 -31 0
-27 -32 0
-27 -33 0
-27 -34 0
-27 -35 0
-27 -36 0
-27 -37 0
-27 -38 0
-27 -39 0
-27 -40 0
-27 -41 0
-27 -42 0
-27 -43 0
-27 -44 0
-27 -45 0
-27 -46 0
-27 -47 0
-27 -48 0
-27 -49 0
-27 -50 0
-28 -29 0
-28 -30 0
-28 -31 0
-28 -32 0
-28 -33 0
-28 -34 0
-28 -35 0
-28 -36 0
-28 -37 0
-28 -38 0
-28 -39 0
-28 -40 0
-28 -41 0
-28 -42 0
-28 -43 0
-28 -44 0
-28 -45 0
-28 -46 0
-28 -47 0
-28 -48 0
-28 -49 0
-28 -50 0
-29 -30 0
-29 -31 0
-29 -32 0
-29 -33 0
-29 -34 0
-29 -35 0
-29 -36 0
-29 -37 0
-29 -38 0
-29 -39 0
-29 -40 0
-29 -41 0
-29 -42 0
-29 -43 0
-29 -44 0
-29 -45 0
-29 -46 0
-29 -47 0
-29 -48 0
-29 -49 0
-29 -50 0
-30 -31 0
-30 -32 0
-30 -33 0
-30 -34 0
-30 -35 0
-30 -36 0
-30 -37 0
-30 -38 0
-30 -39 0
-30 -40 0
-30 -41 0
-30 -42 0
-30 -43 0
-30 -44 0
-30 -45 0
-30 -46 0
-30 -47 0
-30 -48 0
-30 -49 0
-30 -50 0
-31 -32 0
-31 -33 0
-31 -34 0
-31 -35 0
-31 -36 0
-31 -37 0
-31 -38 0
-31 -39 0
-31 -40 0
-31 -41 0
-31 -42 0
-31 -43 0
-31 -44 0
-31 -45 0
-31 -46 0
-31 -47 0
-31 -48 0
-31 -49 0
-31 -50 0
-32 -33 0
-32 -34 0
-32 -35 0
-32 -36 0
-32 -37 0
-32 -38 0
-32 -39 0
-32 -40 0
-32 -41 0
-32 -42 0
-32 -43 0
-32 -44 0
-32 -45 0
-32 -46 0
-32 -47 0
-32 -48 0
-32 -49 0
-32 -50 0
-33 -34 0
-33 -35 0
-33 -36 0
-33 -37 0
-33 -38 0
-33 -39 0
-33 -40 0
-33 -41 0
-33 -42 0
-33 -43 0
-33 -44 0
-33 -45 0
-33 -46 0
-33 -47 0
-33 -48 0
-33 -49 0
-33 -50 0
-34 -35 0
-34 -36 0
-34 -37 0
-34 -38 0
-34 -39 0
-34 -40 0
-34 -41 0
-34 -42 0
-34 -43 0
-34 -44 0
-34 -45 0
-34 -46 0
-34 -47 0
-34 -48 0
-34 -49 0
-34 -50 0
-35 -36 0
-35 -37 0
-35 -38 0
-35 -39 0
-35 -40 0
-35 -41 0
-35 -42 0
-35 -43 0
-35 -44 0
-35 -45 0
-35 -46 0
-35 -47 0
-35 -48 0
-35 -49 0
-35 -50 0
-36 -37 0
-36 -38 0
-36 -39 0
-36 -40 0
-36 -41 0
-36 -42 0
-36 -43 0
-36 -44 0
-36 -45 0
-36 -46 0
-36 -47 0
-36 -48 0
-36 -49 0
-36 -50 0
-37 -38 0
-37 -39 0
-37 -40 0
-37 -41 0
-37 -42 0
-37 -43 0
-37 -44 0
-37 -45 0
-37 -46 0
-37 -47 0
-37 -48 0
-37 -49 0
-37 -50 0
-38 -39 0
-38 -40 0
-38 -41 0
-38 -42 0
-38 -43 0
-38 -44 0
-38 -45 0
-38 -46 0
-38 -47 0
-38 -48 0
-38 -49 0
-38 -50 0
-39 -40 0
-39 -41 0
-39 -42 0
-39 -43 0
-39 -44 0
-39 -45 0
-39 -46 0
-39 -47 0
-39 -48 0
-39 -49 0
-39 -50 0
-40 -41 0
-40 -42 0
-40 -43 0
-40 -44 0
-40 -45 0
-40 -46 0
-40 -47 0
-40 -48 0
-40 -49 0
-40 -50 0
-41 -42 0
-41 -43 0
-41 -44 0
-41 -45 0
-41 -46 0
-41 -47 0
-41 -48 0
-41 -49 0
-41 -50 0
-42 -43 0
-42 -44 0
-42 -45 0
-42 -46 0
-42 -47 0
-42 -48 0
-42 -49 0
-42 -50 0
-43 -44 0
-43 -45 0
-43 -46 0
-43 -47 0
-43 -48 0
-43 -49 0
-43 -50 0
-44 -45 0
-44 -46 0
-44 -47 0
-44 -48 0
-44 -49 0
-44 -50 0
-45 -46 0
-45 -47 0
-45 -48 0
-45 -49 0
-45 -50 0
-46 -47 0
-46 -48 0
-46 -49 0
-46 -50 0
-47 -48 0
-47 -49 0
-47 -50 0
-48 -49 0
-48 -50 0
-49 -50 0
51 52 53 54 55 56 57 58 59 60 61 62 63 64 65 66 67 68 69 70 71 72 73 74 75 0
-51 -52 0
-51 -53 0
-51 -54 0
-51 -55 0
-51 -56 0
-51 -57 0
-51 -58 0
-51 -59 0
-51 -60 0
-51 -61 0
-51 -62 0
-51 -63 0
-51 -64 0
-51 -65 0
-51 -66 0
-51 -67 0
-51 -68 0
-51 -69 0
-51 -70 0
-51 -71 0
-51 -72 0
-51 -73 0
-51 -74 0
-51 -75 0
-52 -53 0
-52 -54 0
-52 -55 0
-52 -56 0
-52 -57 0
-52 -58 0
-52 -59 0
-52 -60 0
-52 -61 0
-52 -62 0
-52 -63 0
-52 -64 0
-52 -65 0
-52 -66 0
-52 -67 0
-52 -68 0
-52 -69 0
-52 -70 0
-52 -71 0
-52 -72 0
-52 -73 0
-52 -74 0
-52 -75 0
-53 -54 0
-53 -55 0
-53 -56 0
-53 -57 0
-53 -58 0
-53 -59 0
-53 -60 0
-53 -61 0
-53 -62 0
-53 -63 0
-53 -64 0
-53 -65 0
-53 -66 0
-53 -67 0
-53 -68 0
-53 -69 0
-53 -70 0
-53 -71 0
-53 -72 0
-53 -73 0
-53 -74 0
-53 -75 0
-54 -55 0
-54 -56 0
-54 -57 0
-54 -58 0
-54 -59 0
-54 -60 0
-54 -61 0
-54 -62 0
-54 -63 0
-54 -64 0
-54 -65 0
-54 -66 0
-54 -67 0
-54 -68 0
-54 -69 0
-54 -70 0
-54 -71 0
-54 -72 0
-54 -73 0
-54 -74 0
-54 -75 0
-55 -56 0
-55 -57 0
-55 -58 0
-55 -59 0
-55 -60 0
-55 -61 0
-55 -62 0
-55 -63 0
-55 -64 0
-55 -65 0
-55 -66 0
-55 -67 0
-55 -68 0
-55 -69 0
-55 -70 0
-55 -71 0
-55 -72 0
-55 -73 0
-55 -74 0
-55 -75 0
-56 -57 0
-56 -58 0
-56 -59 0
-56 -60 0
-56 -61 0
-56 -62 0
-56 -63 0
-56 -64 0
-56 -65 0
-56 -66 0
-56 -67 0
-56 -68 0
-56 -69 0
-56 -70 0
-56 -71 0
-56 -72 0
-56 -73 0
-56 -74 0
-56 -75 0
-57 -58 0
-57 -59 0
-57 -60 0
-57 -61 0
-57 -62 0
-57 -63 0
-57 -64 0
-57 -65 0
-57 -66 0
-57 -67 0
-57 -68 0
-57 -69 0
-57 -70 0
-57 -71 0
-57 -72 0
-57 -73 0
-57 -74 0
-57 -75 0
-58 -59 0
-58 -60 0
-58 -61 0
-58 -62 0
-58 -63 0
-58 -64 0
-58 -65 0
-58 -66 0
-58 -67 0
-58 -68 0
-58 -69 0
-58 -70 0
-58 -71 0
-58 -72 0
-58 -73 0
-58 -74 0
-58 -75 0
-59 -60 0
-59 -61 0
-59 -62 0
-59 -63 0
-59 -64 0
-59 -65 0
-59 -66 0
-59 -67 0
-59 -68 0
-59 -69 0
-59 -70 0
-59 -71 0
-59 -72 0
-59 -73 0
-59 -74 0
-59 -75 0
-60 -61 0
-60 -62 0
-60 -63 0
-60 -64 0
-60 -65 0
-60 -66 0
-60 -67 0
-60 -68 0
-60 -69 0
-60 -70 0
-60 -71 0
-60 -72 0
-60 -73 0
-60 -74 0
-60 -75 0
-61 -62 0
-61 -63 0
-61 -64 0
-61 -65 0
-61 -66 0
-61 -67 0
-61 -68 0
-61 -69 0
-61 -70 0
-61 -71 0
-61 -72 0
-61 -73 0
-61 -74 0
-61 -75 0
-62 -63 0
-62 -64 0
-62 -65 0
-62 -66 0
-62 -67 0
-62 -68 0
-62 -69 0
-62 -70 0
-62 -71 0
-62 -72 0
-62 -73 0
-62 -74 0
-62 -75 0
-63 -64 0
-63 -65 0
-63 -66 0
-63 -67 0
-63 -68 0
-63 -69 0
-63 -70 0
-63 -71 0
-63 -72 0
-63 -73 0
-63 -74 0
-63 -75 0
-64 -65 0
-64 -66 0
-64 -67 0
-64 -68 0
-64 -69 0
-64 -70 0
-64 -71 0
-64 -72 0
-64 -73 0
-64 -74 0
-64 -75 0
-65 -66 0
-65 -67 0
-65 -68 0
-65 -69 0
-65 -70 0
-65 -71 0
-65 -72 0
-65 -73 0
-65 -74 0
-65 -75 0
-66 -67 0
-66 -68 0
-66 -69 0
-66 -70 0
-66 -71 0
-66 -72 0
-66 -73 0
-66 -74 0
-66 -75 0
-67 -68 0
-67 -69 0
-67 -70 0
-67 -71 0
-67 -72 0
-67 -73 0
-67 -74 0
-67 -75 0
-68 -69 0
-68 -70 0
-68 -71 0
-68 -72 0
-68 -73 0
-68 -74 0
-68 -75 0
-69 -70 0
-69 -71 0
-69 -72 0
-69 -73 0
-69 -74 0
-69 -75 0
-70 -71 0
-70 -72 0
-70 -73 0
-70 -74 0
-70 -75 0
-71 -72 0
-71 -73 0
-71 -74 0
-71 -75 0
-72 -73 0
-72 -74 0
-72 -75 0
-73 -74 0
-73 -75 0
-74 -75 0
76 77 78 79 80 81 82 83 84 85 86 87 88 89 90 91 92 93 94 95 96 97 98 99 100 0
-76 -77 0
-76 -78 0
-76 -79 0
-76 -80 0
-76 -81 0
-76 -82 0
-76 -83 0
-76 -84 0
-76 -85 0
-76 -86 0
-76 -87 0
-76 -88 0
-76 -89 0
-76 -90 0
-76 -91 0
-76 -92 0
-76 -93 0
-76 -94 0
-76 -95 0
-76 -96 0
-76 -97 0
-76 -98 0
-76 -99 0
-76 -100 0
-77 -78 0
-77 -79 0
-77 -80 0
-77 -81 0
-77 -82 0
-77 -83 0
-77 -84 0
-77 -85 0
-77 -86 0
-77 -87 0
-77 -88 0
-77 -89 0
-77 -90 0
-77 -91 0
-77 -92 0
-77 -93 0
-77 -94 0
-77 -95 0
-77 -96 0
-77 -97 0
-77 -98 0
-77 -99 0
-77 -100 0
-78 -79 0
-78 -80 0
-78 -81 0
-78 -82 0
-78 -83 0
-78 -84 0
-78 -85 0
-78 -86 0
-78 -87 0
-78 -88 0
-78 -89 0
-78 -90 0
-78 -91 0
-78 -92 0
-78 -93 0
-78 -94 0
-78 -95 0
-78 -96 0
-78 -97 0
-78 -98 0
-78 -99 0
-78 -100 0
-79 -80 0
-79 -81 0
-79 -82 0
-79 -83 0
-79 -84 0
-79 -85 0
-79 -86 0
-79 -87 0
-79 -88 0
-79 -89 0
-79 -90 0
-79 -91 0
-79 -92 0
-79 -93 0
-79 -94 0
-79 -95 0
-79 -96 0
-79 -97 0
-79 -98 0
-79 -99 0
-79 -100 0
-80 -81 0
-80 -82 0
-80 -83 0
-80 -84 0
-80 -85 0
-80 -86 0
-80 -87 0
-80 -88 0
-80 -89 0
-80 -90 0
-80 -91 0
-80 -92 0
-80 -93 0
-80 -94 0
-80 -95 0
-80 -96 0
-80 -97 0
-80 -98 0
-80 -99 0
-80 -100 0
-81 -82 0
-81 -83 0
-81 -84 0
-81 -85 0
-81 -86 0
-81 -87 0
-81 -88 0
-81 -89 0
-81 -90 0
-81 -91 0
-81 -92 0
-81 -93 0
-81 -94 0
-81 -95 0
-81 -96 0
-81 -97 0
-81 -98 0
-81 -99 0
-81 -100 0
-82 -83 0
-82 -84 0
-82 -85 0
-82 -86 0
-82 -87 0
-82 -88 0
-82 -89 0
-82 -90 0
-82 -91 0
-82 -92 0
-82 -93 0
-82 -94 0
-82 -95 0
-82 -96 0
-82 -97 0
-82 -98 0
-82 -99 0
-82 -100 0
-83 -84 0
-83 -85 0
-83 -86 0
-83 -87 0
-83 -88 0
-83 -89 0
-83 -90 0
-83 -91 0
-83 -92 0
-83 -93 0
-83 -94 0
-83 -95 0
-83 -96 0
-83 -97 0
-83 -98 0
-83 -99 0
-83 -100 0
-84 -85 0
-84 -86 0
-84 -87 0
-84 -88 0
-84 -89 0
-84 -90 0
-84 -91 0
-84 -92 0
-84 -93 0
-84 -94 0
-84 -95 0
-84 -96 0
-84 -97 0
-84 -98 0
-84 -99 0
-84 -100 0
-85 -86 0
-85 -87 0
-85 -88 0
-85 -89 0
-85 -90 0
-85 -91 0
-85 -92 0
-85 -93 0
-85 -94 0
-85 -95 0
-85 -96 0
-85 -97 0
-85 -98 0
-85 -99 0
-85 -100 0
-86 -87 0
-86 -88 0
-86 -89 0
-86 -90 0
-86 -91 0
-86 -92 0
-86 -93 0
-86 -94 0
-86 -95 0
-86 -96 0
-86 -97 0
-86 -98 0
-86 -99 0
-86 -100 0
-87 -88 0
-87 -89 0
-87 -90 0
-87 -91 0
-87 -92 0
-87 -93 0
-87 -94 0
-87 -95 0
-87 -96 0
-87 -97 0
-87 -98 0
-87 -99 0
-87 -100 0
-88 -89 0
-88 -90 0
-88 -91 0
-88 -92 0
-88 -93 0
-88 -94 0
-88 -95 0
-88 -96 0
-88 -97 0
-88 -98 0
-88 -99 0
-88 -100 0
-89 -90 0
-89 -91 0
-89 -92 0
-89 -93 0
-89 -94 0
-89 -95 0
-89 -96 0
-89 -97 0
-89 -98 0
-89 -99 0
-89 -100 0
-90 -91 0
-90 -92 0
-90 -93 0
-90 -94 0
-90 -95 0
-90 -96 0
-90 -97 0
-90 -98 0
-90 -99 0
-90 -100 0
-91 -92 0
-91 -93 0
-91 -94 0
-91 -95 0
-91 -96 0
-91 -97 0
-91 -98 0
-91 -99 0
-91 -100 0
-92 -93 0
-92 -94 0
-92 -95 0
-92 -96 0
-92 -97 0
-92 -98 0
-92 -99 0
-92 -100 0
-93 -94 0
-93 -95 0
-93 -96 0
-93 -97 0
-93 -98 0
-93 -99 0
-93 -100 0
-94 -95 0
-94 -96 0
-94 -97 0
-94 -98 0
-94 -99 0
-94 -100 0
-95 -96 0
-95 -97 0
-95 -98 0
-95 -99 0
-95 -100 0
-96 -97 0
-96 -98 0
-96 -99 0
-96 -100 0
-97 -98 0
-97 -99 0
-97 -100 0
-98 -99 0
-98 -100 0
-99 -100 0
101 102 103 104 105 106 107 108 109 110 111 112 113 114 115 116 117 118 119 120 121 122 123 124 125 0
-101 -102 0
-101 -103 0
-101 -104 0
-101 -105 0
-101 -106 0
-101 -107 0
-101 -108 0
-101 -109 0
-101 -110 0
-101 -111 0
-101 -112 0
-101 -113 0
-101 -114 0
-101 -115 0
-101 -116 0
-101 -117 0
-101 -118 0
-101 -119 0
-101 -120 0
-101 -121 0
-101 -122 0
-101 -123 0
-101 -124 0
-101 -125 0
-102 -103 0
-102 -104 0
-102 -105 0
-102 -106 0
-102 -107 0
-102 -108 0
-102 -109 0
-102 -110 0
-102 -111 0
-102 -112 0
-102 -113 0
-102 -114 0
-102 -115 0
-102 -116 0
-102 -117 0
-102 -118 0
-102 -119 0
-102 -120 0
-102 -121 0
-102 -122 0
-102 -123 0
-102 -124 0
-102 -125 0
-103 -104 0
-103 -105 0
-103 -106 0
-103 -107 0
-103 -108 0
-103 -109 0
-103 -110 0
-103 -111 0
-103 -112 0
-103 -113 0
-103 -114 0
-103 -115 0
-103 -116 0
-103 -117 0
-103 -118 0
-103 -119 0
-103 -120 0
-103 -121 0
-103 -122 0
-103 -123 0
-103 -124 0
-103 -125 0
-104 -105 0
-104 -106 0
-104 -107 0
-104 -108 0
-104 -109 0
-104 -110 0
-104 -111 0
-104 -112 0
-104 -113 0
-104 -114 0
-104 -115 0
-104 -116 0
-104 -117 0
-104 -118 0
-104 -119 0
-104 -120 0
-104 -121 0
-104 -122 0
-104 -123 0
-104 -124 0
-104 -125 0
-105 -106 0
-105 -107 0
-105 -108 0
-105 -109 0
-105 -110 0
-105 -111 0
-105 -112 0
-105 -113 0
-105 -114 0
-105 -115 0
-105 -116 0
-105 -117 0
-105 -118 0
-105 -119 0
-105 -120 0
-105 -121 0
-105 -122 0
-105 -123 0
-105 -124 0
-105 -125 0
-106 -107 0
-106 -108 0
-106 -109 0
-106 -110 0
-106 -111 0
-106 -112 0
-106 -113 0
-106 -114 0
-106 -115 0
-106 -116 0
-106 -117 0
-106 -118 0
-106 -119 0
-106 -120 0
-106 -121 0
-106 -122 0
-106 -123 0
-106 -124 0
-106 -125 0
-107 -108 0
-107 -109 0
-107 -110 0
-107 -111 0
-107 -112 0
-107 -113 0
-107 -114 0
-107 -115 0
-107 -116 0
-107 -117 0
-107 -118 0
-107 -119 0
-107 -120 0
-107 -121 0
-107 -122 0
-107 -123 0
-107 -124 0
-107 -125 0
-108 -109 0
-108 -110 0
-108 -111 0
-108 -112 0
-108 -113 0
-108 -114 0
-108 -115 0
-108 -116 0
-108 -117 0
-108 -118 0
-108 -119 0
-108 -120 0
-108 -121 0
-108 -122 0
-108 -123 0
-108 -124 0
-108 -125 0
-109 -110 0
-109 -111 0
-109 -112 0
-109 -113 0
-109 -114 0
-109 -115 0
-109 -116 0
-109 -117 0
-109 -118 0
-109 -119 0
-109 -120 0
-109 -121 0
-109 -122 0
-109 -123 0
-109 -124 0
-109 -125 0
-110 -111 0
-110 -112 0
-110 -113 0
-110 -114 0
-110 -115 0
-110 -116 0
-110 -117 0
-110 -118 0
-110 -119 0
-110 -120 0
-110 -121 0
-110 -122 0
-110 -123 0
-110 -124 0
-110 -125 0
-111 -112 0
-111 -113 0
-111 -114 0
-111 -115 0
-111 -116 0
-111 -117 0
-111 -118 0
-111 -119 0
-111 -120 0
-111 -121 0
-111 -122 0
-111 -123 0
-111 -124 0
-111 -125 0
-112 -113 0
-112 -114 0
-112 -115 0
-112 -116 0
-112 -117 0
-112 -118 0
-112 -119 0
-112 -120 0
-112 -121 0
-112 -122 0
-112 -123 0
-112 -124 0
-112 -125 0
-113 -114 0
-113 -115 0
-113 -116 0
-113 -117 0
-113 -118 0
-113 -119 0
-113 -120 0
-113 -121 0
-113 -122 0
-113 -123 0
-113 -124 0
-113 -125 0
-114 -115 0
-114 -116 0
-114 -117 0
-114 -118 0
-114 -119 0
-114 -120 0
-114 -121 0
-114 -122 0
-114 -123 0
-114 -124 0
-114 -125 0
-115 -116 0
-115 -117 0
-115 -118 0
-115 -119 0
-115 -120 0
-115 -121 0
-115 -122 0
-115 -123 0
-115 -124 0
-115 -125 0
-116 -117 0
-116 -118 0
-116 -119 0
-116 -120 0
-116 -121 0
-116 -122 0
-116 -123 0
-116 -124 0
-116 -125 0
-117 -118 0
-117 -119 0
-117 -120 0
-117 -121 0
-117 -122 0
-117 -123 0
-117 -124 0
-117 -125 0
-118 -119 0
-118 -120 0
-118 -121 0
-118 -122 0
-118 -123 0
-118 -124 0
-118 -125 0
-119 -120 0
-119 -121 0
-119 -122 0
-119 -123 0
-119 -124 0
-119 -125 0
-120 -121 0
-120 -122 0
-120 -123 0
-120 -124 0
-120 -125 0
-121 -122 0
-121 -123 0
-121 -124 0
-121 -125 0
-122 -123 0
-122 -124 0
-122 -125 0
-123 -124 0
-123 -125 0
-124 -125 0
126 127 128 129 130 131 132 133 134 135 136 137 138 139 140 141 142 143 144 145 146 147 148 149 150 0
-126 -127 0
-126 -128 0
-126 -129 0
-126 -130 0
-126 -131 0
-126 -132 0
-126 -133 0
-126 -134 0
-126 -135 0
-126 -136 0
-126 -137 0
-126 -138 0
-126 -139 0
-126 -140 0
-126 -141 0
-126 -142 0
-126 -143 0
-126 -144 0
-126 -145 0
-126 -146 0
-126 -147 0
-126 -148 0
-126 -149 0
-126 -150 0
-127 -128 0
-127 -129 0
-127 -130 0
-127 -131 0
-127 -132 0
-127 -133 0
-127 -134 0
-127 -135 0
-127 -136 0
-127 -137 0
-127 -138 0
-127 -139 0
-127 -140 0
-127 -141 0
-127 -142 0
-127 -143 0
-127 -144 0
-127 -145 0
-127 -146 0
-127 -147 0
-127 -148 0
-127 -149 0
-127 -150 0
-128 -129 0
-128 -130 0
-128 -131 0
-128 -132 0
-128 -133 0
-128 -134 0
-128 -135 0
-128 -136 0
-128 -137 0
-128 -138 0
-128 -139 0
-128 -140 0
-128 -141 0
-128 -142 0
-128 -143 0
-128 -144 0
-128 -145 0
-128 -146 0
-128 -147 0
-128 -148 0
-128 -149 0
-128 -150 0
-129 -130 0
-129 -131 0
-129 -132 0
-129 -133 0
-129 -134 0
-129 -135 0
-129 -136 0
-129 -137 0
-129 -138 0
-129 -139 0
-129 -140 0
-129 -141 0
-129 -142 0
-129 -143 0
-129 -144 0
-129 -145 0
-129 -146 0
-129 -147 0
-129 -148 0
-129 -149 0
-129 -150 0
-130 -131 0
-130 -132 0
-130 -133 0
-130 -134 0
-130 -135 0
-130 -136 0
-130 -137 0
-130 -138 0
-130 -139 0
-130 -140 0
-130 -141 0
-130 -142 0
-130 -143 0
-130 -144 0
-130 -145 0
-130 -146 0
-130 -147 0
-130 -148 0
-130 -149 0
-130 -150 0
-131 -132 0
-131 -133 0
-131 -134 0
-131 -135 0
-131 -136 0
-131 -137 0
-131 -138 0
-131 -139 0
-131 -140 0
-131 -141 0
-131 -142 0
-131 -143 0
-131 -144 0
-131 -145 0
-131 -146 0
-131 -147 0
-131 -148 0
-131 -149 0
-131 -150 0
-132 -133 0
-132 -134 0
-132 -135 0
-132 -136 0
-132 -137 0
-132 -138 0
-132 -139 0
-132 -140 0
-132 -141 0
-132 -142 0
-132 -143 0
-132 -144 0
-132 -145 0
-132 -146 0
-132 -147 0
-132 -148 0
-132 -149 0
-132 -150 0
-133 -134 0
-133 -135 0
-133 -136 0
-133 -137 0
-133 -138 0
-133 -139 0
-133 -140 0
-133 -141 0
-133 -142 0
-133 -143 0
-133 -144 0
-133 -145 0
-133 -146 0
-133 -147 0
-133 -148 0
-133 -149 0
-133 -150 0
-134 -135 0
-134 -136 0
-134 -137 0
-134 -138 0
-134 -139 0
-134 -140 0
-134 -141 0
-134 -142 0
-134 -143 0
-134 -144 0
-134 -145 0
-134 -146 0
-134 -147 0
-134 -148 0
-134 -149 0
-134 -150 0
-135 -136 0
-135 -137 0
-135 -138 0
-135 -139 0
-135 -140 0
-135 -141 0
-135 -142 0
-135 -143 0
-135 -144 0
-135 -145 0
-135 -146 0
-135 -147 0
-135 -148 0
-135 -149 0
-135 -150 0
-136 -137 0
-136 -138 0
-136 -139 0
-136 -140 0
-136 -141 0
-136 -142 0
-136 -143 0
-136 -144 0
-136 -145 0
-136 -146 0
-136 -147 0
-136 -148 0
-136 -149 0
-136 -150 0
-137 -138 0
-137 -139 0
-137 -140 0
-137 -141 0
-137 -142 0
-137 -143 0
-137 -144 0
-137 -145 0
-137 -146 0
-137 -147 0
-137 -148 0
-137 -149 0
-137 -150 0
-138 -139 0
-138 -140 0
-138 -141 0
-138 -142 0
-138 -143 0
-138 -144 0
-138 -145 0
-138 -146 0
-138 -147 0
-138 -148 0
-138 -149 0
-138 -150 0
-139 -140 0
-139 -141 0
-139 -142 0
-139 -143 0
-139 -144 0
-139 -145 0
-139 -146 0
-139 -147 0
-139 -148 0
-139 -149 0
-139 -150 0
-140 -141 0
-140 -142 0
-140 -143 0
-140 -144 0
-140 -145 0
-140 -146 0
-140 -147 0
-140 -148 0
-140 -149 0
-140 -150 0
-141 -142 0
-141 -143 0
-141 -144 0
-141 -145 0
-141 -146 0
-141 -147 0
-141 -148 0
-141 -149 0
-141 -150 0
-142 -143 0
-142 -144 0
-142 -145 0
-142 -146 0
-142 -147 0
-142 -148 0
-142 -149 0
-142 -150 0
-143 -144 0
-143 -145 0
-143 -146 0
-143 -147 0
-143 -148 0
-143 -149 0
-143 -150 0
-144 -145 0
-144 -146 0
-144 -147 0
-144 -148 0
-144 -149 0
-144 -150 0
-145 -146 0
-145 -147 0
-145 -148 0
-145 -149 0
-145 -150 0
-146 -147 0
-146 -148 0
-146 -149 0
-146 -150 0
-147 -148 0
-147 -149 0
-147 -150 0
-148 -149 0
-148 -150 0
-149 -150 0
151 152 153 154 155 156 157 158 159 160 161 162 163 164 165 166 167 168 169 170 171 172 173 174 175 0
-151 -152 0
-151 -153 0
-151 -154 0
-151 -155 0
-151 -156 0
-151 -157 0
-151 -158 0
-151 -159 0
-151 -160 0
-151 -161 0
-151 -162 0
-151 -163 0
-151 -164 0
-151 -165 0
-151 -166 0
-151 -167 0
-151 -168 0
-151 -169 0
-151 -170 0
-151 -171 0
-151 -172 0
-151 -173 0
-151 -174 0
-151 -175 0
-152 -153 0
-152 -154 0
-152 -155 0
-152 -156 0
-152 -157 0
-152 -158 0
-152 -159 0
-152 -160 0
-152 -161 0
-152 -162 0
-152 -163 0
-152 -164 0
-152 -165 0
-152 -166 0
-152 -167 0
-152 -168 0
-152 -169 0
-152 -170 0
-152 -171 0
-152 -172 0
-152 -173 0
-152 -174 0
-152 -175 0
-153 -154 0
-153 -155 0
-153 -156 0
-153 -157 0
-153 -158 0
-153 -159 0
-153 -160 0
-153 -161 0
-153 -162 0
-153 -163 0
-153 -164 0
-153 -165 0
-153 -166 0
-153 -167 0
-153 -168 0
-153 -169 0
-153 -170 0
-153 -171 0
-153 -172 0
-153 -173 0
-153 -174 0
-153 -175 0
-154 -155 0
-154 -156 0
-154 -157 0
-154 -158 0
-154 -159 0
-154 -160 0
-154 -161 0
-154 -162 0
-154 -163 0
-154 -164 0
-154 -165 0
-154 -166 0
-154 -167 0
-154 -168 0
-154 -169 0
-154 -170 0
-154 -171 0
-154 -172 0
-154 -173 0
-154 -174 0
-154 -175 0
-155 -156 0
-155 -157 0
-155 -158 0
-155 -159 0
-155 -160 0
-155 -161 0
-155 -162 0
-155 -163 0
-155 -164 0
-155 -165 0
-155 -166 0
-155 -167 0
-155 -168 0
-155 -169 0
-155 -170 0
-155 -171 0
-155 -172 0
-155 -173 0
-155 -174 0
-155 -175 0
-156 -157 0
-156 -158 0
-156 -159 0
-156 -160 0
-156 -161 0
-156 -162 0
-156 -163 0
-156 -164 0
-156 -165 0
-156 -166 0
-156 -167 0
-156 -168 0
-156 -169 0
-156 -170 0
-156 -171 0
-156 -172 0
-156 -173 0
-156 -174 0
-156 -175 0
-157 -158 0
-157 -159 0
-157 -160 0
-157 -161 0
-157 -162 0
-157 -163 0
-157 -164 0
-157 -165 0
-157 -166 0
-157 -167 0
-157 -168 0
-157 -169 0
-157 -170 0
-157 -171 0
-157 -172 0
-157 -173 0
-157 -174 0
-157 -175 0
-158 -159 0
-158 -160 0
-158 -161 0
-158 -162 0
-158 -163 0
-158 -164 0
-158 -165 0
-158 -166 0
-158 -167 0
-158 -168 0
-158 -169 0
-158 -170 0
-158 -171 0
-158 -172 0
-158 -173 0
-158 -174 0
-158 -175 0
-159 -160 0
-159 -161 0
-159 -162 0
-159 -163 0
-159 -164 0
-159 -165 0
-159 -166 0
-159 -167 0
-159 -168 0
-159 -169 0
-159 -170 0
-159 -171 0
-159 -172 0
-159 -173 0
-159 -174 0
-159 -175 0
-160 -161 0
-160 -162 0
-160 -163 0
-160 -164 0
-160 -165 0
-160 -166 0
-160 -167 0
-160 -168 0
-160 -169 0
-160 -170 0
-160 -171 0
-160 -172 0
-160 -173 0
-160 -174 0
-160 -175 0
-161 -162 0
-161 -163 0
-161 -164 0
-161 -165 0
-161 -166 0
-161 -167 0
-161 -168 0
-161 -169 0
-161 -170 0
-161 -171 0
-161 -172 0
-161 -173 0
-161 -174 0
-161 -175 0
-162 -163 0
-162 -164 0
-162 -165 0
-162 -166 0
-162 -167 0
-162 -168 0
-162 -169 0
-162 -170 0
-162 -171 0
-162 -172 0
-162 -173 0
-162 -174 0
-162 -175 0
-163 -164 0
-163 -165 0
-163 -166 0
-163 -167 0
-163 -168 0
-163 -169 0
-163 -170 0
-163 -171 0
-163 -172 0
-163 -173 0
-163 -174 0
-163 -175 0
-164 -165 0
-164 -166 0
-164 -167 0
-164 -168 0
-164 -169 0
-164 -170 0
-164 -171 0
-164 -172 0
-164 -173 0
-164 -174 0
-164 -175 0
-165 -166 0
-165 -167 0
-165 -168 0
-165 -169 0
-165 -170 0
-165 -171 0
-165 -172 0
-165 -173 0
-165 -174 0
-165 -175 0
-166 -167 0
-166 -168 0
-166 -169 0
-166 -170 0
-166 -171 0
-166 -172 0
-166 -173 0
-166 -174 0
-166 -175 0
-167 -168 0
-167 -169 0
-167 -170 0
-167 -171 0
-167 -172 0
-167 -173 0
-167 -174 0
-167 -175 0
-168 -169 0
-168 -170 0
-168 -171 0
-168 -172 0
-168 -173 0
-168 -174 0
-168 -175 0
-169 -170 0
-169 -171 0
-169 -172 0
-169 -173 0
-169 -174 0
-169 -175 0
-170 -171 0
-170 -172 0
-170 -173 0
-170 -174 0
-170 -175 0
-171 -172 0
-171 -173 0
-171 -174 0
-171 -175 0
-172 -173 0
-172 -174 0
-172 -175 0
-173 -174 0
-173 -175 0
-174 -175 0
176 177 178 179 180 181 182 183 184 185 186 187 188 189 190 191 192 193 194 195 196 197 198 199 200 0
-176 -177 0
-176 -178 0
-176 -179 0
-176 -180 0
-176 -181 0
-176 -182 0
-176 -183 0
-176 -184 0
-176 -185 0
-176 -186 0
-176 -187 0
-176 -188 0
-176 -189 0
-176 -190 0
-176 -191 0
-176 -192 0
-176 -193 0
-176 -194 0
-176 -195 0
-176 -196 0
-176 -197 0
-176 -198 0
-176 -199 0
-176 -200 0
-177 -178 0
-177 -179 0
-177 -180 0
-177 -181 0
-177 -182 0
-177 -183 0
-177 -184 0
-177 -185 0
-177 -186 0
-177 -187 0
-177 -188 0
-177 -189 0
-177 -190 0
-177 -191 0
-177 -192 0
-177 -193 0
-177 -194 0
-177 -195 0
-177 -196 0
-177 -197 0
-177 -198 0
-177 -199 0
-177 -200 0
-178 -179 0
-178 -180 0
-178 -181 0
-178 -182 0
-178 -183 0
-178 -184 0
-178 -185 0
-178 -186 0
-178 -187 0
-178 -188 0
-178 -189 0
-178 -190 0
-178 -191 0
-178 -192 0
-178 -193 0
-178 -194 0
-178 -195 0
-178 -196 0
-178 -197 0
-178 -198 0
-178 -199 0
-178 -200 0
-179 -180 0
-179 -181 0
-179 -182 0
-179 -183 0
-179 -184 0
-179 -185 0
-179 -186 0
-179 -187 0
-179 -188 0
-179 -189 0
-179 -190 0
-179 -191 0
-179 -192 0
-179 -193 0
-179 -194 0
-179 -195 0
-179 -196 0
-179 -197 0
-179 -198 0
-179 -199 0
-179 -200 0
-180 -181 0
-180 -182 0
-180 -183 0
-180 -184 0
-180 -185 0
-180 -186 0
-180 -187 0
-180 -188 0
-180 -189 0
-180 -190 0
-180 -191 0
-180 -192 0
-180 -193 0
-180 -194 0
-180 -195 0
-180 -196 0
-180 -197 0
-180 -198 0
-180 -199 0
-180 -200 0
-181 -182 0
-181 -183 0
-181 -184 0
-181 -185 0
-181 -186 0
-181 -187 0
-181 -188 0
-181 -189 0
-181 -190 0
-181 -191 0
-181 -192 0
-181 -193 0
-181 -194 0
-181 -195 0
-181 -196 0
-181 -197 0
-181 -198 0
-181 -199 0
-181 -200 0
-182 -183 0
-182 -184 0
-182 -185 0
-182 -186 0
-182 -187 0
-182 -188 0
-182 -189 0
-182 -190 0
-182 -191 0
-182 -192 0
-182 -193 0
-182 -194 0
-182 -195 0
-182 -196 0
-182 -197 0
-182 -198 0
-182 -199 0
-182 -200 0
-183 -184 0
-183 -185 0
-183 -186 0
-183 -187 0
-183 -188 0
-183 -189 0
-183 -190 0
-183 -191 0
-183 -192 0
-183 -193 0
-183 -194 0
-183 -195 0
-183 -196 0
-183 -197 0
-183 -198 0
-183 -199 0
-183 -200 0
-184 -185 0
-184 -186 0
-184 -187 0
-184 -188 0
-184 -189 0
-184 -190 0
-184 -191 0
-184 -192 0
-184 -193 0
-184 -194 0
-184 -195 0
-184 -196 0
-184 -197 0
-184 -198 0
-184 -199 0
-184 -200 0
-185 -186 0
-185 -187 0
-185 -188 0
-185 -189 0
-185 -190 0
-185 -191 0
-185 -192 0
-185 -193 0
-185 -194 0
-185 -195 0
-185 -196 0
-185 -197 0
-185 -198 0
-185 -199 0
-185 -200 0
-186 -187 0
-186 -188 0
-186 -189 0
-186 -190 0
-186 -191 0
-186 -192 0
-186 -193 0
-186 -194 0
-186 -195 0
-186 -196 0
-186 -197 0
-186 -198 0
-186 -199 0
-186 -200 0
-187 -188 0
-187 -189 0
-187 -190 0
-187 -191 0
-187 -192 0
-187 -193 0
-187 -194 0
-187 -195 0
-187 -196 0
-187 -197 0
-187 -198 0
-187 -199 0
-187 -200 0
-188 -189 0
-188 -190 0
-188 -191 0
-188 -192 0
-188 -193 0
-188 -194 0
-188 -195 0
-188 -196 0
-188 -197 0
-188 -198 0
-188 -199 0
-188 -200 0
-189 -190 0
-189 -191 0
-189 -192 0
-189 -193 0
-189 -194 0
-189 -195 0
-189 -196 0
-189 -197 0
-189 -198 0
-189 -199 0
-189 -200 0
-190 -191 0
-190 -192 0
-190 -193 0
-190 -194 0
-190 -195 0
-190 -196 0
-190 -197 0
-190 -198 0
-190 -199 0
-190 -200 0
-191 -192 0
-191 -193 0
-191 -194 0
-191 -195 0
-191 -196 0
-191 -197 0
-191 -198 0
-191 -199 0
-191 -200 0
-192 -193 0
-192 -194 0
-192 -195 0
-192 -196 0
-192 -197 0
-192 -198 0
-192 -199 0
-192 -200 0
-193 -194 0
-193 -195 0
-193 -196 0
-193 -197 0
-193 -198 0
-193 -199 0
-193 -200 0
-194 -195 0
-194 -196 0
-194 -197 0
-194 -198 0
-194 -199 0
-194 -200 0
-195 -196 0
-195 -197 0
-195 -198 0
-195 -199 0
-195 -200 0
-196 -197 0
-196 -198 0
-196 -199 0
-196 -200 0
-197 -198 0
-197 -199 0
-197 -200 0
-198 -199 0
-198 -200 0
-199 -200 0
201 202 203 204 205 206 207 208 209 210 211 212 213 214 215 216 217 218 219 220 221 222 223 224 225 0
-201 -202 0
-201 -203 0
-201 -204 0
-201 -205 0
-201 -206 0
-201 -207 0
-201 -208 0
-201 -209 0
-201 -210 0
-201 -211 0
-201 -212 0
-201 -213 0
-201 -214 0
-201 -215 0
-201 -216 0
-201 -217 0
-201 -218 0
-201 -219 0
-201 -220 0
-201 -221 0
-201 -222 0
-201 -223 0
-201 -224 0
-201 -225 0
-202 -203 0
-202 -204 0
-202 -205 0
-202 -206 0
-202 -207 0
-202 -208 0
-202 -209 0
-202 -210 0
-202 -211 0
-202 -212 0
-202 -213 0
-202 -214 0
-202 -215 0
-202 -216 0
-202 -217 0
-202 -218 0
-202 -219 0
-202 -220 0
-202 -221 0
-202 -222 0
-202 -223 0
-202 -224 0
-202 -225 0
-203 -204 0
-203 -205 0
-203 -206 0
-203 -207 0
-203 -208 0
-203 -209 0
-203 -210 0
-203 -211 0
-203 -212 0
-203 -213 0
-203 -214 0
-203 -215 0
-203 -216 0
-203 -217 0
-203 -218 0
-203 -219 0
-203 -220 0
-203 -221 0
-203 -222 0
-203 -223 0
-203 -224 0
-203 -225 0
-204 -205 0
-204 -206 0
-204 -207 0
-204 -208 0
-204 -209 0
-204 -210 0
-204 -211 0
-204 -212 0
-204 -213 0
-204 -214 0
-204 -215 0
-204 -216 0
-204 -217 0
-204 -218 0
-204 -219 0
-204 -220 0
-204 -221 0
-204 -222 0
-204 -223 0
-204 -224 0
-204 -225 0
-205 -206 0
-205 -207 0
-205 -208 0
-205 -209 0
-205 -210 0
-205 -211 0
-205 -212 0
-205 -213 0
-205 -214 0
-205 -215 0
-205 -216 0
-205 -217 0
-205 -218 0
-205 -219 0
-205 -220 0
-205 -221 0
-205 -222 0
-205 -223 0
-205 -224 0
-205 -225 0
-206 -207 0
-206 -208 0
-206 -209 0
-206 -210 0
-206 -211 0
-206 -212 0
-206 -213 0
-206 -214 0
-206 -215 0
-206 -216 0
-206 -217 0
-206 -218 0
-206 -219 0
-206 -220 0
-206 -221 0
-206 -222 0
-206 -223 0
-206 -224 0
-206 -225 0
-207 -208 0
-207 -209 0
-207 -210 0
-207 -211 0
-207 -212 0
-207 -213 0
-207 -214 0
-207 -215 0
-207 -216 0
-207 -217 0
-207 -218 0
-207 -219 0
-207 -220 0
-207 -221 0
-207 -222 0
-207 -223 0
-207 -224 0
-207 -225 0
-208 -209 0
-208 -210 0
-208 -211 0
-208 -212 0
-208 -213 0
-208 -214 0
-208 -215 0
-208 -216 0
-208 -217 0
-208 -218 0
-208 -219 0
-208 -220 0
-208 -221 0
-208 -222 0
-208 -223 0
-208 -224 0
-208 -225 0
-209 -210 0
-209 -211 0
-209 -212 0
-209 -213 0
-209 -214 0
-209 -215 0
-209 -216 0
-209 -217 0
-209 -218 0
-209 -219 0
-209 -220 0
-209 -221 0
-209 -222 0
-209 -223 0
-209 -224 0
-209 -225 0
-210 -211 0
-210 -212 0
-210 -213 0
-210 -214 0
-210 -215 0
-210 -216 0
-210 -217 0
-210 -218 0
-210 -219 0
-210 -220 0
-210 -221 0
-210 -222 0
-210 -223 0
-210 -224 0
-210 -225 0
-211 -212 0
-211 -213 0
-211 -214 0
-211 -215 0
-211 -216 0
-211 -217 0
-211 -218 0
-211 -219 0
-211 -220 0
-211 -221 0
-211 -222 0
-211 -223 0
-211 -224 0
-211 -225 0
-212 -213 0
-212 -214 0
-212 -215 0
-212 -216 0
-212 -217 0
-212 -218 0
-212 -219 0
-212 -220 0
-212 -221 0
-212 -222 0
-212 -223 0
-212 -224 0
-212 -225 0
-213 -214 0
-213 -215 0
-213 -216 0
-213 -217 0
-213 -218 0
-213 -219 0
-213 -220 0
-213 -221 0
-213 -222 0
-213 -223 0
-213 -224 0
-213 -225 0
-214 -215 0
-214 -216 0
-214 -217 0
-214 -218 0
-214 -219 0
-214 -220 0
-214 -221 0
-214 -222 0
-214 -223 0
-214 -224 0
-214 -225 0
-215 -216 0
-215 -217 0
-215 -218 0
-215 -219 0
-215 -220 0
-215 -221 0
-215 -222 0
-215 -223 0
-215 -224 0
-215 -225 0
-216 -217 0
-216 -218 0
-216 -219 0
-216 -220 0
-216 -221 0
-216 -222 0
-216 -223 0
-216 -224 0
-216 -225 0
-217 -218 0
-217 -219 0
-217 -220 0
-217 -221 0
-217 -222 0
-217 -223 0
-217 -224 0
-217 -225 0
-218 -219 0
-218 -220 0
-218 -221 0
-218 -222 0
-218 -223 0
-218 -224 0
-218 -225 0
-219 -220 0
-219 -221 0
-219 -222 0
-219 -223 0
-219 -224 0
-219 -225 0
-220 -221 0
-220 -222 0
-220 -223 0
-220 -224 0
-220 -225 0
-221 -222 0
-221 -223 0
-221 -224 0
-221 -225 0
-222 -223 0
-222 -224 0
-222 -225 0
-223 -224 0
-223 -225 0
-224 -225 0
226 227 228 229 230 231 232 233 234 235 236 237 238 239 240 241 242 243 244 245 246 247 248 249 250 0
-226 -227 0
-226 -228 0
-226 -229 0
-226 -230 0
-226 -231 0
-226 -232 0
-226 -233 0
-226 -234 0
-226 -235 0
-226 -236 0
-226 -237 0
-226 -238 0
-226 -239 0
-226 -240 0
-226 -241 0
-226 -242 0
-226 -243 0
-226 -244 0
-226 -245 0
-226 -246 0
-226 -247 0
-226 -248 0
-226 -249 0
-226 -250 0
-227 -228 0
-227 -229 0
-227 -230 0
-227 -231 0
-227 -232 0
-227 -233 0
-227 -234 0
-227 -235 0
-227 -236 0
-227 -237 0
-227 -238 0
-227 -239 0
-227 -240 0
-227 -241 0
-227 -242 0
-227 -243 0
-227 -244 0
-227 -245 0
-227 -246 0
-227 -247 0
-227 -248 0
-227 -249 0
-227 -250 0
-228 -229 0
-228 -230 0
-228 -231 0
-228 -232 0
-228 -233 0
-228 -234 0
-228 -235 0
-228 -236 0
-228 -237 0
-228 -238 0
-228 -239 0
-228 -240 0
-228 -241 0
-228 -242 0
-228 -243 0
-228 -244 0
-228 -245 0
-228 -246 0
-228 -247 0
-228 -248 0
-228 -249 0
-228 -250 0
-229 -230 0
-229 -231 0
-229 -232 0
-229 -233 0
-229 -234 0
-229 -235 0
-229 -236 0
-229 -237 0
-229 -238 0
-229 -239 0
-229 -240 0
-229 -241 0
-229 -242 0
-229 -243 0
-229 -244 0
-229 -245 0
-229 -246 0
-229 -247 0
-229 -248 0
-229 -249 0
-229 -250 0
-230 -231 0
-230 -232 0
-230 -233 0
-230 -234 0
-230 -235 0
-230 -236 0
-230 -237 0
-230 -238 0
-230 -239 0
-230 -240 0
-230 -241 0
-230 -242 0
-230 -243 0
-230 -244 0
-230 -245 0
-230 -246 0
-230 -247 0
-230 -248 0
-230 -249 0
-230 -250 0
-231 -232 0
-231 -233 0
-231 -234 0
-231 -235 0
-231 -236 0
-231 -237 0
-231 -238 0
-231 -239 0
-231 -240 0
-231 -241 0
-231 -242 0
-231 -243 0
-231 -244 0
-231 -245 0
-231 -246 0
-231 -247 0
-231 -248 0
-231 -249 0
-231 -250 0
-232 -233 0
-232 -234 0
-232 -235 0
-232 -236 0
-232 -237 0
-232 -238 0
-232 -239 0
-232 -240 0
-232 -241 0
-232 -242 0
-232 -243 0
-232 -244 0
-232 -245 0
-232 -246 0
-232 -247 0
-232 -248 0
-232 -249 0
-232 -250 0
-233 -234 0
-233 -235 0
-233 -236 0
-233 -237 0
-233 -238 0
-233 -239 0
-233 -240 0
-233 -241 0
-233 -242 0
-233 -243 0
-233 -244 0
-233 -245 0
-233 -246 0
-233 -247 0
-233 -248 0
-233 -249 0
-233 -250 0
-234 -235 0
-234 -236 0
-234 -237 0
-234 -238 0
-234 -239 0
-234 -240 0
-234 -241 0
-234 -242 0
-234 -243 0
-234 -244 0
-234 -245 0
-234 -246 0
-234 -247 0
-234 -248 0
-234 -249 0
-234 -250 0
-235 -236 0
-235 -237 0
-235 -238 0
-235 -239 0
-235 -240 0
-235 -241 0
-235 -242 0
-235 -243 0
-235 -244 0
-235 -245 0
-235 -246 0
-235 -247 0
-235 -248 0
-235 -249 0
-235 -250 0
-236 -237 0
-236 -238 0
-236 -239 0
-236 -240 0
-236 -241 0
-236 -242 0
-236 -243 0
-236 -244 0
-236 -245 0
-236 -246 0
-236 -247 0
-236 -248 0
-236 -249 0
-236 -250 0
-237 -238 0
-237 -239 0
-237 -240 0
-237 -241 0
-237 -242 0
-237 -243 0
-237 -244 0
-237 -245 0
-237 -246 0
-237 -247 0
-237 -248 0
-237 -249 0
-237 -250 0
-238 -239 0
-238 -240 0
-238 -241 0
-238 -242 0
-238 -243 0
-238 -244 0
-238 -245 0
-238 -246 0
-238 -247 0
-238 -248 0
-238 -249 0
-238 -250 0
-239 -240 0
-239 -241 0
-239 -242 0
-239 -243 0
-239 -244 0
-239 -245 0
-239 -246 0
-239 -247 0
-239 -248 0
-239 -249 0
-239 -250 0
-240 -241 0
-240 -242 0
-240 -243 0
-240 -244 0
-240 -245 0
-240 -246 0
-240 -247 0
-240 -248 0
-240 -249 0
-240 -250 0
-241 -242 0
-241 -243 0
-241 -244 0
-241 -245 0
-241 -246 0
-241 -247 0
-241 -248 0
-241 -249 0
-241 -250 0
-242 -243 0
-242 -244 0
-242 -245 0
-242 -246 0
-242 -247 0
-242 -248 0
-242 -249 0
-242 -250 0
-243 -244 0
-243 -245 0
-243 -246 0
-243 -247 0
-243 -248 0
-243 -249 0
-243 -250 0
-244 -245 0
-244 -246 0
-244 -247 0
-244 -248 0
-244 -249 0
-244 -250 0
-245 -246 0
-245 -247 0
-245 -248 0
-245 -249 0
-245 -250 0
-246 -247 0
-246 -248 0
-246 -249 0
-246 -250 0
-247 -248 0
-247 -249 0
-247 -250 0
-248 -249 0
-248 -250 0
-249 -250 0
251 252 253 254 255 256 257 258 259 260 261 262 263 264 265 266 267 268 269 270 271 272 273 274 275 0
-251 -252 0
-251 -253 0
-251 -254 0
-251 -255 0
-251 -256 0
-251 -257 0
-251 -258 0
-251 -259 0
-251 -260 0
-251 -261 0
-251 -262 0
-251 -263 0
-251 -264 0
-251 -265 0
-251 -266 0
-251 -267 0
-251 -268 0
-251 -269 0
-251 -270 0
-251 -271 0
-251 -272 0
-251 -273 0
-251 -274 0
-251 -275 0
-252 -253 0
-252 -254 0
-252 -255 0
-252 -256 0
-252 -257 0
-252 -258 0
-252 -259 0
-252 -260 0
-252 -261 0
-252 -262 0
-252 -263 0
-252 -264 0
-252 -265 0
-252 -266 0
-252 -267 0
-252 -268 0
-252 -269 0
-252 -270 0
-252 -271 0
-252 -272 0
-252 -273 0
-252 -274 0
-252 -275 0
-253 -254 0
-253 -255 0
-253 -256 0
-253 -257 0
-253 -258 0
-253 -259 0
-253 -260 0
-253 -261 0
-253 -262 0
-253 -263 0
-253 -264 0
-253 -265 0
-253 -266 0
-253 -267 0
-253 -268 0
-253 -269 0
-253 -270 0
-253 -271 0
-253 -272 0
-253 -273 0
-253 -274 0
-253 -275 0
-254 -255 0
-254 -256 0
-254 -257 0
-254 -258 0
-254 -259 0
-254 -260 0
-254 -261 0
-254 -262 0
-254 -263 0
-254 -264 0
-254 -265 0
-254 -266 0
-254 -267 0
-254 -268 0
-254 -269 0
-254 -270 0
-254 -271 0
-254 -272 0
-254 -273 0
-254 -274 0
-254 -275 0
-255 -256 0
-255 -257 0
-255 -258 0
-255 -259 0
-255 -260 0
-255 -261 0
-255 -262 0
-255 -263 0
-255 -264 0
-255 -265 0
-255 -266 0
-255 -267 0
-255 -268 0
-255 -269 0
-255 -270 0
-255 -271 0
-255 -272 0
-255 -273 0
-255 -274 0
-255 -275 0
-256 -257 0
-256 -258 0
-256 -259 0
-256 -260 0
-256 -261 0
-256 -262 0
-256 -263 0
-256 -264 0
-256 -265 0
-256 -266 0
-256 -267 0
-256 -268 0
-256 -269 0
-256 -270 0
-256 -271 0
-256 -272 0
-256 -273 0
-256 -274 0
-256 -275 0
-257 -258 0
-257 -259 0
-257 -260 0
-257 -261 0
-257 -262 0
-257 -263 0
-257 -264 0
-257 -265 0
-257 -266 0
-257 -267 0
-257 -268 0
-257 -269 0
-257 -270 0
-257 -271 0
-257 -272 0
-257 -273 0
-257 -274 0
-257 -275 0
-258 -259 0
-258 -260 0
-258 -261 0
-258 -262 0
-258 -263 0
-258 -264 0
-258 -265 0
-258 -266 0
-258 -267 0
-258 -268 0
-258 -269 0
-258 -270 0
-258 -271 0
-258 -272 0
-258 -273 0
-258 -274 0
-258 -275 0
-259 -260 0
-259 -261 0
-259 -262 0
-259 -263 0
-259 -264 0
-259 -265 0
-259 -266 0
-259 -267 0
-259 -268 0
-259 -269 0
-259 -270 0
-259 -271 0
-259 -272 0
-259 -273 0
-259 -274 0
-259 -275 0
-260 -261 0
-260 -262 0
-260 -263 0
-260 -264 0
-260 -265 0
-260 -266 0
-260 -267 0
-260 -268 0
-260 -269 0
-260 -270 0
-260 -271 0
-260 -272 0
-260 -273 0
-260 -274 0
-260 -275 0
-261 -262 0
-261 -263 0
-261 -264 0
-261 -265 0
-261 -266 0
-261 -267 0
-261 -268 0
-261 -269 0
-261 -270 0
-261 -271 0
-261 -272 0
-261 -273 0
-261 -274 0
-261 -275 0
-262 -263 0
-262 -264 0
-262 -265 0
-262 -266 0
-262 -267 0
-262 -268 0
-262 -269 0
-262 -270 0
-262 -271 0
-262 -272 0
-262 -273 0
-262 -274 0
-262 -275 0
-263 -264 0
-263 -265 0
-263 -266 0
-263 -267 0
-263 -268 0
-263 -269 0
-263 -270 0
-263 -271 0
-263 -272 0
-263 -273 0
-263 -274 0
-263 -275 0
-264 -265 0
-264 -266 0
-264 -267 0
-264 -268 0
-264 -269 0
-264 -270 0
-264 -271 0
-264 -272 0
-264 -273 0
-264 -274 0
-264 -275 0
-265 -266 0
-265 -267 0
-265 -268 0
-265 -269 0
-265 -270 0
-265 -271 0
-265 -272 0
-265 -273 0
-265 -274 0
-265 -275 0
-266 -267 0
-266 -268 0
-266 -269 0
-266 -270 0
-266 -271 0
-266 -272 0
-266 -273 0
-266 -274 0
-266 -275 0
-267 -268 0
-267 -269 0
-267 -270 0
-267 -271 0
-267 -272 0
-267 -273 0
-267 -274 0
-267 -275 0
-268 -269 0
-268 -270 0
-268 -271 0
-268 -272 0
-268 -273 0
-268 -274 0
-268 -275 0
-269 -270 0
-269 -271 0
-269 -272 0
-269 -273 0
-269 -274 0
-269 -275 0
-270 -271 0
-270 -272 0
-270 -273 0
-270 -274 0
-270 -275 0
-271 -272 0
-271 -273 0
-271 -274 0
-271 -275 0
-272 -273 0
-272 -274 0
-272 -275 0
-273 -274 0
-273 -275 0
-274 -275 0
276 277 278 279 280 281 282 283 284 285 286 287 288 289 290 291 292 293 294 295 296 297 298 299 300 0
-276 -277 0
-276 -278 0
-276 -279 0
-276 -280 0
-276 -281 0
-276 -282 0
-276 -283 0
-276 -284 0
-276 -285 0
-276 -286 0
-276 -287 0
-276 -288 0
-276 -289 0
-276 -290 0
-276 -291 0
-276 -292 0
-276 -293 0
-276 -294 0
-276 -295 0
-276 -296 0
-276 -297 0
-276 -298 0
-276 -299 0
-276 -300 0
-277 -278 0
-277 -279 0
-277 -280 0
-277 -281 0
-277 -282 0
-277 -283 0
-277 -284 0
-277 -285 0
-277 -286 0
-277 -287 0
-277 -288 0
-277 -289 0
-277 -290 0
-277 -291 0
-277 -292 0
-277 -293 0
-277 -294 0
-277 -295 0
-277 -296 0
-277 -297 0
-277 -298 0
-277 -299 0
-277 -300 0
-278 -279 0
-278 -280 0
-278 -281 0
-278 -282 0
-278 -283 0
-278 -284 0
-278 -285 0
-278 -286 0
-278 -287 0
-278 -288 0
-278 -289 0
-278 -290 0
-278 -291 0
-278 -292 0
-278 -293 0
-278 -294 0
-278 -295 0
-278 -296 0
-278 -297 0
-278 -298 0
-278 -299 0
-278 -300 0
-279 -280 0
-279 -281 0
-279 -282 0
-279 -283 0
-279 -284 0
-279 -285 0
-279 -286 0
-279 -287 0
-279 -288 0
-279 -289 0
-279 -290 0
-279 -291 0
-279 -292 0
-279 -293 0
-279 -294 0
-279 -295 0
-279 -296 0
-279 -297 0
-279 -298 0
-279 -299 0
-279 -300 0
-280 -281 0
-280 -282 0
-280 -283 0
-280 -284 0
-280 -285 0
-280 -286 0
-280 -287 0
-280 -288 0
-280 -289 0
-280 -290 0
-280 -291 0
-280 -292 0
-280 -293 0
-280 -294 0
-280 -295 0
-280 -296 0
-280 -297 0
-280 -298 0
-280 -299 0
-280 -300 0
-281 -282 0
-281 -283 0
-281 -284 0
-281 -285 0
-281 -286 0
-281 -287 0
-281 -288 0
-281 -289 0
-281 -290 0
-281 -291 0
-281 -292 0
-281 -293 0
-281 -294 0
-281 -295 0
-281 -296 0
-281 -297 0
-281 -298 0
-281 -299 0
-281 -300 0
-282 -283 0
-282 -284 0
-282 -285 0
-282 -286 0
-282 -287 0
-282 -288 0
-282 -289 0
-282 -290 0
-282 -291 0
-282 -292 0
-282 -293 0
-282 -294 0
-282 -295 0
-282 -296 0
-282 -297 0
-282 -298 0
-282 -299 0
-282 -300 0
-283 -284 0
-283 -285 0
-283 -286 0
-283 -287 0
-283 -288 0
-283 -289 0
-283 -290 0
-283 -291 0
-283 -292 0
-283 -293 0
-283 -294 0
-283 -295 0
-283 -296 0
-283 -297 0
-283 -298 0
-283 -299 0
-283 -300 0
-284 -285 0
-284 -286 0
-284 -287 0
-284 -288 0
-284 -289 0
-284 -290 0
-284 -291 0
-284 -292 0
-284 -293 0
-284 -294 0
-284 -295 0
-284 -296 0
-284 -297 0
-284 -298 0
-284 -299 0
-284 -300 0
-285 -286 0
-285 -287 0
-285 -288 0
-285 -289 0
-285 -290 0
-285 -291 0
-285 -292 0
-285 -293 0
-285 -294 0
-285 -295 0
-285 -296 0
-285 -297 0
-285 -298 0
-285 -299 0
-285 -300 0
-286 -287 0
-286 -288 0
-286 -289 0
-286 -290 0
-286 -291 0
-286 -292 0
-286 -293 0
-286 -294 0
-286 -295 0
-286 -296 0
-286 -297 0
-286 -298 0
-286 -299 0
-286 -300 0
-287 -288 0
-287 -289 0
-287 -290 0
-287 -291 0
-287 -292 0
-287 -293 0
-287 -294 0
-287 -295 0
-287 -296 0
-287 -297 0
-287 -298 0
-287 -299 0
-287 -300 0
-288 -289 0
-288 -290 0
-288 -291 0
-288 -292 0
-288 -293 0
-288 -294 0
-288 -295 0
-288 -296 0
-288 -297 0
-288 -298 0
-288 -299 0
-288 -300 0
-289 -290 0
-289 -291 0
-289 -292 0
-289 -293 0
-289 -294 0
-289 -295 0
-289 -296 0
-289 -297 0
-289 -298 0
-289 -299 0
-289 -300 0
-290 -291 0
-290 -292 0
-290 -293 0
-290 -294 0
-290 -295 0
-290 -296 0
-290 -297 0
-290 -298 0
-290 -299 0
-290 -300 0
-291 -292 0
-291 -293 0
-291 -294 0
-291 -295 0
-291 -296 0
-291 -297 0
-291 -298 0
-291 -299 0
-291 -300 0
-292 -293 0
-292 -294 0
-292 -295 0
-292 -296 0
-292 -297 0
-292 -298 0
-292 -299 0
-292 -300 0
-293 -294 0
-293 -295 0
-293 -296 0
-293 -297 0
-293 -298 0
-293 -299 0
-293 -300 0
-294 -295 0
-294 -296 0
-294 -297 0
-294 -298 0
-294 -299 0
-294 -300 0
-295 -296 0
-295 -297 0
-295 -298 0
-295 -299 0
-295 -300 0
-296 -297 0
-296 -298 0
-296 -299 0
-296 -300 0
-297 -298 0
-297 -299 0
-297 -300 0
-298 -299 0
-298 -300 0
-299 -300 0
301 302 303 304 305 306 307 308 309 310 311 312 313 314 315 316 317 318 319 320 321 322 323 324 325 0
-301 -302 0
-301 -303 0
-301 -304 0
-301 -305 0
-301 -306 0
-301 -307 0
-301 -308 0
-301 -309 0
-301 -310 0
-301 -311 0
-301 -312 0
-301 -313 0
-301 -314 0
-301 -315 0
-301 -316 0
-301 -317 0
-301 -318 0
-301 -319 0
-301 -320 0
-301 -321 0
-301 -322 0
-301 -323 0
-301 -324 0
-301 -325 0
-302 -303 0
-302 -304 0
-302 -305 0
-302 -306 0
-302 -307 0
-302 -308 0
-302 -309 0
-302 -310 0
-302 -311 0
-302 -312 0
-302 -313 0
-302 -314 0
-302 -315 0
-302 -316 0
-302 -317 0
-302 -318 0
-302 -319 0
-302 -320 0
-302 -321 0
-302 -322 0
-302 -323 0
-302 -324 0
-302 -325 0
-303 -304 0
-303 -305 0
-303 -306 0
-303 -307 0
-303 -308 0
-303 -309 0
-303 -310 0
-303 -311 0
-303 -312 0
-303 -313 0
-303 -314 0
-303 -315 0
-303 -316 0
-303 -317 0
-303 -318 0
-303 -319 0
-303 -320 0
-303 -321 0
-303 -322 0
-303 -323 0
-303 -324 0
-303 -325 0
-304 -305 0
-304 -306 0
-304 -307 0
-304 -308 0
-304 -309 0
-304 -310 0
-304 -311 0
-304 -312 0
-304 -313 0
-304 -314 0
-304 -315 0
-304 -316 0
-304 -317 0
-304 -318 0
-304 -319 0
-304 -320 0
-304 -321 0
-304 -322 0
-304 -323 0
-304 -324 0
-304 -325 0
-305 -306 0
-305 -307 0
-305 -308 0
-305 -309 0
-305 -310 0
-305 -311 0
-305 -312 0
-305 -313 0
-305 -314 0
-305 -315 0
-305 -316 0
-305 -317 0
-305 -318 0
-305 -319 0
-305 -320 0
-305 -321 0
-305 -322 0
-305 -323 0
-305 -324 0
-305 -325 0
-306 -307 0
-306 -308 0
-306 -309 0
-306 -310 0
-306 -311 0
-306 -312 0
-306 -313 0
-306 -314 0
-306 -315 0
-306 -316 0
-306 -317 0
-306 -318 0
-306 -319 0
-306 -320 0
-306 -321 0
-306 -322 0
-306 -323 0
-306 -324 0
-306 -325 0
-307 -308 0
-307 -309 0
-307 -310 0
-307 -311 0
-307 -312 0
-307 -313 0
-307 -314 0
-307 -315 0
-307 -316 0
-307 -317 0
-307 -318 0
-307 -319 0
-307 -320 0
-307 -321 0
-307 -322 0
-307 -323 0
-307 -324 0
-307 -325 0
-308 -309 0
-308 -310 0
-308 -311 0
-308 -312 0
-308 -313 0
-308 -314 0
-308 -315 0
-308 -316 0
-308 -317 0
-308 -318 0
-308 -319 0
-308 -320 0
-308 -321 0
-308 -322 0
-308 -323 0
-308 -324 0
-308 -325 0
-309 -310 0
-309 -311 0
-309 -312 0
-309 -313 0
-309 -314 0
-309 -315 0
-309 -316 0
-309 -317 0
-309 -318 0
-309 -319 0
-309 -320 0
-309 -321 0
-309 -322 0
-309 -323 0
-309 -324 0
-309 -325 0
-310 -311 0
-310 -312 0
-310 -313 0
-310 -314 0
-310 -315 0
-310 -316 0
-310 -317 0
-310 -318 0
-310 -319 0
-310 -320 0
-310 -321 0
-310 -322 0
-310 -323 0
-310 -324 0
-310 -325 0
-311 -312 0
-311 -313 0
-311 -314 0
-311 -315 0
-311 -316 0
-311 -317 0
-311 -318 0
-311 -319 0
-311 -320 0
-311 -321 0
-311 -322 0
-311 -323 0
-311 -324 0
-311 -325 0
-312 -313 0
-312 -314 0
-312 -315 0
-312 -316 0
-312 -317 0
-312 -318 0
-312 -319 0
-312 -320 0
-312 -321 0
-312 -322 0
-312 -323 0
-312 -324 0
-312 -325 0
-313 -314 0
-313 -315 0
-313 -316 0
-313 -317 0
-313 -318 0
-313 -319 0
-313 -320 0
-313 -321 0
-313 -322 0
-313 -323 0
-313 -324 0
-313 -325 0
-314 -315 0
-314 -316 0
-314 -317 0
-314 -318 0
-314 -319 0
-314 -320 0
-314 -321 0
-314 -322 0
-314 -323 0
-314 -324 0
-314 -325 0
-315 -316 0
-315 -317 0
-315 -318 0
-315 -319 0
-315 -320 0
-315 -321 0
-315 -322 0
-315 -323 0
-315 -324 0
-315 -325 0
-316 -317 0
-316 -318 0
-316 -319 0
-316 -320 0
-316 -321 0
-316 -322 0
-316 -323 0
-316 -324 0
-316 -325 0
-317 -318 0
-317 -319 0
-317 -320 0
-317 -321 0
-317 -322 0
-317 -323 0
-317 -324 0
-317 -325 0
-318 -319 0
-318 -320 0
-318 -321 0
-318 -322 0
-318 -323 0
-318 -324 0
-318 -325 0
-319 -320 0
-319 -321 0
-319 -322 0
-319 -323 0
-319 -324 0
-319 -325 0
-320 -321 0
-320 -322 0
-320 -323 0
-320 -324 0
-320 -325 0
-321 -322 0
-321 -323 0
-321 -324 0
-321 -325 0
-322 -323 0
-322 -324 0
-322 -325 0
-323 -324 0
-323 -325 0
-324 -325 0
326 327 328 329 330 331 332 333 334 335 336 337 338 339 340 341 342 343 344 345 346 347 348 349 350 0
-326 -327 0
-326 -328 0
-326 -329 0
-326 -330 0
-326 -331 0
-326 -332 0
-326 -333 0
-326 -334 0
-326 -335 0
-326 -336 0
-326 -337 0
-326 -338 0
-326 -339 0
-326 -340 0
-326 -341 0
-326 -342 0
-326 -343 0
-326 -344 0
-326 -345 0
-326 -346 0
-326 -347 0
-326 -348 0
-326 -349 0
-326 -350 0
-327 -328 0
-327 -329 0
-327 -330 0
-327 -331 0
-327 -332 0
-327 -333 0
-327 -334 0
-327 -335 0
-327 -336 0
-327 -337 0
-327 -338 0
-327 -339 0
-327 -340 0
-327 -341 0
-327 -342 0
-327 -343 0
-327 -344 0
-327 -345 0
-327 -346 0
-327 -347 0
-327 -348 0
-327 -349 0
-327 -350 0
-328 -329 0
-328 -330 0
-328 -331 0
-328 -332 0
-328 -333 0
-328 -334 0
-328 -335 0
-328 -336 0
-328 -337 0
-328 -338 0
-328 -339 0
-328 -340 0
-328 -341 0
-328 -342 0
-328 -343 0
-328 -344 0
-328 -345 0
-328 -346 0
-328 -347 0
-328 -348 0
-328 -349 0
-328 -350 0
-329 -330 0
-329 -331 0
-329 -332 0
-329 -333 0
-329 -334 0
-329 -335 0
-329 -336 0
-329 -337 0
-329 -338 0
-329 -339 0
-329 -340 0
-329 -341 0
-329 -342 0
-329 -343 0
-329 -344 0
-329 -345 0
-329 -346 0
-329 -347 0
-329 -348 0
-329 -349 0
-329 -350 0
-330 -331 0
-330 -332 0
-330 -333 0
-330 -334 0
-330 -335 0
-330 -336 0
-330 -337 0
-330 -338 0
-330 -339 0
-330 -340 0
-330 -341 0
-330 -342 0
-330 -343 0
-330 -344 0
-330 -345 0
-330 -346 0
-330 -347 0
-330 -348 0
-330 -349 0
-330 -350 0
-331 -332 0
-331 -333 0
-331 -334 0
-331 -335 0
-331 -336 0
-331 -337 0
-331 -338 0
-331 -339 0
-331 -340 0
-331 -341 0
-331 -342 0
-331 -343 0
-331 -344 0
-331 -345 0
-331 -346 0
-331 -347 0
-331 -348 0
-331 -349 0
-331 -350 0
-332 -333 0
-332 -334 0
-332 -335 0
-332 -336 0
-332 -337 0
-332 -338 0
-332 -339 0
-332 -340 0
-332 -341 0
-332 -342 0
-332 -343 0
-332 -344 0
-332 -345 0
-332 -346 0
-332 -347 0
-332 -348 0
-332 -349 0
-332 -350 0
-333 -334 0
-333 -335 0
-333 -336 0
-333 -337 0
-333 -338 0
-333 -339 0
-333 -340 0
-333 -341 0
-333 -342 0
-333 -343 0
-333 -344 0
-333 -345 0
-333 -346 0
-333 -347 0
-333 -348 0
-333 -349 0
-333 -350 0
-334 -335 0
-334 -336 0
-334 -337 0
-334 -338 0
-334 -339 0
-334 -340 0
-334 -341 0
-334 -342 0
-334 -343 0
-334 -344 0
-334 -345 0
-334 -346 0
-334 -347 0
-334 -348 0
-334 -349 0
-334 -350 0
-335 -336 0
-335 -337 0
-335 -338 0
-335 -339 0
-335 -340 0
-335 -341 0
-335 -342 0
-335 -343 0
-335 -344 0
-335 -345 0
-335 -346 0
-335 -347 0
-335 -348 0
-335 -349 0
-335 -350 0
-336 -337 0
-336 -338 0
-336 -339 0
-336 -340 0
-336 -341 0
-336 -342 0
-336 -343 0
-336 -344 0
-336 -345 0
-336 -346 0
-336 -347 0
-336 -348 0
-336 -349 0
-336 -350 0
-337 -338 0
-337 -339 0
-337 -340 0
-337 -341 0
-337 -342 0
-337 -343 0
-337 -344 0
-337 -345 0
-337 -346 0
-337 -347 0
-337 -348 0
-337 -349 0
-337 -350 0
-338 -339 0
-338 -340 0
-338 -341 0
-338 -342 0
-338 -343 0
-338 -344 0
-338 -345 0
-338 -346 0
-338 -347 0
-338 -348 0
-338 -349 0
-338 -350 0
-339 -340 0
-339 -341 0
-339 -342 0
-339 -343 0
-339 -344 0
-339 -345 0
-339 -346 0
-339 -347 0
-339 -348 0
-339 -349 0
-339 -350 0
-340 -341 0
-340 -342 0
-340 -343 0
-340 -344 0
-340 -345 0
-340 -346 0
-340 -347 0
-340 -348 0
-340 -349 0
-340 -350 0
-341 -342 0
-341 -343 0
-341 -344 0
-341 -345 0
-341 -346 0
-341 -347 0
-341 -348 0
-341 -349 0
-341 -350 0
-342 -343 0
-342 -344 0
-342 -345 0
-342 -346 0
-342 -347 0
-342 -348 0
-342 -349 0
-342 -350 0
-343 -344 0
-343 -345 0
-343 -346 0
-343 -347 0
-343 -348 0
-343 -349 0
-343 -350 0
-344 -345 0
-344 -346 0
-344 -347 0
-344 -348 0
-344 -349 0
-344 -350 0
-345 -346 0
-345 -347 0
-345 -348 0
-345 -349 0
-345 -350 0
-346 -347 0
-346 -348 0
-346 -349 0
-346 -350 0
-347 -348 0
-347 -349 0
-347 -350 0
-348 -349 0
-348 -350 0
-349 -350 0
351 352 353 354 355 356 357 358 359 360 361 362 363 364 365 366 367 368 369 370 371 372 373 374 375 0
-351 -352 0
-351 -353 0
-351 -354 0
-351 -355 0
-351 -356 0
-351 -357 0
-351 -358 0
-351 -359 0
-351 -360 0
-351 -361 0
-351 -362 0
-351 -363 0
-351 -364 0
-351 -365 0
-351 -366 0
-351 -367 0
-351 -368 0
-351 -369 0
-351 -370 0
-351 -371 0
-351 -372 0
-351 -373 0
-351 -374 0
-351 -375 0
-352 -353 0
-352 -354 0
-352 -355 0
-352 -356 0
-352 -357 0
-352 -358 0
-352 -359 0
-352 -360 0
-352 -361 0
-352 -362 0
-352 -363 0
-352 -364 0
-352 -365 0
-352 -366 0
-352 -367 0
-352 -368 0
-352 -369 0
-352 -370 0
-352 -371 0
-352 -372 0
-352 -373 0
-352 -374 0
-352 -375 0
-353 -354 0
-353 -355 0
-353 -356 0
-353 -357 0
-353 -358 0
-353 -359 0
-353 -360 0
-353 -361 0
-353 -362 0
-353 -363 0
-353 -364 0
-353 -365 0
-353 -366 0
-353 -367 0
-353 -368 0
-353 -369 0
-353 -370 0
-353 -371 0
-353 -372 0
-353 -373 0
-353 -374 0
-353 -375 0
-354 -355 0
-354 -356 0
-354 -357 0
-354 -358 0
-354 -359 0
-354 -360 0
-354 -361 0
-354 -362 0
-354 -363 0
-354 -364 0
-354 -365 0
-354 -366 0
-354 -367 0
-354 -368 0
-354 -369 0
-354 -370 0
-354 -371 0
-354 -372 0
-354 -373 0
-354 -374 0
-354 -375 0
-355 -356 0
-355 -357 0
-355 -358 0
-355 -359 0
-355 -360 0
-355 -361 0
-355 -362 0
-355 -363 0
-355 -364 0
-355 -365 0
-355 -366 0
-355 -367 0
-355 -368 0
-355 -369 0
-355 -370 0
-355 -371 0
-355 -372 0
-355 -373 0
-355 -374 0
-355 -375 0
-356 -357 0
-356 -358 0
-356 -359 0
-356 -360 0
-356 -361 0
-356 -362 0
-356 -363 0
-356 -364 0
-356 -365 0
-356 -366 0
-356 -367 0
-356 -368 0
-356 -369 0
-356 -370 0
-356 -371 0
-356 -372 0
-356 -373 0
-356 -374 0
-356 -375 0
-357 -358 0
-357 -359 0
-357 -360 0
-357 -361 0
-357 -362 0
-357 -363 0
-357 -364 0
-357 -365 0
-357 -366 0
-357 -367 0
-357 -368 0
-357 -369 0
-357 -370 0
-357 -371 0
-357 -372 0
-357 -373 0
-357 -374 0
-357 -375 0
-358 -359 0
-358 -360 0
-358 -361 0
-358 -362 0
-358 -363 0
-358 -364 0
-358 -365 0
-358 -366 0
-358 -367 0
-358 -368 0
-358 -369 0
-358 -370 0
-358 -371 0
-358 -372 0
-358 -373 0
-358 -374 0
-358 -375 0
-359 -360 0
-359 -361 0
-359 -362 0
-359 -363 0
-359 -364 0
-359 -365 0
-359 -366 0
-359 -367 0
-359 -368 0
-359 -369 0
-359 -370 0
-359 -371 0
-359 -372 0
-359 -373 0
-359 -374 0
-359 -375 0
-360 -361 0
-360 -362 0
-360 -363 0
-360 -364 0
-360 -365 0
-360 -366 0
-360 -367 0
-360 -368 0
-360 -369 0
-360 -370 0
-360 -371 0
-360 -372 0
-360 -373 0
-360 -374 0
-360 -375 0
-361 -362 0
-361 -363 0
-361 -364 0
-361 -365 0
-361 -366 0
-361 -367 0
-361 -368 0
-361 -369 0
-361 -370 0
-361 -371 0
-361 -372 0
-361 -373 0
-361 -374 0
-361 -375 0
-362 -363 0
-362 -364 0
-362 -365 0
-362 -366 0
-362 -367 0
-362 -368 0
-362 -369 0
-362 -370 0
-362 -371 0
-362 -372 0
-362 -373 0
-362 -374 0
-362 -375 0
-363 -364 0
-363 -365 0
-363 -366 0
-363 -367 0
-363 -368 0
-363 -369 0
-363 -370 0
-363 -371 0
-363 -372 0
-363 -373 0
-363 -374 0
-363 -375 0
-364 -365 0
-364 -366 0
-364 -367 0
-364 -368 0
-364 -369 0
-364 -370 0
-364 -371 0
-364 -372 0
-364 -373 0
-364 -374 0
-364 -375 0
-365 -366 0
-365 -367 0
-365 -368 0
-365 -369 0
-365 -370 0
-365 -371 0
-365 -372 0
-365 -373 0
-365 -374 0
-365 -375 0
-366 -367 0
-366 -368 0
-366 -369 0
-366 -370 0
-366 -371 0
-366 -372 0
-366 -373 0
-366 -374 0
-366 -375 0
-367 -368 0
-367 -369 0
-367 -370 0
-367 -371 0
-367 -372 0
-367 -373 0
-367 -374 0
-367 -375 0
-368 -369 0
-368 -370 0
-368 -371 0
-368 -372 0
-368 -373 0
-368 -374 0
-368 -375 0
-369 -370 0
-369 -371 0
-369 -372 0
-369 -373 0
-369 -374 0
-369 -375 0
-370 -371 0
-370 -372 0
-370 -373 0
-370 -374 0
-370 -375 0
-371 -372 0
-371 -373 0
-371 -374 0
-371 -375 0
-372 -373 0
-372 -374 0
-372 -375 0
-373 -374 0
-373 -375 0
-374 -375 0
376 377 378 379 380 381 382 383 384 385 386 387 388 389 390 391 392 393 394 395 396 397 398 399 400 0
-376 -377 0
-376 -378 0
-376 -379 0
-376 -380 0
-376 -381 0
-376 -382 0
-376 -383 0
-376 -384 0
-376 -385 0
-376 -386 0
-376 -387 0
-376 -388 0
-376 -389 0
-376 -390 0
-376 -391 0
-376 -392 0
-376 -393 0
-376 -394 0
-376 -395 0
-376 -396 0
-376 -397 0
-376 -398 0
-376 -399 0
-376 -400 0
-377 -378 0
-377 -379 0
-377 -380 0
-377 -381 0
-377 -382 0
-377 -383 0
-377 -384 0
-377 -385 0
-377 -386 0
-377 -387 0
-377 -388 0
-377 -389 0
-377 -390 0
-377 -391 0
-377 -392 0
-377 -393 0
-377 -394 0
-377 -395 0
-377 -396 0
-377 -397 0
-377 -398 0
-377 -399 0
-377 -400 0
-378 -379 0
-378 -380 0
-378 -381 0
-378 -382 0
-378 -383 0
-378 -384 0
-378 -385 0
-378 -386 0
-378 -387 0
-378 -388 0
-378 -389 0
-378 -390 0
-378 -391 0
-378 -392 0
-378 -393 0
-378 -394 0
-378 -395 0
-378 -396 0
-378 -397 0
-378 -398 0
-378 -399 0
-378 -400 0
-379 -380 0
-379 -381 0
-379 -382 0
-379 -383 0
-379 -384 0
-379 -385 0
-379 -386 0
-379 -387 0
-379 -388 0
-379 -389 0
-379 -390 0
-379 -391 0
-379 -392 0
-379 -393 0
-379 -394 0
-379 -395 0
-379 -396 0
-379 -397 0
-379 -398 0
-379 -399 0
-379 -400 0
-380 -381 0
-380 -382 0
-380 -383 0
-380 -384 0
-380 -385 0
-380 -386 0
-380 -387 0
-380 -388 0
-380 -389 0
-380 -390 0
-380 -391 0
-380 -392 0
-380 -393 0
-380 -394 0
-380 -395 0
-380 -396 0
-380 -397 0
-380 -398 0
-380 -399 0
-380 -400 0
-381 -382 0
-381 -383 0
-381 -384 0
-381 -385 0
-381 -386 0
-381 -387 0
-381 -388 0
-381 -389 0
-381 -390 0
-381 -391 0
-381 -392 0
-381 -393 0
-381 -394 0
-381 -395 0
-381 -396 0
-381 -397 0
-381 -398 0
-381 -399 0
-381 -400 0
-382 -383 0
-382 -384 0
-382 -385 0
-382 -386 0
-382 -387 0
-382 -388 0
-382 -389 0
-382 -390 0
-382 -391 0
-382 -392 0
-382 -393 0
-382 -394 0
-382 -395 0
-382 -396 0
-382 -397 0
-382 -398 0
-382 -399 0
-382 -400 0
-383 -384 0
-383 -385 0
-383 -386 0
-383 -387 0
-383 -388 0
-383 -389 0
-383 -390 0
-383 -391 0
-383 -392 0
-383 -393 0
-383 -394 0
-383 -395 0
-383 -396 0
-383 -397 0
-383 -398 0
-383 -399 0
-383 -400 0
-384 -385 0
-384 -386 0
-384 -387 0
-384 -388 0
-384 -389 0
-384 -390 0
-384 -391 0
-384 -392 0
-384 -393 0
-384 -394 0
-384 -395 0
-384 -396 0
-384 -397 0
-384 -398 0
-384 -399 0
-384 -400 0
-385 -386 0
-385 -387 0
-385 -388 0
-385 -389 0
-385 -390 0
-385 -391 0
-385 -392 0
-385 -393 0
-385 -394 0
-385 -395 0
-385 -396 0
-385 -397 0
-385 -398 0
-385 -399 0
-385 -400 0
-386 -387 0
-386 -388 0
-386 -389 0
-386 -390 0
-386 -391 0
-386 -392 0
-386 -393 0
-386 -394 0
-386 -395 0
-386 -396 0
-386 -397 0
-386 -398 0
-386 -399 0
-386 -400 0
-387 -388 0
-387 -389 0
-387 -390 0
-387 -391 0
-387 -392 0
-387 -393 0
-387 -394 0
-387 -395 0
-387 -396 0
-387 -397 0
-387 -398 0
-387 -399 0
-387 -400 0
-388 -389 0
-388 -390 0
-388 -391 0
-388 -392 0
-388 -393 0
-388 -394 0
-388 -395 0
-388 -396 0
-388 -397 0
-388 -398 0
-388 -399 0
-388 -400 0
-389 -390 0
-389 -391 0
-389 -392 0
-389 -393 0
-389 -394 0
-389 -395 0
-389 -396 0
-389 -397 0
-389 -398 0
-389 -399 0
-389 -400 0
-390 -391 0
-390 -392 0
-390 -393 0
-390 -394 0
-390 -395 0
-390 -396 0
-390 -397 0
-390 -398 0
-390 -399 0
-390 -400 0
-391 -392 0
-391 -393 0
-391 -394 0
-391 -395 0
-391 -396 0
-391 -397 0
-391 -398 0
-391 -399 0
-391 -400 0
-392 -393 0
-392 -394 0
-392 -395 0
-392 -396 0
-392 -397 0
-392 -398 0
-392 -399 0
-392 -400 0
-393 -394 0
-393 -395 0
-393 -396 0
-393 -397 0
-393 -398 0
-393 -399 0
-393 -400 0
-394 -395 0
-394 -396 0
-394 -397 0
-394 -398 0
-394 -399 0
-394 -400 0
-395 -396 0
-395 -397 0
-395 -398 0
-395 -399 0
-395 -400 0
-396 -397 0
-396 -398 0
-396 -399 0
-396 -400 0
-397 -398 0
-397 -399 0
-397 -400 0
-398 -399 0
-398 -400 0
-399 -400 0
401 402 403 404 405 406 407 408 409 410 411 412 413 414 415 416 417 418 419 420 421 422 423 424 425 0
-401 -402 0
-401 -403 0
-401 -404 0
-401 -405 0
-401 -406 0
-401 -407 0
-401 -408 0
-401 -409 0
-401 -410 0
-401 -411 0
-401 -412 0
-401 -413 0
-401 -414 0
-401 -415 0
-401 -416 0
-401 -417 0
-401 -418 0
-401 -419 0
-401 -420 0
-401 -421 0
-401 -422 0
-401 -423 0
-401 -424 0
-401 -425 0
-402 -403 0
-402 -404 0
-402 -405 0
-402 -406 0
-402 -407 0
-402 -408 0
-402 -409 0
-402 -410 0
-402 -411 0
-402 -412 0
-402 -413 0
-402 -414 0
-402 -415 0
-402 -416 0
-402 -417 0
-402 -418 0
-402 -419 0
-402 -420 0
-402 -421 0
-402 -422 0
-402 -423 0
-402 -424 0
-402 -425 0
-403 -404 0
-403 -405 0
-403 -406 0
-403 -407 0
-403 -408 0
-403 -409 0
-403 -410 0
-403 -411 0
-403 -412 0
-403 -413 0
-403 -414 0
-403 -415 0
-403 -416 0
-403 -417 0
-403 -418 0
-403 -419 0
-403 -420 0
-403 -421 0
-403 -422 0
-403 -423 0
-403 -424 0
-403 -425 0
-404 -405 0
-404 -406 0
-404 -407 0
-404 -408 0
-404 -409 0
-404 -410 0
-404 -411 0
-404 -412 0
-404 -413 0
-404 -414 0
-404 -415 0
-404 -416 0
-404 -417 0
-404 -418 0
-404 -419 0
-404 -420 0
-404 -421 0
-404 -422 0
-404 -423 0
-404 -424 0
-404 -425 0
-405 -406 0
-405 -407 0
-405 -408 0
-405 -409 0
-405 -410 0
-405 -411 0
-405 -412 0
-405 -413 0
-405 -414 0
-405 -415 0
-405 -416 0
-405 -417 0
-405 -418 0
-405 -419 0
-405 -420 0
-405 -421 0
-405 -422 0
-405 -423 0
-405 -424 0
-405 -425 0
-406 -407 0
-406 -408 0
-406 -409 0
-406 -410 0
-406 -411 0
-406 -412 0
-406 -413 0
-406 -414 0
-406 -415 0
-406 -416 0
-406 -417 0
-406 -418 0
-406 -419 0
-406 -420 0
-406 -421 0
-406 -422 0
-406 -423 0
-406 -424 0
-406 -425 0
-407 -408 0
-407 -409 0
-407 -410 0
-407 -411 0
-407 -412 0
-407 -413 0
-407 -414 0
-407 -415 0
-407 -416 0
-407 -417 0
-407 -418 0
-407 -419 0
-407 -420 0
-407 -421 0
-407 -422 0
-407 -423 0
-407 -424 0
-407 -425 0
-408 -409 0
-408 -410 0
-408 -411 0
-408 -412 0
-408 -413 0
-408 -414 0
-408 -415 0
-408 -416 0
-408 -417 0
-408 -418 0
-408 -419 0
-408 -420 0
-408 -421 0
-408 -422 0
-408 -423 0
-408 -424 0
-408 -425 0
-409 -410 0
-409 -411 0
-409 -412 0
-409 -413 0
-409 -414 0
-409 -415 0
-409 -416 0
-409 -417 0
-409 -418 0
-409 -419 0
-409 -420 0
-409 -421 0
-409 -422 0
-409 -423 0
-409 -424 0
-409 -425 0
-410 -411 0
-410 -412 0
-410 -413 0
-410 -414 0
-410 -415 0
-410 -416 0
-410 -417 0
-410 -418 0
-410 -419 0
-410 -420 0
-410 -421 0
-410 -422 0
-410 -423 0
-410 -424 0
-410 -425 0
-411 -412 0
-411 -413 0
-411 -414 0
-411 -415 0
-411 -416 0
-411 -417 0
-411 -418 0
-411 -419 0
-411 -420 0
-411 -421 0
-411 -422 0
-411 -423 0
-411 -424 0
-411 -425 0
-412 -413 0
-412 -414 0
-412 -415 0
-412 -416 0
-412 -417 0
-412 -418 0
-412 -419 0
-412 -420 0
-412 -421 0
-412 -422 0
-412 -423 0
-412 -424 0
-412 -425 0
-413 -414 0
-413 -415 0
-413 -416 0
-413 -417 0
-413 -418 0
-413 -419 0
-413 -420 0
-413 -421 0
-413 -422 0
-413 -423 0
-413 -424 0
-413 -425 0
-414 -415 0
-414 -416 0
-414 -417 0
-414 -418 0
-414 -419 0
-414 -420 0
-414 -421 0
-414 -422 0
-414 -423 0
-414 -424 0
-414 -425 0
-415 -416 0
-415 -417 0
-415 -418 0
-415 -419 0
-415 -420 0
-415 -421 0
-415 -422 0
-415 -423 0
-415 -424 0
-415 -425 0
-416 -417 0
-416 -418 0
-416 -419 0
-416 -420 0
-416 -421 0
-416 -422 0
-416 -423 0
-416 -424 0
-416 -425 0
-417 -418 0
-417 -419 0
-417 -420 0
-417 -421 0
-417 -422 0
-417 -423 0
-417 -424 0
-417 -425 0
-418 -419 0
-418 -420 0
-418 -421 0
-418 -422 0
-418 -423 0
-418 -424 0
-418 -425 0
-419 -420 0
-419 -421 0
-419 -422 0
-419 -423 0
-419 -424 0
-419 -425 0
-420 -421 0
-420 -422 0
-420 -423 0
-420 -424 0
-420 -425 0
-421 -422 0
-421 -423 0
-421 -424 0
-421 -425 0
-422 -423 0
-422 -424 0
-422 -425 0
-423 -424 0
-423 -425 0
-424 -425 0
426 427 428 429 430 431 432 433 434 435 436 437 438 439 440 441 442 443 444 445 446 447 448 449 450 0
-426 -427 0
-426 -428 0
-426 -429 0
-426 -430 0
-426 -431 0
-426 -432 0
-426 -433 0
-426 -434 0
-426 -435 0
-426 -436 0
-426 -437 0
-426 -438 0
-426 -439 0
-426 -440 0
-426 -441 0
-426 -442 0
-426 -443 0
-426 -444 0
-426 -445 0
-426 -446 0
-426 -447 0
-426 -448 0
-426 -449 0
-426 -450 0
-427 -428 0
-427 -429 0
-427 -430 0
-427 -431 0
-427 -432 0
-427 -433 0
-427 -434 0
-427 -435 0
-427 -436 0
-427 -437 0
-427 -438 0
-427 -439 0
-427 -440 0
-427 -441 0
-427 -442 0
-427 -443 0
-427 -444 0
-427 -445 0
-427 -446 0
-427 -447 0
-427 -448 0
-427 -449 0
-427 -450 0
-428 -429 0
-428 -430 0
-428 -431 0
-428 -432 0
-428 -433 0
-428 -434 0
-428 -435 0
-428 -436 0
-428 -437 0
-428 -438 0
-428 -439 0
-428 -440 0
-428 -441 0
-428 -442 0
-428 -443 0
-428 -444 0
-428 -445 0
-428 -446 0
-428 -447 0
-428 -448 0
-428 -449 0
-428 -450 0
-429 -430 0
-429 -431 0
-429 -432 0
-429 -433 0
-429 -434 0
-429 -435 0
-429 -436 0
-429 -437 0
-429 -438 0
-429 -439 0
-429 -440 0
-429 -441 0
-429 -442 0
-429 -443 0
-429 -444 0
-429 -445 0
-429 -446 0
-429 -447 0
-429 -448 0
-429 -449 0
-429 -450 0
-430 -431 0
-430 -432 0
-430 -433 0
-430 -434 0
-430 -435 0
-430 -436 0
-430 -437 0
-430 -438 0
-430 -439 0
-430 -440 0
-430 -441 0
-430 -442 0
-430 -443 0
-430 -444 0
-430 -445 0
-430 -446 0
-430 -447 0
-430 -448 0
-430 -449 0
-430 -450 0
-431 -432 0
-431 -433 0
-431 -434 0
-431 -435 0
-431 -436 0
-431 -437 0
-431 -438 0
-431 -439 0
-431 -440 0
-431 -441 0
-431 -442 0
-431 -443 0
-431 -444 0
-431 -445 0
-431 -446 0
-431 -447 0
-431 -448 0
-431 -449 0
-431 -450 0
-432 -433 0
-432 -434 0
-432 -435 0
-432 -436 0
-432 -437 0
-432 -438 0
-432 -439 0
-432 -440 0
-432 -441 0
-432 -442 0
-432 -443 0
-432 -444 0
-432 -445 0
-432 -446 0
-432 -447 0
-432 -448 0
-432 -449 0
-432 -450 0
-433 -434 0
-433 -435 0
-433 -436 0
-433 -437 0
-433 -438 0
-433 -439 0
-433 -440 0
-433 -441 0
-433 -442 0
-433 -443 0
-433 -444 0
-433 -445 0
-433 -446 0
-433 -447 0
-433 -448 0
-433 -449 0
-433 -450 0
-434 -435 0
-434 -436 0
-434 -437 0
-434 -438 0
-434 -439 0
-434 -440 0
-434 -441 0
-434 -442 0
-434 -443 0
-434 -444 0
-434 -445 0
-434 -446 0
-434 -447 0
-434 -448 0
-434 -449 0
-434 -450 0
-435 -436 0
-435 -437 0
-435 -438 0
-435 -439 0
-435 -440 0
-435 -441 0
-435 -442 0
-435 -443 0
-435 -444 0
-435 -445 0
-435 -446 0
-435 -447 0
-435 -448 0
-435 -449 0
-435 -450 0
-436 -437 0
-436 -438 0
-436 -439 0
-436 -440 0
-436 -441 0
-436 -442 0
-436 -443 0
-436 -444 0
-436 -445 0
-436 -446 0
-436 -447 0
-436 -448 0
-436 -449 0
-436 -450 0
-437 -438 0
-437 -439 0
-437 -440 0
-437 -441 0
-437 -442 0
-437 -443 0
-437 -444 0
-437 -445 0
-437 -446 0
-437 -447 0
-437 -448 0
-437 -449 0
-437 -450 0
-438 -439 0
-438 -440 0
-438 -441 0
-438 -442 0
-438 -443 0
-438 -444 0
-438 -445 0
-438 -446 0
-438 -447 0
-438 -448 0
-438 -449 0
-438 -450 0
-439 -440 0
-439 -441 0
-439 -442 0
-439 -443 0
-439 -444 0
-439 -445 0
-439 -446 0
-439 -447 0
-439 -448 0
-439 -449 0
-439 -450 0
-440 -441 0
-440 -442 0
-440 -443 0
-440 -444 0
-440 -445 0
-440 -446 0
-440 -447 0
-440 -448 0
-440 -449 0
-440 -450 0
-441 -442 0
-441 -443 0
-441 -444 0
-441 -445 0
-441 -446 0
-441 -447 0
-441 -448 0
-441 -449 0
-441 -450 0
-442 -443 0
-442 -444 0
-442 -445 0
-442 -446 0
-442 -447 0
-442 -448 0
-442 -449 0
-442 -450 0
-443 -444 0
-443 -445 0
-443 -446 0
-443 -447 0
-443 -448 0
-443 -449 0
-443 -450 0
-444 -445 0
-444 -446 0
-444 -447 0
-444 -448 0
-444 -449 0
-444 -450 0
-445 -446 0
-445 -447 0
-445 -448 0
-445 -449 0
-445 -450 0
-446 -447 0
-446 -448 0
-446 -449 0
-446 -450 0
-447 -448 0
-447 -449 0
-447 -450 0
-448 -449 0
-448 -450 0
-449 -450 0
451 452 453 454 455 456 457 458 459 460 461 462 463 464 465 466 467 468 469 470 471 472 473 474 475 0
-451 -452 0
-451 -453 0
-451 -454 0
-451 -455 0
-451 -456 0
-451 -457 0
-451 -458 0
-451 -459 0
-451 -460 0
-451 -461 0
-451 -462 0
-451 -463 0
-451 -464 0
-451 -465 0
-451 -466 0
-451 -467 0
-451 -468 0
-451 -469 0
-451 -470 0
-451 -471 0
-451 -472 0
-451 -473 0
-451 -474 0
-451 -475 0
-452 -453 0
-452 -454 0
-452 -455 0
-452 -456 0
-452 -457 0
-452 -458 0
-452 -459 0
-452 -460 0
-452 -461 0
-452 -462 0
-452 -463 0
-452 -464 0
-452 -465 0
-452 -466 0
-452 -467 0
-452 -468 0
-452 -469 0
-452 -470 0
-452 -471 0
-452 -472 0
-452 -473 0
-452 -474 0
-452 -475 0
-453 -454 0
-453 -455 0
-453 -456 0
-453 -457 0
-453 -458 0
-453 -459 0
-453 -460 0
-453 -461 0
-453 -462 0
-453 -463 0
-453 -464 0
-453 -465 0
-453 -466 0
-453 -467 0
-453 -468 0
-453 -469 0
-453 -470 0
-453 -471 0
-453 -472 0
-453 -473 0
-453 -474 0
-453 -475 0
-454 -455 0
-454 -456 0
-454 -457 0
-454 -458 0
-454 -459 0
-454 -460 0
-454 -461 0
-454 -462 0
-454 -463 0
-454 -464 0
-454 -465 0
-454 -466 0
-454 -467 0
-454 -468 0
-454 -469 0
-454 -470 0
-454 -471 0
-454 -472 0
-454 -473 0
-454 -474 0
-454 -475 0
-455 -456 0
-455 -457 0
-455 -458 0
-455 -459 0
-455 -460 0
-455 -461 0
-455 -462 0
-455 -463 0
-455 -464 0
-455 -465 0
-455 -466 0
-455 -467 0
-455 -468 0
-455 -469 0
-455 -470 0
-455 -471 0
-455 -472 0
-455 -473 0
-455 -474 0
-455 -475 0
-456 -457 0
-456 -458 0
-456 -459 0
-456 -460 0
-456 -461 0
-456 -462 0
-456 -463 0
-456 -464 0
-456 -465 0
-456 -466 0
-456 -467 0
-456 -468 0
-456 -469 0
-456 -470 0
-456 -471 0
-456 -472 0
-456 -473 0
-456 -474 0
-456 -475 0
-457 -458 0
-457 -459 0
-457 -460 0
-457 -461 0
-457 -462 0
-457 -463 0
-457 -464 0
-457 -465 0
-457 -466 0
-457 -467 0
-457 -468 0
-457 -469 0
-457 -470 0
-457 -471 0
-457 -472 0
-457 -473 0
-457 -474 0
-457 -475 0
-458 -459 0
-458 -460 0
-458 -461 0
-458 -462 0
-458 -463 0
-458 -464 0
-458 -465 0
-458 -466 0
-458 -467 0
-458 -468 0
-458 -469 0
-458 -470 0
-458 -471 0
-458 -472 0
-458 -473 0
-458 -474 0
-458 -475 0
-459 -460 0
-459 -461 0
-459 -462 0
-459 -463 0
-459 -464 0
-459 -465 0
-459 -466 0
-459 -467 0
-459 -468 0
-459 -469 0
-459 -470 0
-459 -471 0
-459 -472 0
-459 -473 0
-459 -474 0
-459 -475 0
-460 -461 0
-460 -462 0
-460 -463 0
-460 -464 0
-460 -465 0
-460 -466 0
-460 -467 0
-460 -468 0
-460 -469 0
-460 -470 0
-460 -471 0
-460 -472 0
-460 -473 0
-460 -474 0
-460 -475 0
-461 -462 0
-461 -463 0
-461 -464 0
-461 -465 0
-461 -466 0
-461 -467 0
-461 -468 0
-461 -469 0
-461 -470 0
-461 -471 0
-461 -472 0
-461 -473 0
-461 -474 0
-461 -475 0
-462 -463 0
-462 -464 0
-462 -465 0
-462 -466 0
-462 -467 0
-462 -468 0
-462 -469 0
-462 -470 0
-462 -471 0
-462 -472 0
-462 -473 0
-462 -474 0
-462 -475 0
-463 -464 0
-463 -465 0
-463 -466 0
-463 -467 0
-463 -468 0
-463 -469 0
-463 -470 0
-463 -471 0
-463 -472 0
-463 -473 0
-463 -474 0
-463 -475 0
-464 -465 0
-464 -466 0
-464 -467 0
-464 -468 0
-464 -469 0
-464 -470 0
-464 -471 0
-464 -472 0
-464 -473 0
-464 -474 0
-464 -475 0
-465 -466 0
-465 -467 0
-465 -468 0
-465 -469 0
-465 -470 0
-465 -471 0
-465 -472 0
-465 -473 0
-465 -474 0
-465 -475 0
-466 -467 0
-466 -468 0
-466 -469 0
-466 -470 0
-466 -471 0
-466 -472 0
-466 -473 0
-466 -474 0
-466 -475 0
-467 -468 0
-467 -469 0
-467 -470 0
-467 -471 0
-467 -472 0
-467 -473 0
-467 -474 0
-467 -475 0
-468 -469 0
-468 -470 0
-468 -471 0
-468 -472 0
-468 -473 0
-468 -474 0
-468 -475 0
-469 -470 0
-469 -471 0
-469 -472 0
-469 -473 0
-469 -474 0
-469 -475 0
-470 -471 0
-470 -472 0
-470 -473 0
-470 -474 0
-470 -475 0
-471 -472 0
-471 -473 0
-471 -474 0
-471 -475 0
-472 -473 0
-472 -474 0
-472 -475 0
-473 -474 0
-473 -475 0
-474 -475 0
476 477 478 479 480 481 482 483 484 485 486 487 488 489 490 491 492 493 494 495 496 497 498 499 500 0
-476 -477 0
-476 -478 0
-476 -479 0
-476 -480 0
-476 -481 0
-476 -482 0
-476 -483 0
-476 -484 0
-476 -485 0
-476 -486 0
-476 -487 0
-476 -488 0
-476 -489 0
-476 -490 0
-476 -491 0
-476 -492 0
-476 -493 0
-476 -494 0
-476 -495 0
-476 -496 0
-476 -497 0
-476 -498 0
-476 -499 0
-476 -500 0
-477 -478 0
-477 -479 0
-477 -480 0
-477 -481 0
-477 -482 0
-477 -483 0
-477 -484 0
-477 -485 0
-477 -486 0
-477 -487 0
-477 -488 0
-477 -489 0
-477 -490 0
-477 -491 0
-477 -492 0
-477 -493 0
-477 -494 0
-477 -495 0
-477 -496 0
-477 -497 0
-477 -498 0
-477 -499 0
-477 -500 0
-478 -479 0
-478 -480 0
-478 -481 0
-478 -482 0
-478 -483 0
-478 -484 0
-478 -485 0
-478 -486 0
-478 -487 0
-478 -488 0
-478 -489 0
-478 -490 0
-478 -491 0
-478 -492 0
-478 -493 0
-478 -494 0
-478 -495 0
-478 -496 0
-478 -497 0
-478 -498 0
-478 -499 0
-478 -500 0
-479 -480 0
-479 -481 0
-479 -482 0
-479 -483 0
-479 -484 0
-479 -485 0
-479 -486 0
-479 -487 0
-479 -488 0
-479 -489 0
-479 -490 0
-479 -491 0
-479 -492 0
-479 -493 0
-479 -494 0
-479 -495 0
-479 -496 0
-479 -497 0
-479 -498 0
-479 -499 0
-479 -500 0
-480 -481 0
-480 -482 0
-480 -483 0
-480 -484 0
-480 -485 0
-480 -486 0
-480 -487 0
-480 -488 0
-480 -489 0
-480 -490 0
-480 -491 0
-480 -492 0
-480 -493 0
-480 -494 0
-480 -495 0
-480 -496 0
-480 -497 0
-480 -498 0
-480 -499 0
-480 -500 0
-481 -482 0
-481 -483 0
-481 -484 0
-481 -485 0
-481 -486 0
-481 -487 0
-481 -488 0
-481 -489 0
-481 -490 0
-481 -491 0
-481 -492 0
-481 -493 0
-481 -494 0
-481 -495 0
-481 -496 0
-481 -497 0
-481 -498 0
-481 -499 0
-481 -500 0
-482 -483 0
-482 -484 0
-482 -485 0
-482 -486 0
-482 -487 0
-482 -488 0
-482 -489 0
-482 -490 0
-482 -491 0
-482 -492 0
-482 -493 0
-482 -494 0
-482 -495 0
-482 -496 0
-482 -497 0
-482 -498 0
-482 -499 0
-482 -500 0
-483 -484 0
-483 -485 0
-483 -486 0
-483 -487 0
-483 -488 0
-483 -489 0
-483 -490 0
-483 -491 0
-483 -492 0
-483 -493 0
-483 -494 0
-483 -495 0
-483 -496 0
-483 -497 0
-483 -498 0
-483 -499 0
-483 -500 0
-484 -485 0
-484 -486 0
-484 -487 0
-484 -488 0
-484 -489 0
-484 -490 0
-484 -491 0
-484 -492 0
-484 -493 0
-484 -494 0
-484 -495 0
-484 -496 0
-484 -497 0
-484 -498 0
-484 -499 0
-484 -500 0
-485 -486 0
-485 -487 0
-485 -488 0
-485 -489 0
-485 -490 0
-485 -491 0
-485 -492 0
-485 -493 0
-485 -494 0
-485 -495 0
-485 -496 0
-485 -497 0
-485 -498 0
-485 -499 0
-485 -500 0
-486 -487 0
-486 -488 0
-486 -489 0
-486 -490 0
-486 -491 0
-486 -492 0
-486 -493 0
-486 -494 0
-486 -495 0
-486 -496 0
-486 -497 0
-486 -498 0
-486 -499 0
-486 -500 0
-487 -488 0
-487 -489 0
-487 -490 0
-487 -491 0
-487 -492 0
-487 -493 0
-487 -494 0
-487 -495 0
-487 -496 0
-487 -497 0
-487 -498 0
-487 -499 0
-487 -500 0
-488 -489 0
-488 -490 0
-488 -491 0
-488 -492 0
-488 -493 0
-488 -494 0
-488 -495 0
-488 -496 0
-488 -497 0
-488 -498 0
-488 -499 0
-488 -500 0
-489 -490 0
-489 -491 0
-489 -492 0
-489 -493 0
-489 -494 0
-489 -495 0
-489 -496 0
-489 -497 0
-489 -498 0
-489 -499 0
-489 -500 0
-490 -491 0
-490 -492 0
-490 -493 0
-490 -494 0
-490 -495 0
-490 -496 0
-490 -497 0
-490 -498 0
-490 -499 0
-490 -500 0
-491 -492 0
-491 -493 0
-491 -494 0
-491 -495 0
-491 -496 0
-491 -497 0
-491 -498 0
-491 -499 0
-491 -500 0
-492 -493 0
-492 -494 0
-492 -495 0
-492 -496 0
-492 -497 0
-492 -498 0
-492 -499 0
-492 -500 0
-493 -494 0
-493 -495 0
-493 -496 0
-493 -497 0
-493 -498 0
-493 -499 0
-493 -500 0
-494 -495 0
-494 -496 0
-494 -497 0
-494 -498 0
-494 -499 0
-494 -500 0
-495 -496 0
-495 -497 0
-495 -498 0
-495 -499 0
-495 -500 0
-496 -497 0
-496 -498 0
-496 -499 0
-496 -500 0
-497 -498 0
-497 -499 0
-497 -500 0
-498 -499 0
-498 -500 0
-499 -500 0
501 502 503 504 505 506 507 508 509 510 511 512 513 514 515 516 517 518 519 520 521 522 523 524 525 0
-501 -502 0
-501 -503 0
-501 -504 0
-501 -505 0
-501 -506 0
-501 -507 0
-501 -508 0
-501 -509 0
-501 -510 0
-501 -511 0
-501 -512 0
-501 -513 0
-501 -514 0
-501 -515 0
-501 -516 0
-501 -517 0
-501 -518 0
-501 -519 0
-501 -520 0
-501 -521 0
-501 -522 0
-501 -523 0
-501 -524 0
-501 -525 0
-502 -503 0
-502 -504 0
-502 -505 0
-502 -506 0
-502 -507 0
-502 -508 0
-502 -509 0
-502 -510 0
-502 -511 0
-502 -512 0
-502 -513 0
-502 -514 0
-502 -515 0
-502 -516 0
-502 -517 0
-502 -518 0
-502 -519 0
-502 -520 0
-502 -521 0
-502 -522 0
-502 -523 0
-502 -524 0
-502 -525 0
-503 -504 0
-503 -505 0
-503 -506 0
-503 -507 0
-503 -508 0
-503 -509 0
-503 -510 0
-503 -511 0
-503 -512 0
-503 -513 0
-503 -514 0
-503 -515 0
-503 -516 0
-503 -517 0
-503 -518 0
-503 -519 0
-503 -520 0
-503 -521 0
-503 -522 0
-503 -523 0
-503 -524 0
-503 -525 0
-504 -505 0
-504 -506 0
-504 -507 0
-504 -508 0
-504 -509 0
-504 -510 0
-504 -511 0
-504 -512 0
-504 -513 0
-504 -514 0
-504 -515 0
-504 -516 0
-504 -517 0
-504 -518 0
-504 -519 0
-504 -520 0
-504 -521 0
-504 -522 0
-504 -523 0
-504 -524 0
-504 -525 0
-505 -506 0
-505 -507 0
-505 -508 0
-505 -509 0
-505 -510 0
-505 -511 0
-505 -512 0
-505 -513 0
-505 -514 0
-505 -515 0
-505 -516 0
-505 -517 0
-505 -518 0
-505 -519 0
-505 -520 0
-505 -521 0
-505 -522 0
-505 -523 0
-505 -524 0
-505 -525 0
-506 -507 0
-506 -508 0
-506 -509 0
-506 -510 0
-506 -511 0
-506 -512 0
-506 -513 0
-506 -514 0
-506 -515 0
-506 -516 0
-506 -517 0
-506 -518 0
-506 -519 0
-506 -520 0
-506 -521 0
-506 -522 0
-506 -523 0
-506 -524 0
-506 -525 0
-507 -508 0
-507 -509 0
-507 -510 0
-507 -511 0
-507 -512 0
-507 -513 0
-507 -514 0
-507 -515 0
-507 -516 0
-507 -517 0
-507 -518 0
-507 -519 0
-507 -520 0
-507 -521 0
-507 -522 0
-507 -523 0
-507 -524 0
-507 -525 0
-508 -509 0
-508 -510 0
-508 -511 0
-508 -512 0
-508 -513 0
-508 -514 0
-508 -515 0
-508 -516 0
-508 -517 0
-508 -518 0
-508 -519 0
-508 -520 0
-508 -521 0
-508 -522 0
-508 -523 0
-508 -524 0
-508 -525 0
-509 -510 0
-509 -511 0
-509 -512 0
-509 -513 0
-509 -514 0
-509 -515 0
-509 -516 0
-509 -517 0
-509 -518 0
-509 -519 0
-509 -520 0
-509 -521 0
-509 -522 0
-509 -523 0
-509 -524 0
-509 -525 0
-510 -511 0
-510 -512 0
-510 -513 0
-510 -514 0
-510 -515 0
-510 -516 0
-510 -517 0
-510 -518 0
-510 -519 0
-510 -520 0
-510 -521 0
-510 -522 0
-510 -523 0
-510 -524 0
-510 -525 0
-511 -512 0
-511 -513 0
-511 -514 0
-511 -515 0
-511 -516 0
-511 -517 0
-511 -518 0
-511 -519 0
-511 -520 0
-511 -521 0
-511 -522 0
-511 -523 0
-511 -524 0
-511 -525 0
-512 -513 0
-512 -514 0
-512 -515 0
-512 -516 0
-512 -517 0
-512 -518 0
-512 -519 0
-512 -520 0
-512 -521 0
-512 -522 0
-512 -523 0
-512 -524 0
-512 -525 0
-513 -514 0
-513 -515 0
-513 -516 0
-513 -517 0
-513 -518 0
-513 -519 0
-513 -520 0
-513 -521 0
-513 -522 0
-513 -523 0
-513 -524 0
-513 -525 0
-514 -515 0
-514 -516 0
-514 -517 0
-514 -518 0
-514 -519 0
-514 -520 0
-514 -521 0
-514 -522 0
-514 -523 0
-514 -524 0
-514 -525 0
-515 -516 0
-515 -517 0
-515 -518 0
-515 -519 0
-515 -520 0
-515 -521 0
-515 -522 0
-515 -523 0
-515 -524 0
-515 -525 0
-516 -517 0
-516 -518 0
-516 -519 0
-516 -520 0
-516 -521 0
-516 -522 0
-516 -523 0
-516 -524 0
-516 -525 0
-517 -518 0
-517 -519 0
-517 -520 0
-517 -521 0
-517 -522 0
-517 -523 0
-517 -524 0
-517 -525 0
-518 -519 0
-518 -520 0
-518 -521 0
-518 -522 0
-518 -523 0
-518 -524 0
-518 -525 0
-519 -520 0
-519 -521 0
-519 -522 0
-519 -523 0
-519 -524 0
-519 -525 0
-520 -521 0
-520 -522 0
-520 -523 0
-520 -524 0
-520 -525 0
-521 -522 0
-521 -523 0
-521 -524 0
-521 -525 0
-522 -523 0
-522 -524 0
-522 -525 0
-523 -524 0
-523 -525 0
-524 -525 0
526 527 528 529 530 531 532 533 534 535 536 537 538 539 540 541 542 543 544 545 546 547 548 549 550 0
-526 -527 0
-526 -528 0
-526 -529 0
-526 -530 0
-526 -531 0
-526 -532 0
-526 -533 0
-526 -534 0
-526 -535 0
-526 -536 0
-526 -537 0
-526 -538 0
-526 -539 0
-526 -540 0
-526 -541 0
-526 -542 0
-526 -543 0
-526 -544 0
-526 -545 0
-526 -546 0
-526 -547 0
-526 -548 0
-526 -549 0
-526 -550 0
-527 -528 0
-527 -529 0
-527 -530 0
-527 -531 0
-527 -532 0
-527 -533 0
-527 -534 0
-527 -535 0
-527 -536 0
-527 -537 0
-527 -538 0
-527 -539 0
-527 -540 0
-527 -541 0
-527 -542 0
-527 -543 0
-527 -544 0
-527 -545 0
-527 -546 0
-527 -547 0
-527 -548 0
-527 -549 0
-527 -550 0
-528 -529 0
-528 -530 0
-528 -531 0
-528 -532 0
-528 -533 0
-528 -534 0
-528 -535 0
-528 -536 0
-528 -537 0
-528 -538 0
-528 -539 0
-528 -540 0
-528 -541 0
-528 -542 0
-528 -543 0
-528 -544 0
-528 -545 0
-528 -546 0
-528 -547 0
-528 -548 0
-528 -549 0
-528 -550 0
-529 -530 0
-529 -531 0
-529 -532 0
-529 -533 0
-529 -534 0
-529 -535 0
-529 -536 0
-529 -537 0
-529 -538 0
-529 -539 0
-529 -540 0
-529 -541 0
-529 -542 0
-529 -543 0
-529 -544 0
-529 -545 0
-529 -546 0
-529 -547 0
-529 -548 0
-529 -549 0
-529 -550 0
-530 -531 0
-530 -532 0
-530 -533 0
-530 -534 0
-530 -535 0
-530 -536 0
-530 -537 0
-530 -538 0
-530 -539 0
-530 -540 0
-530 -541 0
-530 -542 0
-530 -543 0
-530 -544 0
-530 -545 0
-530 -546 0
-530 -547 0
-530 -548 0
-530 -549 0
-530 -550 0
-531 -532 0
-531 -533 0
-531 -534 0
-531 -535 0
-531 -536 0
-531 -537 0
-531 -538 0
-531 -539 0
-531 -540 0
-531 -541 0
-531 -542 0
-531 -543 0
-531 -544 0
-531 -545 0
-531 -546 0
-531 -547 0
-531 -548 0
-531 -549 0
-531 -550 0
-532 -533 0
-532 -534 0
-532 -535 0
-532 -536 0
-532 -537 0
-532 -538 0
-532 -539 0
-532 -540 0
-532 -541 0
-532 -542 0
-532 -543 0
-532 -544 0
-532 -545 0
-532 -546 0
-532 -547 0
-532 -548 0
-532 -549 0
-532 -550 0
-533 -534 0
-533 -535 0
-533 -536 0
-533 -537 0
-533 -538 0
-533 -539 0
-533 -540 0
-533 -541 0
-533 -542 0
-533 -543 0
-533 -544 0
-533 -545 0
-533 -546 0
-533 -547 0
-533 -548 0
-533 -549 0
-533 -550 0
-534 -535 0
-534 -536 0
-534 -537 0
-534 -538 0
-534 -539 0
-534 -540 0
-534 -541 0
-534 -542 0
-534 -543 0
-534 -544 0
-534 -545 0
-534 -546 0
-534 -547 0
-534 -548 0
-534 -549 0
-534 -550 0
-535 -536 0
-535 -537 0
-535 -538 0
-535 -539 0
-535 -540 0
-535 -541 0
-535 -542 0
-535 -543 0
-535 -544 0
-535 -545 0
-535 -546 0
-535 -547 0
-535 -548 0
-535 -549 0
-535 -550 0
-536 -537 0
-536 -538 0
-536 -539 0
-536 -540 0
-536 -541 0
-536 -542 0
-536 -543 0
-536 -544 0
-536 -545 0
-536 -546 0
-536 -547 0
-536 -548 0
-536 -549 0
-536 -550 0
-537 -538 0
-537 -539 0
-537 -540 0
-537 -541 0
-537 -542 0
-537 -543 0
-537 -544 0
-537 -545 0
-537 -546 0
-537 -547 0
-537 -548 0
-537 -549 0
-537 -550 0
-538 -539 0
-538 -540 0
-538 -541 0
-538 -542 0
-538 -543 0
-538 -544 0
-538 -545 0
-538 -546 0
-538 -547 0
-538 -548 0
-538 -549 0
-538 -550 0
-539 -540 0
-539 -541 0
-539 -542 0
-539 -543 0
-539 -544 0
-539 -545 0
-539 -546 0
-539 -547 0
-539 -548 0
-539 -549 0
-539 -550 0
-540 -541 0
-540 -542 0
-540 -543 0
-540 -544 0
-540 -545 0
-540 -546 0
-540 -547 0
-540 -548 0
-540 -549 0
-540 -550 0
-541 -542 0
-541 -543 0
-541 -544 0
-541 -545 0
-541 -546 0
-541 -547 0
-541 -548 0
-541 -549 0
-541 -550 0
-542 -543 0
-542 -544 0
-542 -545 0
-542 -546 0
-542 -547 0
-542 -548 0
-542 -549 0
-542 -550 0
-543 -544 0
-543 -545 0
-543 -546 0
-543 -547 0
-543 -548 0
-543 -549 0
-543 -550 0
-544 -545 0
-544 -546 0
-544 -547 0
-544 -548 0
-544 -549 0
-544 -550 0
-545 -546 0
-545 -547 0
-545 -548 0
-545 -549 0
-545 -550 0
-546 -547 0
-546 -548 0
-546 -549 0
-546 -550 0
-547 -548 0
-547 -549 0
-547 -550 0
-548 -549 0
-548 -550 0
-549 -550 0
551 552 553 554 555 556 557 558 559 560 561 562 563 564 565 566 567 568 569 570 571 572 573 574 575 0
-551 -552 0
-551 -553 0
-551 -554 0
-551 -555 0
-551 -556 0
-551 -557 0
-551 -558 0
-551 -559 0
-551 -560 0
-551 -561 0
-551 -562 0
-551 -563 0
-551 -564 0
-551 -565 0
-551 -566 0
-551 -567 0
-551 -568 0
-551 -569 0
-551 -570 0
-551 -571 0
-551 -572 0
-551 -573 0
-551 -574 0
-551 -575 0
-552 -553 0
-552 -554 0
-552 -555 0
-552 -556 0
-552 -557 0
-552 -558 0
-552 -559 0
-552 -560 0
-552 -561 0
-552 -562 0
-552 -563 0
-552 -564 0
-552 -565 0
-552 -566 0
-552 -567 0
-552 -568 0
-552 -569 0
-552 -570 0
-552 -571 0
-552 -572 0
-552 -573 0
-552 -574 0
-552 -575 0
-553 -554 0
-553 -555 0
-553 -556 0
-553 -557 0
-553 -558 0
-553 -559 0
-553 -560 0
-553 -561 0
-553 -562 0
-553 -563 0
-553 -564 0
-553 -565 0
-553 -566 0
-553 -567 0
-553 -568 0
-553 -569 0
-553 -570 0
-553 -571 0
-553 -572 0
-553 -573 0
-553 -574 0
-553 -575 0
-554 -555 0
-554 -556 0
-554 -557 0
-554 -558 0
-554 -559 0
-554 -560 0
-554 -561 0
-554 -562 0
-554 -563 0
-554 -564 0
-554 -565 0
-554 -566 0
-554 -567 0
-554 -568 0
-554 -569 0
-554 -570 0
-554 -571 0
-554 -572 0
-554 -573 0
-554 -574 0
-554 -575 0
-555 -556 0
-555 -557 0
-555 -558 0
-555 -559 0
-555 -560 0
-555 -561 0
-555 -562 0
-555 -563 0
-555 -564 0
-555 -565 0
-555 -566 0
-555 -567 0
-555 -568 0
-555 -569 0
-555 -570 0
-555 -571 0
-555 -572 0
-555 -573 0
-555 -574 0
-555 -575 0
-556 -557 0
-556 -558 0
-556 -559 0
-556 -560 0
-556 -561 0
-556 -562 0
-556 -563 0
-556 -564 0
-556 -565 0
-556 -566 0
-556 -567 0
-556 -568 0
-556 -569 0
-556 -570 0
-556 -571 0
-556 -572 0
-556 -573 0
-556 -574 0
-556 -575 0
-557 -558 0
-557 -559 0
-557 -560 0
-557 -561 0
-557 -562 0
-557 -563 0
-557 -564 0
-557 -565 0
-557 -566 0
-557 -567 0
-557 -568 0
-557 -569 0
-557 -570 0
-557 -571 0
-557 -572 0
-557 -573 0
-557 -574 0
-557 -575 0
-558 -559 0
-558 -560 0
-558 -561 0
-558 -562 0
-558 -563 0
-558 -564 0
-558 -565 0
-558 -566 0
-558 -567 0
-558 -568 0
-558 -569 0
-558 -570 0
-558 -571 0
-558 -572 0
-558 -573 0
-558 -574 0
-558 -575 0
-559 -560 0
-559 -561 0
-559 -562 0
-559 -563 0
-559 -564 0
-559 -565 0
-559 -566 0
-559 -567 0
-559 -568 0
-559 -569 0
-559 -570 0
-559 -571 0
-559 -572 0
-559 -573 0
-559 -574 0
-559 -575 0
-560 -561 0
-560 -562 0
-560 -563 0
-560 -564 0
-560 -565 0
-560 -566 0
-560 -567 0
-560 -568 0
-560 -569 0
-560 -570 0
-560 -571 0
-560 -572 0
-560 -573 0
-560 -574 0
-560 -575 0
-561 -562 0
-561 -563 0
-561 -564 0
-561 -565 0
-561 -566 0
-561 -567 0
-561 -568 0
-561 -569 0
-561 -570 0
-561 -571 0
-561 -572 0
-561 -573 0
-561 -574 0
-561 -575 0
-562 -563 0
-562 -564 0
-562 -565 0
-562 -566 0
-562 -567 0
-562 -568 0
-562 -569 0
-562 -570 0
-562 -571 0
-562 -572 0
-562 -573 0
-562 -574 0
-562 -575 0
-563 -564 0
-563 -565 0
-563 -566 0
-563 -567 0
-563 -568 0
-563 -569 0
-563 -570 0
-563 -571 0
-563 -572 0
-563 -573 0
-563 -574 0
-563 -575 0
-564 -565 0
-564 -566 0
-564 -567 0
-564 -568 0
-564 -569 0
-564 -570 0
-564 -571 0
-564 -572 0
-564 -573 0
-564 -574 0
-564 -575 0
-565 -566 0
-565 -567 0
-565 -568 0
-565 -569 0
-565 -570 0
-565 -571 0
-565 -572 0
-565 -573 0
-565 -574 0
-565 -575 0
-566 -567 0
-566 -568 0
-566 -569 0
-566 -570 0
-566 -571 0
-566 -572 0
-566 -573 0
-566 -574 0
-566 -575 0
-567 -568 0
-567 -569 0
-567 -570 0
-567 -571 0
-567 -572 0
-567 -573 0
-567 -574 0
-567 -575 0
-568 -569 0
-568 -570 0
-568 -571 0
-568 -572 0
-568 -573 0
-568 -574 0
-568 -575 0
-569 -570 0
-569 -571 0
-569 -572 0
-569 -573 0
-569 -574 0
-569 -575 0
-570 -571 0
-570 -572 0
-570 -573 0
-570 -574 0
-570 -575 0
-571 -572 0
-571 -573 0
-571 -574 0
-571 -575 0
-572 -573 0
-572 -574 0
-572 -575 0
-573 -574 0
-573 -575 0
-574 -575 0
576 577 578 579 580 581 582 583 584 585 586 587 588 589 590 591 592 593 594 595 596 597 598 599 600 0
-576 -577 0
-576 -578 0
-576 -579 0
-576 -580 0
-576 -581 0
-576 -582 0
-576 -583 0
-576 -584 0
-576 -585 0
-576 -586 0
-576 -587 0
-576 -588 0
-576 -589 0
-576 -590 0
-576 -591 0
-576 -592 0
-576 -593 0
-576 -594 0
-576 -595 0
-576 -596 0
-576 -597 0
-576 -598 0
-576 -599 0
-576 -600 0
-577 -578 0
-577 -579 0
-577 -580 0
-577 -581 0
-577 -582 0
-577 -583 0
-577 -584 0
-577 -585 0
-577 -586 0
-577 -587 0
-577 -588 0
-577 -589 0
-577 -590 0
-577 -591 0
-577 -592 0
-577 -593 0
-577 -594 0
-577 -595 0
-577 -596 0
-577 -597 0
-577 -598 0
-577 -599 0
-577 -600 0
-578 -579 0
-578 -580 0
-578 -581 0
-578 -582 0
-578 -583 0
-578 -584 0
-578 -585 0
-578 -586 0
-578 -587 0
-578 -588 0
-578 -589 0
-578 -590 0
-578 -591 0
-578 -592 0
-578 -593 0
-578 -594 0
-578 -595 0
-578 -596 0
-578 -597 0
-578 -598 0
-578 -599 0
-578 -600 0
-579 -580 0
-579 -581 0
-579 -582 0
-579 -583 0
-579 -584 0
-579 -585 0
-579 -586 0
-579 -587 0
-579 -588 0
-579 -589 0
-579 -590 0
-579 -591 0
-579 -592 0
-579 -593 0
-579 -594 0
-579 -595 0
-579 -596 0
-579 -597 0
-579 -598 0
-579 -599 0
-579 -600 0
-580 -581 0
-580 -582 0
-580 -583 0
-580 -584 0
-580 -585 0
-580 -586 0
-580 -587 0
-580 -588 0
-580 -589 0
-580 -590 0
-580 -591 0
-580 -592 0
-580 -593 0
-580 -594 0
-580 -595 0
-580 -596 0
-580 -597 0
-580 -598 0
-580 -599 0
-580 -600 0
-581 -582 0
-581 -583 0
-581 -584 0
-581 -585 0
-581 -586 0
-581 -587 0
-581 -588 0
-581 -589 0
-581 -590 0
-581 -591 0
-581 -592 0
-581 -593 0
-581 -594 0
-581 -595 0
-581 -596 0
-581 -597 0
-581 -598 0
-581 -599 0
-581 -600 0
-582 -583 0
-582 -584 0
-582 -585 0
-582 -586 0
-582 -587 0
-582 -588 0
-582 -589 0
-582 -590 0
-582 -591 0
-582 -592 0
-582 -593 0
-582 -594 0
-582 -595 0
-582 -596 0
-582 -597 0
-582 -598 0
-582 -599 0
-582 -600 0
-583 -584 0
-583 -585 0
-583 -586 0
-583 -587 0
-583 -588 0
-583 -589 0
-583 -590 0
-583 -591 0
-583 -592 0
-583 -593 0
-583 -594 0
-583 -595 0
-583 -596 0
-583 -597 0
-583 -598 0
-583 -599 0
-583 -600 0
-584 -585 0
-584 -586 0
-584 -587 0
-584 -588 0
-584 -589 0
-584 -590 0
-584 -591 0
-584 -592 0
-584 -593 0
-584 -594 0
-584 -595 0
-584 -596 0
-584 -597 0
-584 -598 0
-584 -599 0
-584 -600 0
-585 -586 0
-585 -587 0
-585 -588 0
-585 -589 0
-585 -590 0
-585 -591 0
-585 -592 0
-585 -593 0
-585 -594 0
-585 -595 0
-585 -596 0
-585 -597 0
-585 -598 0
-585 -599 0
-585 -600 0
-586 -587 0
-586 -588 0
-586 -589 0
-586 -590 0
-586 -591 0
-586 -592 0
-586 -593 0
-586 -594 0
-586 -595 0
-586 -596 0
-586 -597 0
-586 -598 0
-586 -599 0
-586 -600 0
-587 -588 0
-587 -589 0
-587 -590 0
-587 -591 0
-587 -592 0
-587 -593 0
-587 -594 0
-587 -595 0
-587 -596 0
-587 -597 0
-587 -598 0
-587 -599 0
-587 -600 0
-588 -589 0
-588 -590 0
-588 -591 0
-588 -592 0
-588 -593 0
-588 -594 0
-588 -595 0
-588 -596 0
-588 -597 0
-588 -598 0
-588 -599 0
-588 -600 0
-589 -590 0
-589 -591 0
-589 -592 0
-589 -593 0
-589 -594 0
-589 -595 0
-589 -596 0
-589 -597 0
-589 -598 0
-589 -599 0
-589 -600 0
-590 -591 0
-590 -592 0
-590 -593 0
-590 -594 0
-590 -595 0
-590 -596 0
-590 -597 0
-590 -598 0
-590 -599 0
-590 -600 0
-591 -592 0
-591 -593 0
-591 -594 0
-591 -595 0
-591 -596 0
-591 -597 0
-591 -598 0
-591 -599 0
-591 -600 0
-592 -593 0
-592 -594 0
-592 -595 0
-592 -596 0
-592 -597 0
-592 -598 0
-592 -599 0
-592 -600 0
-593 -594 0
-593 -595 0
-593 -596 0
-593 -597 0
-593 -598 0
-593 -599 0
-593 -600 0
-594 -595 0
-594 -596 0
-594 -597 0
-594 -598 0
-594 -599 0
-594 -600 0
-595 -596 0
-595 -597 0
-595 -598 0
-595 -599 0
-595 -600 0
-596 -597 0
-596 -598 0
-596 -599 0
-596 -600 0
-597 -598 0
-597 -599 0
-597 -600 0
-598 -599 0
-598 -600 0
-599 -600 0
601 602 603 604 605 606 607 608 609 610 611 612 613 614 615 616 617 618 619 620 621 622 623 624 625 0
-601 -602 0
-601 -603 0
-601 -604 0
-601 -605 0
-601 -606 0
-601 -607 0
-601 -608 0
-601 -609 0
-601 -610 0
-601 -611 0
-601 -612 0
-601 -613 0
-601 -614 0
-601 -615 0
-601 -616 0
-601 -617 0
-601 -618 0
-601 -619 0
-601 -620 0
-601 -621 0
-601 -622 0
-601 -623 0
-601 -624 0
-601 -625 0
-602 -603 0
-602 -604 0
-602 -605 0
-602 -606 0
-602 -607 0
-602 -608 0
-602 -609 0
-602 -610 0
-602 -611 0
-602 -612 0
-602 -613 0
-602 -614 0
-602 -615 0
-602 -616 0
-602 -617 0
-602 -618 0
-602 -619 0
-602 -620 0
-602 -621 0
-602 -622 0
-602 -623 0
-602 -624 0
-602 -625 0
-603 -604 0
-603 -605 0
-603 -606 0
-603 -607 0
-603 -608 0
-603 -609 0
-603 -610 0
-603 -611 0
-603 -612 0
-603 -613 0
-603 -614 0
-603 -615 0
-603 -616 0
-603 -617 0
-603 -618 0
-603 -619 0
-603 -620 0
-603 -621 0
-603 -622 0
-603 -623 0
-603 -624 0
-603 -625 0
-604 -605 0
-604 -606 0
-604 -607 0
-604 -608 0
-604 -609 0
-604 -610 0
-604 -611 0
-604 -612 0
-604 -613 0
-604 -614 0
-604 -615 0
-604 -616 0
-604 -617 0
-604 -618 0
-604 -619 0
-604 -620 0
-604 -621 0
-604 -622 0
-604 -623 0
-604 -624 0
-604 -625 0
-605 -606 0
-605 -607 0
-605 -608 0
-605 -609 0
-605 -610 0
-605 -611 0
-605 -612 0
-605 -613 0
-605 -614 0
-605 -615 0
-605 -616 0
-605 -617 0
-605 -618 0
-605 -619 0
-605 -620 0
-605 -621 0
-605 -622 0
-605 -623 0
-605 -624 0
-605 -625 0
-606 -607 0
-606 -608 0
-606 -609 0
-606 -610 0
-606 -611 0
-606 -612 0
-606 -613 0
-606 -614 0
-606 -615 0
-606 -616 0
-606 -617 0
-606 -618 0
-606 -619 0
-606 -620 0
-606 -621 0
-606 -622 0
-606 -623 0
-606 -624 0
-606 -625 0
-607 -608 0
-607 -609 0
-607 -610 0
-607 -611 0
-607 -612 0
-607 -613 0
-607 -614 0
-607 -615 0
-607 -616 0
-607 -617 0
-607 -618 0
-607 -619 0
-607 -620 0
-607 -621 0
-607 -622 0
-607 -623 0
-607 -624 0
-607 -625 0
-608 -609 0
-608 -610 0
-608 -611 0
-608 -612 0
-608 -613 0
-608 -614 0
-608 -615 0
-608 -616 0
-608 -617 0
-608 -618 0
-608 -619 0
-608 -620 0
-608 -621 0
-608 -622 0
-608 -623 0
-608 -624 0
-608 -625 0
-609 -610 0
-609 -611 0
-609 -612 0
-609 -613 0
-609 -614 0
-609 -615 0
-609 -616 0
-609 -617 0
-609 -618 0
-609 -619 0
-609 -620 0
-609 -621 0
-609 -622 0
-609 -623 0
-609 -624 0
-609 -625 0
-610 -611 0
-610 -612 0
-610 -613 0
-610 -614 0
-610 -615 0
-610 -616 0
-610 -617 0
-610 -618 0
-610 -619 0
-610 -620 0
-610 -621 0
-610 -622 0
-610 -623 0
-610 -624 0
-610 -625 0
-611 -612 0
-611 -613 0
-611 -614 0
-611 -615 0
-611 -616 0
-611 -617 0
-611 -618 0
-611 -619 0
-611 -620 0
-611 -621 0
-611 -622 0
-611 -623 0
-611 -624 0
-611 -625 0
-612 -613 0
-612 -614 0
-612 -615 0
-612 -616 0
-612 -617 0
-612 -618 0
-612 -619 0
-612 -620 0
-612 -621 0
-612 -622 0
-612 -623 0
-612 -624 0
-612 -625 0
-613 -614 0
-613 -615 0
-613 -616 0
-613 -617 0
-613 -618 0
-613 -619 0
-613 -620 0
-613 -621 0
-613 -622 0
-613 -623 0
-613 -624 0
-613 -625 0
-614 -615 0
-614 -616 0
-614 -617 0
-614 -618 0
-614 -619 0
-614 -620 0
-614 -621 0
-614 -622 0
-614 -623 0
-614 -624 0
-614 -625 0
-615 -616 0
-615 -617 0
-615 -618 0
-615 -619 0
-615 -620 0
-615 -621 0
-615 -622 0
-615 -623 0
-615 -624 0
-615 -625 0
-616 -617 0
-616 -618 0
-616 -619 0
-616 -620 0
-616 -621 0
-616 -622 0
-616 -623 0
-616 -624 0
-616 -625 0
-617 -618 0
-617 -619 0
-617 -620 0
-617 -621 0
-617 -622 0
-617 -623 0
-617 -624 0
-617 -625 0
-618 -619 0
-618 -620 0
-618 -621 0
-618 -622 0
-618 -623 0
-618 -624 0
-618 -625 0
-619 -620 0
-619 -621 0
-619 -622 0
-619 -623 0
-619 -624 0
-619 -625 0
-620 -621 0
-620 -622 0
-620 -623 0
-620 -624 0
-620 -625 0
-621 -622 0
-621 -623 0
-621 -624 0
-621 -625 0
-622 -623 0
-622 -624 0
-622 -625 0
-623 -624 0
-623 -625 0
-624 -625 0
1 2 3 4 5 26 27 28 29 30 51 52 53 54 55 76 77 78 79 80 101 102 103 104 105 0
-1 -2 0
-1 -3 0
-1 -4 0
-1 -5 0
-1 -26 0
-1 -27 0
-1 -28 0
-1 -29 0
-1 -30 0
-1 -51 0
-1 -52 0
-1 -53 0
-1 -54 0
-1 -55 0
-1 -76 0
-1 -77 0
-1 -78 0
-1 -79 0
-1 -80 0
-1 -101 0
-1 -102 0
-1 -103 0
-1 -104 0
-1 -105 0
-2 -3 0
-2 -4 0
-2 -5 0
-2 -26 0
-2 -27 0
-2 -28 0
-2 -29 0
-2 -30 0
-2 -51 0
-2 -52 0
-2 -53 0
-2 -54 0
-2 -55 0
-2 -76 0
-2 -77 0
-2 -78 0
-2 -79 0
-2 -80 0
-2 -101 0
-2 -102 0
-2 -103 0
-2 -104 0
-2 -105 0
-3 -4 0
-3 -5 0
-3 -26 0
-3 -27 0
-3 -28 0
-3 -29 0
-3 -30 0
-3 -51 0
-3 -52 0
-3 -53 0
-3 -54 0
-3 -55 0
-3 -76 0
-3 -77 0
-3 -78 0
-3 -79 0
-3 -80 0
-3 -101 0
-3 -102 0
-3 -103 0
-3 -104 0
-3 -105 0
-4 -5 0
-4 -26 0
-4 -27 0
-4 -28 0
-4 -29 0
-4 -30 0
-4 -51 0
-4 -52 0
-4 -53 0
-4 -54 0
-4 -55 0
-4 -76 0
-4 -77 0
-4 -78 0
-4 -79 0
-4 -80 0
-4 -101 0
-4 -102 0
-4 -103 0
-4 -104 0
-4 -105 0
-5 -26 0
-5 -27 0
-5 -28 0
-5 -29 0
-5 -30 0
-5 -51 0
-5 -52 0
-5 -53 0
-5 -54 0
-5 -55 0
-5 -76 0
-5 -77 0
-5 -78 0
-5 -79 0
-5 -80 0
-5 -101 0
-5 -102 0
-5 -103 0
-5 -104 0
-5 -105 0
-26 -27 0
-26 -28 0
-26 -29 0
-26 -30 0
-26 -51 0
-26 -52 0
-26 -53 0
-26 -54 0
-26 -55 0
-26 -76 0
-26 -77 0
-26 -78 0
-26 -79 0
-26 -80 0
-26 -101 0
-26 -102 0
-26 -103 0
-26 -104 0
-26 -105 0
-27 -28 0
-27 -29 0
-27 -30 0
-27 -51 0
-27 -52 0
-27 -53 0
-27 -54 0
-27 -55 0
-27 -76 0
-27 -77 0
-27 -78 0
-27 -79 0
-27 -80 0
-27 -101 0
-27 -102 0
-27 -103 0
-27 -104 0
-27 -105 0
-28 -29 0
-28 -30 0
-28 -51 0
-28 -52 0
-28 -53 0
-28 -54 0
-28 -55 0
-28 -76 0
-28 -77 0
-28 -78 0
-28 -79 0
-28 -80 0
-28 -101 0
-28 -102 0
-28 -103 0
-28 -104 0
-28 -105 0
-29 -30 0
-29 -51 0
-29 -52 0
-29 -53 0
-29 -54 0
-29 -55 0
-29 -76 0
-29 -77 0
-29 -78 0
-29 -79 0
-29 -80 0
-29 -101 0
-29 -102 0
-29 -103 0
-29 -104 0
-29 -105 0
-30 -51 0
-30 -52 0
-30 -53 0
-30 -54 0
-30 -55 0
-30 -76 0
-30 -77 0
-30 -78 0
-30 -79 0
-30 -80 0
-30 -101 0
-30 -102 0
-30 -103 0
-30 -104 0
-30 -105 0
-51 -52 0
-51 -53 0
-51 -54 0
-51 -55 0
-51 -76 0
-51 -77 0
-51 -78 0
-51 -79 0
-51 -80 0
-51 -101 0
-51 -102 0
-51 -103 0
-51 -104 0
-51 -105 0
-52 -53 0
-52 -54 0
-52 -55 0
-52 -76 0
-52 -77 0
-52 -78 0
-52 -79 0
-52 -80 0
-52 -101 0
-52 -102 0
-52 -103 0
-52 -104 0
-52 -105 0
-53 -54 0
-53 -55 0
-53 -76 0
-53 -77 0
-53 -78 0
-53 -79 0
-53 -80 0
-53 -101 0
-53 -102 0
-53 -103 0
-53 -104 0
-53 -105 0
-54 -55 0
-54 -76 0
-54 -77 0
-54 -78 0
-54 -79 0
-54 -80 0
-54 -101 0
-54 -102 0
-54 -103 0
-54 -104 0
-54 -105 0
-55 -76 0
-55 -77 0
-55 -78 0
-55 -79 0
-55 -80 0
-55 -101 0
-55 -102 0
-55 -103 0
-55 -104 0
-55 -105 0
-76 -77 0
-76 -78 0
-76 -79 0
-76 -80 0
-76 -101 0
-76 -102 0
-76 -103 0
-76 -104 0
-76 -105 0
-77 -78 0
-77 -79 0
-77 -80 0
-77 -101 0
-77 -102 0
-77 -103 0
-77 -104 0
-77 -105 0
-78 -79 0
-78 -80 0
-78 -101 0
-78 -102 0
-78 -103 0
-78 -104 0
-78 -105 0
-79 -80 0
-79 -101 0
-79 -102 0
-79 -103 0
-79 -104 0
-79 -105 0
-80 -101 0
-80 -102 0
-80 -103 0
-80 -104 0
-80 -105 0
-101 -102 0
-101 -103 0
-101 -104 0
-101 -105 0
-102 -103 0
-102 -104 0
-102 -105 0
-103 -104 0
-103 -105 0
-104 -105 0
6 7 8 9 10 31 32 33 34 35 56 57 58 59 60 81 82 83 84 85 106 107 108 109 110 0
-6 -7 0
-6 -8 0
-6 -9 0
-6 -10 0
-6 -31 0
-6 -32 0
-6 -33 0
-6 -34 0
-6 -35 0
-6 -56 0
-6 -57 0
-6 -58 0
-6 -59 0
-6 -60 0
-6 -81 0
-6 -82 0
-6 -83 0
-6 -84 0
-6 -85 0
-6 -106 0
-6 -107 0
-6 -108 0
-6 -109 0
-6 -110 0
-7 -8 0
-7 -9 0
-7 -10 0
-7 -31 0
-7 -32 0
-7 -33 0
-7 -34 0
-7 -35 0
-7 -56 0
-7 -57 0
-7 -58 0
-7 -59 0
-7 -60 0
-7 -81 0
-7 -82 0
-7 -83 0
-7 -84 0
-7 -85 0
-7 -106 0
-7 -107 0
-7 -108 0
-7 -109 0
-7 -110 0
-8 -9 0
-8 -10 0
-8 -31 0
-8 -32 0
-8 -33 0
-8 -34 0
-8 -35 0
-8 -56 0
-8 -57 0
-8 -58 0
-8 -59 0
-8 -60 0
-8 -81 0
-8 -82 0
-8 -83 0
-8 -84 0
-8 -85 0
-8 -106 0
-8 -107 0
-8 -108 0
-8 -109 0
-8 -110 0
-9 -10 0
-9 -31 0
-9 -32 0
-9 -33 0
-9 -34 0
-9 -35 0
-9 -56 0
-9 -57 0
-9 -58 0
-9 -59 0
-9 -60 0
-9 -81 0
-9 -82 0
-9 -83 0
-9 -84 0
-9 -85 0
-9 -106 0
-9 -107 0
-9 -108 0
-9 -109 0
-9 -110 0
-10 -31 0
-10 -32 0
-10 -33 0
-10 -34 0
-10 -35 0
-10 -56 0
-10 -57 0
-10 -58 0
-10 -59 0
-10 -60 0
-10 -81 0
-10 -82 0
-10 -83 0
-10 -84 0
-10 -85 0
-10 -106 0
-10 -107 0
-10 -108 0
-10 -109 0
-10 -110 0
-31 -32 0
-31 -33 0
-31 -34 0
-31 -35 0
-31 -56 0
-31 -57 0
-31 -58 0
-31 -59 0
-31 -60 0
-31 -81 0
-31 -82 0
-31 -83 0
-31 -84 0
-31 -85 0
-31 -106 0
-31 -107 0
-31 -108 0
-31 -109 0
-31 -110 0
-32 -33 0
-32 -34 0
-32 -35 0
-32 -56 0
-32 -57 0
-32 -58 0
-32 -59 0
-32 -60 0
-32 -81 0
-32 -82 0
-32 -83 0
-32 -84 0
-32 -85 0
-32 -106 0
-32 -107 0
-32 -108 0
-32 -109 0
-32 -110 0
-33 -34 0
-33 -35 0
-33 -56 0
-33 -57 0
-33 -58 0
-33 -59 0
-33 -60 0
-33 -81 0
-33 -82 0
-33 -83 0
-33 -84 0
-33 -85 0
-33 -106 0
-33 -107 0
-33 -108 0
-33 -109 0
-33 -110 0
-34 -35 0
-34 -56 0
-34 -57 0
-34 -58 0
-34 -59 0
-34 -60 0
-34 -81 0
-34 -82 0
-34 -83 0
-34 -84 0
-34 -85 0
-34 -106 0
-34 -107 0
-34 -108 0
-34 -109 0
-34 -110 0
-35 -56 0
-35 -57 0
-35 -58 0
-35 -59 0
-35 -60 0
-35 -81 0
-35 -82 0
-35 -83 0
-35 -84 0
-35 -85 0
-35 -106 0
-35 -107 0
-35 -108 0
-35 -109 0
-35 -110 0
-56 -57 0
-56 -58 0
-56 -59 0
-56 -60 0
-56 -81 0
-56 -82 0
-56 -83 0
-56 -84 0
-56 -85 0
-56 -106 0
-56 -107 0
-56 -108 0
-56 -109 0
-56 -110 0
-57 -58 0
-57 -59 0
-57 -60 0
-57 -81 0
-57 -82 0
-57 -83 0
-57 -84 0
-57 -85 0
-57 -106 0
-57 -107 0
-57 -108 0
-57 -109 0
-57 -110 0
-58 -59 0
-58 -60 0
-58 -81 0
-58 -82 0
-58 -83 0
-58 -84 0
-58 -85 0
-58 -106 0
-58 -107 0
-58 -108 0
-58 -109 0
-58 -110 0
-59 -60 0
-59 -81 0
-59 -82 0
-59 -83 0
-59 -84 0
-59 -85 0
-59 -106 0
-59 -107 0
-59 -108 0
-59 -109 0
-59 -110 0
-60 -81 0
-60 -82 0
-60 -83 0
-60 -84 0
-60 -85 0
-60 -106 0
-60 -107 0
-60 -108 0
-60 -109 0
-60 -110 0
-81 -82 0
-81 -83 0
-81 -84 0
-81 -85 0
-81 -106 0
-81 -107 0
-81 -108 0
-81 -109 0
-81 -110 0
-82 -83 0
-82 -84 0
-82 -85 0
-82 -106 0
-82 -107 0
-82 -108 0
-82 -109 0
-82 -110 0
-83 -84 0
-83 -85 0
-83 -106 0
-83 -107 0
-83 -108 0
-83 -109 0
-83 -110 0
-84 -85 0
-84 -106 0
-84 -107 0
-84 -108 0
-84 -109 0
-84 -110 0
-85 -106 0
-85 -107 0
-85 -108 0
-85 -109 0
-85 -110 0
-106 -107 0
-106 -108 0
-106 -109 0
-106 -110 0
-107 -108 0
-107 -109 0
-107 -110 0
-108 -109 0
-108 -110 0
-109 -110 0
11 12 13 14 15 36 37 38 39 40 61 62 63 64 65 86 87 88 89 90 111 112 113 114 115 0
-11 -12 0
-11 -13 0
-11 -14 0
-11 -15 0
-11 -36 0
-11 -37 0
-11 -38 0
-11 -39 0
-11 -40 0
-11 -61 0
-11 -62 0
-11 -63 0
-11 -64 0
-11 -65 0
-11 -86 0
-11 -87 0
-11 -88 0
-11 -89 0
-11 -90 0
-11 -111 0
-11 -112 0
-11 -113 0
-11 -114 0
-11 -115 0
-12 -13 0
-12 -14 0
-12 -15 0
-12 -36 0
-12 -37 0
-12 -38 0
-12 -39 0
-12 -40 0
-12 -61 0
-12 -62 0
-12 -63 0
-12 -64 0
-12 -65 0
-12 -86 0
-12 -87 0
-12 -88 0
-12 -89 0
-12 -90 0
-12 -111 0
-12 -112 0
-12 -113 0
-12 -114 0
-12 -115 0
-13 -14 0
-13 -15 0
-13 -36 0
-13 -37 0
-13 -38 0
-13 -39 0
-13 -40 0
-13 -61 0
-13 -62 0
-13 -63 0
-13 -64 0
-13 -65 0
-13 -86 0
-13 -87 0
-13 -88 0
-13 -89 0
-13 -90 0
-13 -111 0
-13 -112 0
-13 -113 0
-13 -114 0
-13 -115 0
-14 -15 0
-14 -36 0
-14 -37 0
-14 -38 0
-14 -39 0
-14 -40 0
-14 -61 0
-14 -62 0
-14 -63 0
-14 -64 0
-14 -65 0
-14 -86 0
-14 -87 0
-14 -88 0
-14 -89 0
-14 -90 0
-14 -111 0
-14 -112 0
-14 -113 0
-14 -114 0
-14 -115 0
-15 -36 0
-15 -37 0
-15 -38 0
-15 -39 0
-15 -40 0
-15 -61 0
-15 -62 0
-15 -63 0
-15 -64 0
-15 -65 0
-15 -86 0
-15 -87 0
-15 -88 0
-15 -89 0
-15 -90 0
-15 -111 0
-15 -112 0
-15 -113 0
-15 -114 0
-15 -115 0
-36 -37 0
-36 -38 0
-36 -39 0
-36 -40 0
-36 -61 0
-36 -62 0
-36 -63 0
-36 -64 0
-36 -65 0
-36 -86 0
-36 -87 0
-36 -88 0
-36 -89 0
-36 -90 0
-36 -111 0
-36 -112 0
-36 -113 0
-36 -114 0
-36 -115 0
-37 -38 0
-37 -39 0
-37 -40 0
-37 -61 0
-37 -62 0
-37 -63 0
-37 -64 0
-37 -65 0
-37 -86 0
-37 -87 0
-37 -88 0
-37 -89 0
-37 -90 0
-37 -111 0
-37 -112 0
-37 -113 0
-37 -114 0
-37 -115 0
-38 -39 0
-38 -40 0
-38 -61 0
-38 -62 0
-38 -63 0
-38 -64 0
-38 -65 0
-38 -86 0
-38 -87 0
-38 -88 0
-38 -89 0
-38 -90 0
-38 -111 0
-38 -112 0
-38 -113 0
-38 -114 0
-38 -115 0
-39 -40 0
-39 -61 0
-39 -62 0
-39 -63 0
-39 -64 0
-39 -65 0
-39 -86 0
-39 -87 0
-39 -88 0
-39 -89 0
-39 -90 0
-39 -111 0
-39 -112 0
-39 -113 0
-39 -114 0
-39 -115 0
-40 -61 0
-40 -62 0
-40 -63 0
-40 -64 0
-40 -65 0
-40 -86 0
-40 -87 0
-40 -88 0
-40 -89 0
-40 -90 0
-40 -111 0
-40 -112 0
-40 -113 0
-40 -114 0
-40 -115 0
-61 -62 0
-61 -63 0
-61 -64 0
-61 -65 0
-61 -86 0
-61 -87 0
-61 -88 0
-61 -89 0
-61 -90 0
-61 -111 0
-61 -112 0
-61 -113 0
-61 -114 0
-61 -115 0
-62 -63 0
-62 -64 0
-62 -65 0
-62 -86 0
-62 -87 0
-62 -88 0
-62 -89 0
-62 -90 0
-62 -111 0
-62 -112 0
-62 -113 0
-62 -114 0
-62 -115 0
-63 -64 0
-63 -65 0
-63 -86 0
-63 -87 0
-63 -88 0
-63 -89 0
-63 -90 0
-63 -111 0
-63 -112 0
-63 -113 0
-63 -114 0
-63 -115 0
-64 -65 0
-64 -86 0
-64 -87 0
-64 -88 0
-64 -89 0
-64 -90 0
-64 -111 0
-64 -112 0
-64 -113 0
-64 -114 0
-64 -115 0
-65 -86 0
-65 -87 0
-65 -88 0
-65 -89 0
-65 -90 0
-65 -111 0
-65 -112 0
-65 -113 0
-65 -114 0
-65 -115 0
-86 -87 0
-86 -88 0
-86 -89 0
-86 -90 0
-86 -111 0
-86 -112 0
-86 -113 0
-86 -114 0
-86 -115 0
-87 -88 0
-87 -89 0
-87 -90 0
-87 -111 0
-87 -112 0
-87 -113 0
-87 -114 0
-87 -115 0
-88 -89 0
-88 -90 0
-88 -111 0
-88 -112 0
-88 -113 0
-88 -114 0
-88 -115 0
-89 -90 0
-89 -111 0
-89 -112 0
-89 -113 0
-89 -114 0
-89 -115 0
-90 -111 0
-90 -112 0
-90 -113 0
-90 -114 0
-90 -115 0
-111 -112 0
-111 -113 0
-111 -114 0
-111 -115 0
-112 -113 0
-112 -114 0
-112 -115 0
-113 -114 0
-113 -115 0
-114 -115 0
16 17 18 19 20 41 42 43 44 45 66 67 68 69 70 91 92 93 94 95 116 117 118 119 120 0
-16 -17 0
-16 -18 0
-16 -19 0
-16 -20 0
-16 -41 0
-16 -42 0
-16 -43 0
-16 -44 0
-16 -45 0
-16 -66 0
-16 -67 0
-16 -68 0
-16 -69 0
-16 -70 0
-16 -91 0
-16 -92 0
-16 -93 0
-16 -94 0
-16 -95 0
-16 -116 0
-16 -117 0
-16 -118 0
-16 -119 0
-16 -120 0
-17 -18 0
-17 -19 0
-17 -20 0
-17 -41 0
-17 -42 0
-17 -43 0
-17 -44 0
-17 -45 0
-17 -66 0
-17 -67 0
-17 -68 0
-17 -69 0
-17 -70 0
-17 -91 0
-17 -92 0
-17 -93 0
-17 -94 0
-17 -95 0
-17 -116 0
-17 -117 0
-17 -118 0
-17 -119 0
-17 -120 0
-18 -19 0
-18 -20 0
-18 -41 0
-18 -42 0
-18 -43 0
-18 -44 0
-18 -45 0
-18 -66 0
-18 -67 0
-18 -68 0
-18 -69 0
-18 -70 0
-18 -91 0
-18 -92 0
-18 -93 0
-18 -94 0
-18 -95 0
-18 -116 0
-18 -117 0
-18 -118 0
-18 -119 0
-18 -120 0
-19 -20 0
-19 -41 0
-19 -42 0
-19 -43 0
-19 -44 0
-19 -45 0
-19 -66 0
-19 -67 0
-19 -68 0
-19 -69 0
-19 -70 0
-19 -91 0
-19 -92 0
-19 -93 0
-19 -94 0
-19 -95 0
-19 -116 0
-19 -117 0
-19 -118 0
-19 -119 0
-19 -120 0
-20 -41 0
-20 -42 0
-20 -43 0
-20 -44 0
-20 -45 0
-20 -66 0
-20 -67 0
-20 -68 0
-20 -69 0
-20 -70 0
-20 -91 0
-20 -92 0
-20 -93 0
-20 -94 0
-20 -95 0
-20 -116 0
-20 -117 0
-20 -118 0
-20 -119 0
-20 -120 0
-41 -42 0
-41 -43 0
-41 -44 0
-41 -45 0
-41 -66 0
-41 -67 0
-41 -68 0
-41 -69 0
-41 -70 0
-41 -91 0
-41 -92 0
-41 -93 0
-41 -94 0
-41 -95 0
-41 -116 0
-41 -117 0
-41 -118 0
-41 -119 0
-41 -120 0
-42 -43 0
-42 -44 0
-42 -45 0
-42 -66 0
-42 -67 0
-42 -68 0
-42 -69 0
-42 -70 0
-42 -91 0
-42 -92 0
-42 -93 0
-42 -94 0
-42 -95 0
-42 -116 0
-42 -117 0
-42 -118 0
-42 -119 0
-42 -120 0
-43 -44 0
-43 -45 0
-43 -66 0
-43 -67 0
-43 -68 0
-43 -69 0
-43 -70 0
-43 -91 0
-43 -92 0
-43 -93 0
-43 -94 0
-43 -95 0
-43 -116 0
-43 -117 0
-43 -118 0
-43 -119 0
-43 -120 0
-44 -45 0
-44 -66 0
-44 -67 0
-44 -68 0
-44 -69 0
-44 -70 0
-44 -91 0
-44 -92 0
-44 -93 0
-44 -94 0
-44 -95 0
-44 -116 0
-44 -117 0
-44 -118 0
-44 -119 0
-44 -120 0
-45 -66 0
-45 -67 0
-45 -68 0
-45 -69 0
-45 -70 0
-45 -91 0
-45 -92 0
-45 -93 0
-45 -94 0
-45 -95 0
-45 -116 0
-45 -117 0
-45 -118 0
-45 -119 0
-45 -120 0
-66 -67 0
-66 -68 0
-66 -69 0
-66 -70 0
-66 -91 0
-66 -92 0
-66 -93 0
-66 -94 0
-66 -95 0
-66 -116 0
-66 -117 0
-66 -118 0
-66 -119 0
-66 -120 0
-67 -68 0
-67 -69 0
-67 -70 0
-67 -91 0
-67 -92 0
-67 -93 0
-67 -94 0
-67 -95 0
-67 -116 0
-67 -117 0
-67 -118 0
-67 -119 0
-67 -120 0
-68 -69 0
-68 -70 0
-68 -91 0
-68 -92 0
-68 -93 0
-68 -94 0
-68 -95 0
-68 -116 0
-68 -117 0
-68 -118 0
-68 -119 0
-68 -120 0
-69 -70 0
-69 -91 0
-69 -92 0
-69 -93 0
-69 -94 0
-69 -95 0
-69 -116 0
-69 -117 0
-69 -118 0
-69 -119 0
-69 -120 0
-70 -91 0
-70 -92 0
-70 -93 0
-70 -94 0
-70 -95 0
-70 -116 0
-70 -117 0
-70 -118 0
-70 -119 0
-70 -120 0
-91 -92 0
-91 -93 0
-91 -94 0
-91 -95 0
-91 -116 0
-91 -117 0
-91 -118 0
-91 -119 0
-91 -120 0
-92 -93 0
-92 -94 0
-92 -95 0
-92 -116 0
-92 -117 0
-92 -118 0
-92 -119 0
-92 -120 0
-93 -94 0
-93 -95 0
-93 -116 0
-93 -117 0
-93 -118 0
-93 -119 0
-93 -120 0
-94 -95 0
-94 -116 0
-94 -117 0
-94 -118 0
-94 -119 0
-94 -120 0
-95 -116 0
-95 -117 0
-95 -118 0
-95 -119 0
-95 -120 0
-116 -117 0
-116 -118 0
-116 -119 0
-116 -120 0
-117 -118 0
-117 -119 0
-117 -120 0
-118 -119 0
-118 -120 0
-119 -120 0
21 22 23 24 25 46 47 48 49 50 71 72 73 74 75 96 97 98 99 100 121 122 123 124 125 0
-21 -22 0
-21 -23 0
-21 -24 0
-21 -25 0
-21 -46 0
-21 -47 0
-21 -48 0
-21 -49 0
-21 -50 0
-21 -71 0
-21 -72 0
-21 -73 0
-21 -74 0
-21 -75 0
-21 -96 0
-21 -97 0
-21 -98 0
-21 -99 0
-21 -100 0
-21 -121 0
-21 -122 0
-21 -123 0
-21 -124 0
-21 -125 0
-22 -23 0
-22 -24 0
-22 -25 0
-22 -46 0
-22 -47 0
-22 -48 0
-22 -49 0
-22 -50 0
-22 -71 0
-22 -72 0
-22 -73 0
-22 -74 0
-22 -75 0
-22 -96 0
-22 -97 0
-22 -98 0
-22 -99 0
-22 -100 0
-22 -121 0
-22 -122 0
-22 -123 0
-22 -124 0
-22 -125 0
-23 -24 0
-23 -25 0
-23 -46 0
-23 -47 0
-23 -48 0
-23 -49 0
-23 -50 0
-23 -71 0
-23 -72 0
-23 -73 0
-23 -74 0
-23 -75 0
-23 -96 0
-23 -97 0
-23 -98 0
-23 -99 0
-23 -100 0
-23 -121 0
-23 -122 0
-23 -123 0
-23 -124 0
-23 -125 0
-24 -25 0
-24 -46 0
-24 -47 0
-24 -48 0
-24 -49 0
-24 -50 0
-24 -71 0
-24 -72 0
-24 -73 0
-24 -74 0
-24 -75 0
-24 -96 0
-24 -97 0
-24 -98 0
-24 -99 0
-24 -100 0
-24 -121 0
-24 -122 0
-24 -123 0
-24 -124 0
-24 -125 0
-25 -46 0
-25 -47 0
-25 -48 0
-25 -49 0
-25 -50 0
-25 -71 0
-25 -72 0
-25 -73 0
-25 -74 0
-25 -75 0
-25 -96 0
-25 -97 0
-25 -98 0
-25 -99 0
-25 -100 0
-25 -121 0
-25 -122 0
-25 -123 0
-25 -124 0
-25 -125 0
-46 -47 0
-46 -48 0
-46 -49 0
-46 -50 0
-46 -71 0
-46 -72 0
-46 -73 0
-46 -74 0
-46 -75 0
-46 -96 0
-46 -97 0
-46 -98 0
-46 -99 0
-46 -100 0
-46 -121 0
-46 -122 0
-46 -123 0
-46 -124 0
-46 -125 0
-47 -48 0
-47 -49 0
-47 -50 0
-47 -71 0
-47 -72 0
-47 -73 0
-47 -74 0
-47 -75 0
-47 -96 0
-47 -97 0
-47 -98 0
-47 -99 0
-47 -100 0
-47 -121 0
-47 -122 0
-47 -123 0
-47 -124 0
-47 -125 0
-48 -49 0
-48 -50 0
-48 -71 0
-48 -72 0
-48 -73 0
-48 -74 0
-48 -75 0
-48 -96 0
-48 -97 0
-48 -98 0
-48 -99 0
-48 -100 0
-48 -121 0
-48 -122 0
-48 -123 0
-48 -124 0
-48 -125 0
-49 -50 0
-49 -71 0
-49 -72 0
-49 -73 0
-49 -74 0
-49 -75 0
-49 -96 0
-49 -97 0
-49 -98 0
-49 -99 0
-49 -100 0
-49 -121 0
-49 -122 0
-49 -123 0
-49 -124 0
-49 -125 0
-50 -71 0
-50 -72 0
-50 -73 0
-50 -74 0
-50 -75 0
-50 -96 0
-50 -97 0
-50 -98 0
-50 -99 0
-50 -100 0
-50 -121 0
-50 -122 0
-50 -123 0
-50 -124 0
-50 -125 0
-71 -72 0
-71 -73 0
-71 -74 0
-71 -75 0
-71 -96 0
-71 -97 0
-71 -98 0
-71 -99 0
-71 -100 0
-71 -121 0
-71 -122 0
-71 -123 0
-71 -124 0
-71 -125 0
-72 -73 0
-72 -74 0
-72 -75 0
-72 -96 0
-72 -97 0
-72 -98 0
-72 -99 0
-72 -100 0
-72 -121 0
-72 -122 0
-72 -123 0
-72 -124 0
-72 -125 0
-73 -74 0
-73 -75 0
-73 -96 0
-73 -97 0
-73 -98 0
-73 -99 0
-73 -100 0
-73 -121 0
-73 -122 0
-73 -123 0
-73 -124 0
-73 -125 0
-74 -75 0
-74 -96 0
-74 -97 0
-74 -98 0
-74 -99 0
-74 -100 0
-74 -121 0
-74 -122 0
-74 -123 0
-74 -124 0
-74 -125 0
-75 -96 0
-75 -97 0
-75 -98 0
-75 -99 0
-75 -100 0
-75 -121 0
-75 -122 0
-75 -123 0
-75 -124 0
-75 -125 0
-96 -97 0
-96 -98 0
-96 -99 0
-96 -100 0
-96 -121 0
-96 -122 0
-96 -123 0
-96 -124 0
-96 -125 0
-97 -98 0
-97 -99 0
-97 -100 0
-97 -121 0
-97 -122 0
-97 -123 0
-97 -124 0
-97 -125 0
-98 -99 0
-98 -100 0
-98 -121 0
-98 -122 0
-98 -123 0
-98 -124 0
-98 -125 0
-99 -100 0
-99 -121 0
-99 -122 0
-99 -123 0
-99 -124 0
-99 -125 0
-100 -121 0
-100 -122 0
-100 -123 0
-100 -124 0
-100 -125 0
-121 -122 0
-121 -123 0
-121 -124 0
-121 -125 0
-122 -123 0
-122 -124 0
-122 -125 0
-123 -124 0
-123 -125 0
-124 -125 0
126 127 128 129 130 151 152 153 154 155 176 177 178 179 180 201 202 203 204 205 226 227 228 229 230 0
-126 -127 0
-126 -128 0
-126 -129 0
-126 -130 0
-126 -151 0
-126 -152 0
-126 -153 0
-126 -154 0
-126 -155 0
-126 -176 0
-126 -177 0
-126 -178 0
-126 -179 0
-126 -180 0
-126 -201 0
-126 -202 0
-126 -203 0
-126 -204 0
-126 -205 0
-126 -226 0
-126 -227 0
-126 -228 0
-126 -229 0
-126 -230 0
-127 -128 0
-127 -129 0
-127 -130 0
-127 -151 0
-127 -152 0
-127 -153 0
-127 -154 0
-127 -155 0
-127 -176 0
-127 -177 0
-127 -178 0
-127 -179 0
-127 -180 0
-127 -201 0
-127 -202 0
-127 -203 0
-127 -204 0
-127 -205 0
-127 -226 0
-127 -227 0
-127 -228 0
-127 -229 0
-127 -230 0
-128 -129 0
-128 -130 0
-128 -151 0
-128 -152 0
-128 -153 0
-128 -154 0
-128 -155 0
-128 -176 0
-128 -177 0
-128 -178 0
-128 -179 0
-128 -180 0
-128 -201 0
-128 -202 0
-128 -203 0
-128 -204 0
-128 -205 0
-128 -226 0
-128 -227 0
-128 -228 0
-128 -229 0
-128 -230 0
-129 -130 0
-129 -151 0
-129 -152 0
-129 -153 0
-129 -154 0
-129 -155 0
-129 -176 0
-129 -177 0
-129 -178 0
-129 -179 0
-129 -180 0
-129 -201 0
-129 -202 0
-129 -203 0
-129 -204 0
-129 -205 0
-129 -226 0
-129 -227 0
-129 -228 0
-129 -229 0
-129 -230 0
-130 -151 0
-130 -152 0
-130 -153 0
-130 -154 0
-130 -155 0
-130 -176 0
-130 -177 0
-130 -178 0
-130 -179 0
-130 -180 0
-130 -201 0
-130 -202 0
-130 -203 0
-130 -204 0
-130 -205 0
-130 -226 0
-130 -227 0
-130 -228 0
-130 -229 0
-130 -230 0
-151 -152 0
-151 -153 0
-151 -154 0
-151 -155 0
-151 -176 0
-151 -177 0
-151 -178 0
-151 -179 0
-151 -180 0
-151 -201 0
-151 -202 0
-151 -203 0
-151 -204 0
-151 -205 0
-151 -226 0
-151 -227 0
-151 -228 0
-151 -229 0
-151 -230 0
-152 -153 0
-152 -154 0
-152 -155 0
-152 -176 0
-152 -177 0
-152 -178 0
-152 -179 0
-152 -180 0
-152 -201 0
-152 -202 0
-152 -203 0
-152 -204 0
-152 -205 0
-152 -226 0
-152 -227 0
-152 -228 0
-152 -229 0
-152 -230 0
-153 -154 0
-153 -155 0
-153 -176 0
-153 -177 0
-153 -178 0
-153 -179 0
-153 -180 0
-153 -201 0
-153 -202 0
-153 -203 0
-153 -204 0
-153 -205 0
-153 -226 0
-153 -227 0
-153 -228 0
-153 -229 0
-153 -230 0
-154 -155 0
-154 -176 0
-154 -177 0
-154 -178 0
-154 -179 0
-154 -180 0
-154 -201 0
-154 -202 0
-154 -203 0
-154 -204 0
-154 -205 0
-154 -226 0
-154 -227 0
-154 -228 0
-154 -229 0
-154 -230 0
-155 -176 0
-155 -177 0
-155 -178 0
-155 -179 0
-155 -180 0
-155 -201 0
-155 -202 0
-155 -203 0
-155 -204 0
-155 -205 0
-155 -226 0
-155 -227 0
-155 -228 0
-155 -229 0
-155 -230 0
-176 -177 0
-176 -178 0
-176 -179 0
-176 -180 0
-176 -201 0
-176 -202 0
-176 -203 0
-176 -204 0
-176 -205 0
-176 -226 0
-176 -227 0
-176 -228 0
-176 -229 0
-176 -230 0
-177 -178 0
-177 -179 0
-177 -180 0
-177 -201 0
-177 -202 0
-177 -203 0
-177 -204 0
-177 -205 0
-177 -226 0
-177 -227 0
-177 -228 0
-177 -229 0
-177 -230 0
-178 -179 0
-178 -180 0
-178 -201 0
-178 -202 0
-178 -203 0
-178 -204 0
-178 -205 0
-178 -226 0
-178 -227 0
-178 -228 0
-178 -229 0
-178 -230 0
-179 -180 0
-179 -201 0
-179 -202 0
-179 -203 0
-179 -204 0
-179 -205 0
-179 -226 0
-179 -227 0
-179 -228 0
-179 -229 0
-179 -230 0
-180 -201 0
-180 -202 0
-180 -203 0
-180 -204 0
-180 -205 0
-180 -226 0
-180 -227 0
-180 -228 0
-180 -229 0
-180 -230 0
-201 -202 0
-201 -203 0
-201 -204 0
-201 -205 0
-201 -226 0
-201 -227 0
-201 -228 0
-201 -229 0
-201 -230 0
-202 -203 0
-202 -204 0
-202 -205 0
-202 -226 0
-202 -227 0
-202 -228 0
-202 -229 0
-202 -230 0
-203 -204 0
-203 -205 0
-203 -226 0
-203 -227 0
-203 -228 0
-203 -229 0
-203 -230 0
-204 -205 0
-204 -226 0
-204 -227 0
-204 -228 0
-204 -229 0
-204 -230 0
-205 -226 0
-205 -227 0
-205 -228 0
-205 -229 0
-205 -230 0
-226 -227 0
-226 -228 0
-226 -229 0
-226 -230 0
-227 -228 0
-227 -229 0
-227 -230 0
-228 -229 0
-228 -230 0
-229 -230 0
131 132 133 134 135 156 157 158 159 160 181 182 183 184 185 206 207 208 209 210 231 232 233 234 235 0
-131 -132 0
-131 -133 0
-131 -134 0
-131 -135 0
-131 -156 0
-131 -157 0
-131 -158 0
-131 -159 0
-131 -160 0
-131 -181 0
-131 -182 0
-131 -183 0
-131 -184 0
-131 -185 0
-131 -206 0
-131 -207 0
-131 -208 0
-131 -209 0
-131 -210 0
-131 -231 0
-131 -232 0
-131 -233 0
-131 -234 0
-131 -235 0
-132 -133 0
-132 -134 0
-132 -135 0
-132 -156 0
-132 -157 0
-132 -158 0
-132 -159 0
-132 -160 0
-132 -181 0
-132 -182 0
-132 -183 0
-132 -184 0
-132 -185 0
-132 -206 0
-132 -207 0
-132 -208 0
-132 -209 0
-132 -210 0
-132 -231 0
-132 -232 0
-132 -233 0
-132 -234 0
-132 -235 0
-133 -134 0
-133 -135 0
-133 -156 0
-133 -157 0
-133 -158 0
-133 -159 0
-133 -160 0
-133 -181 0
-133 -182 0
-133 -183 0
-133 -184 0
-133 -185 0
-133 -206 0
-133 -207 0
-133 -208 0
-133 -209 0
-133 -210 0
-133 -231 0
-133 -232 0
-133 -233 0
-133 -234 0
-133 -235 0
-134 -135 0
-134 -156 0
-134 -157 0
-134 -158 0
-134 -159 0
-134 -160 0
-134 -181 0
-134 -182 0
-134 -183 0
-134 -184 0
-134 -185 0
-134 -206 0
-134 -207 0
-134 -208 0
-134 -209 0
-134 -210 0
-134 -231 0
-134 -232 0
-134 -233 0
-134 -234 0
-134 -235 0
-135 -156 0
-135 -157 0
-135 -158 0
-135 -159 0
-135 -160 0
-135 -181 0
-135 -182 0
-135 -183 0
-135 -184 0
-135 -185 0
-135 -206 0
-135 -207 0
-135 -208 0
-135 -209 0
-135 -210 0
-135 -231 0
-135 -232 0
-135 -233 0
-135 -234 0
-135 -235 0
-156 -157 0
-156 -158 0
-156 -159 0
-156 -160 0
-156 -181 0
-156 -182 0
-156 -183 0
-156 -184 0
-156 -185 0
-156 -206 0
-156 -207 0
-156 -208 0
-156 -209 0
-156 -210 0
-156 -231 0
-156 -232 0
-156 -233 0
-156 -234 0
-156 -235 0
-157 -158 0
-157 -159 0
-157 -160 0
-157 -181 0
-157 -182 0
-157 -183 0
-157 -184 0
-157 -185 0
-157 -206 0
-157 -207 0
-157 -208 0
-157 -209 0
-157 -210 0
-157 -231 0
-157 -232 0
-157 -233 0
-157 -234 0
-157 -235 0
-158 -159 0
-158 -160 0
-158 -181 0
-158 -182 0
-158 -183 0
-158 -184 0
-158 -185 0
-158 -206 0
-158 -207 0
-158 -208 0
-158 -209 0
-158 -210 0
-158 -231 0
-158 -232 0
-158 -233 0
-158 -234 0
-158 -235 0
-159 -160 0
-159 -181 0
-159 -182 0
-159 -183 0
-159 -184 0
-159 -185 0
-159 -206 0
-159 -207 0
-159 -208 0
-159 -209 0
-159 -210 0
-159 -231 0
-159 -232 0
-159 -233 0
-159 -234 0
-159 -235 0
-160 -181 0
-160 -182 0
-160 -183 0
-160 -184 0
-160 -185 0
-160 -206 0
-160 -207 0
-160 -208 0
-160 -209 0
-160 -210 0
-160 -231 0
-160 -232 0
-160 -233 0
-160 -234 0
-160 -235 0
-181 -182 0
-181 -183 0
-181 -184 0
-181 -185 0
-181 -206 0
-181 -207 0
-181 -208 0
-181 -209 0
-181 -210 0
-181 -231 0
-181 -232 0
-181 -233 0
-181 -234 0
-181 -235 0
-182 -183 0
-182 -184 0
-182 -185 0
-182 -206 0
-182 -207 0
-182 -208 0
-182 -209 0
-182 -210 0
-182 -231 0
-182 -232 0
-182 -233 0
-182 -234 0
-182 -235 0
-183 -184 0
-183 -185 0
-183 -206 0
-183 -207 0
-183 -208 0
-183 -209 0
-183 -210 0
-183 -231 0
-183 -232 0
-183 -233 0
-183 -234 0
-183 -235 0
-184 -185 0
-184 -206 0
-184 -207 0
-184 -208 0
-184 -209 0
-184 -210 0
-184 -231 0
-184 -232 0
-184 -233 0
-184 -234 0
-184 -235 0
-185 -206 0
-185 -207 0
-185 -208 0
-185 -209 0
-185 -210 0
-185 -231 0
-185 -232 0
-185 -233 0
-185 -234 0
-185 -235 0
-206 -207 0
-206 -208 0
-206 -209 0
-206 -210 0
-206 -231 0
-206 -232 0
-206 -233 0
-206 -234 0
-206 -235 0
-207 -208 0
-207 -209 0
-207 -210 0
-207 -231 0
-207 -232 0
-207 -233 0
-207 -234 0
-207 -235 0
-208 -209 0
-208 -210 0
-208 -231 0
-208 -232 0
-208 -233 0
-208 -234 0
-208 -235 0
-209 -210 0
-209 -231 0
-209 -232 0
-209 -233 0
-209 -234 0
-209 -235 0
-210 -231 0
-210 -232 0
-210 -233 0
-210 -234 0
-210 -235 0
-231 -232 0
-231 -233 0
-231 -234 0
-231 -235 0
-232 -233 0
-232 -234 0
-232 -235 0
-233 -234 0
-233 -235 0
-234 -235 0
136 137 138 139 140 161 162 163 164 165 186 187 188 189 190 211 212 213 214 215 236 237 238 239 240 0
-136 -137 0
-136 -138 0
-136 -139 0
-136 -140 0
-136 -161 0
-136 -162 0
-136 -163 0
-136 -164 0
-136 -165 0
-136 -186 0
-136 -187 0
-136 -188 0
-136 -189 0
-136 -190 0
-136 -211 0
-136 -212 0
-136 -213 0
-136 -214 0
-136 -215 0
-136 -236 0
-136 -237 0
-136 -238 0
-136 -239 0
-136 -240 0
-137 -138 0
-137 -139 0
-137 -140 0
-137 -161 0
-137 -162 0
-137 -163 0
-137 -164 0
-137 -165 0
-137 -186 0
-137 -187 0
-137 -188 0
-137 -189 0
-137 -190 0
-137 -211 0
-137 -212 0
-137 -213 0
-137 -214 0
-137 -215 0
-137 -236 0
-137 -237 0
-137 -238 0
-137 -239 0
-137 -240 0
-138 -139 0
-138 -140 0
-138 -161 0
-138 -162 0
-138 -163 0
-138 -164 0
-138 -165 0
-138 -186 0
-138 -187 0
-138 -188 0
-138 -189 0
-138 -190 0
-138 -211 0
-138 -212 0
-138 -213 0
-138 -214 0
-138 -215 0
-138 -236 0
-138 -237 0
-138 -238 0
-138 -239 0
-138 -240 0
-139 -140 0
-139 -161 0
-139 -162 0
-139 -163 0
-139 -164 0
-139 -165 0
-139 -186 0
-139 -187 0
-139 -188 0
-139 -189 0
-139 -190 0
-139 -211 0
-139 -212 0
-139 -213 0
-139 -214 0
-139 -215 0
-139 -236 0
-139 -237 0
-139 -238 0
-139 -239 0
-139 -240 0
-140 -161 0
-140 -162 0
-140 -163 0
-140 -164 0
-140 -165 0
-140 -186 0
-140 -187 0
-140 -188 0
-140 -189 0
-140 -190 0
-140 -211 0
-140 -212 0
-140 -213 0
-140 -214 0
-140 -215 0
-140 -236 0
-140 -237 0
-140 -238 0
-140 -239 0
-140 -240 0
-161 -162 0
-161 -163 0
-161 -164 0
-161 -165 0
-161 -186 0
-161 -187 0
-161 -188 0
-161 -189 0
-161 -190 0
-161 -211 0
-161 -212 0
-161 -213 0
-161 -214 0
-161 -215 0
-161 -236 0
-161 -237 0
-161 -238 0
-161 -239 0
-161 -240 0
-162 -163 0
-162 -164 0
-162 -165 0
-162 -186 0
-162 -187 0
-162 -188 0
-162 -189 0
-162 -190 0
-162 -211 0
-162 -212 0
-162 -213 0
-162 -214 0
-162 -215 0
-162 -236 0
-162 -237 0
-162 -238 0
-162 -239 0
-162 -240 0
-163 -164 0
-163 -165 0
-163 -186 0
-163 -187 0
-163 -188 0
-163 -189 0
-163 -190 0
-163 -211 0
-163 -212 0
-163 -213 0
-163 -214 0
-163 -215 0
-163 -236 0
-163 -237 0
-163 -238 0
-163 -239 0
-163 -240 0
-164 -165 0
-164 -186 0
-164 -187 0
-164 -188 0
-164 -189 0
-164 -190 0
-164 -211 0
-164 -212 0
-164 -213 0
-164 -214 0
-164 -215 0
-164 -236 0
-164 -237 0
-164 -238 0
-164 -239 0
-164 -240 0
-165 -186 0
-165 -187 0
-165 -188 0
-165 -189 0
-165 -190 0
-165 -211 0
-165 -212 0
-165 -213 0
-165 -214 0
-165 -215 0
-165 -236 0
-165 -237 0
-165 -238 0
-165 -239 0
-165 -240 0
-186 -187 0
-186 -188 0
-186 -189 0
-186 -190 0
-186 -211 0
-186 -212 0
-186 -213 0
-186 -214 0
-186 -215 0
-186 -236 0
-186 -237 0
-186 -238 0
-186 -239 0
-186 -240 0
-187 -188 0
-187 -189 0
-187 -190 0
-187 -211 0
-187 -212 0
-187 -213 0
-187 -214 0
-187 -215 0
-187 -236 0
-187 -237 0
-187 -238 0
-187 -239 0
-187 -240 0
-188 -189 0
-188 -190 0
-188 -211 0
-188 -212 0
-188 -213 0
-188 -214 0
-188 -215 0
-188 -236 0
-188 -237 0
-188 -238 0
-188 -239 0
-188 -240 0
-189 -190 0
-189 -211 0
-189 -212 0
-189 -213 0
-189 -214 0
-189 -215 0
-189 -236 0
-189 -237 0
-189 -238 0
-189 -239 0
-189 -240 0
-190 -211 0
-190 -212 0
-190 -213 0
-190 -214 0
-190 -215 0
-190 -236 0
-190 -237 0
-190 -238 0
-190 -239 0
-190 -240 0
-211 -212 0
-211 -213 0
-211 -214 0
-211 -215 0
-211 -236 0
-211 -237 0
-211 -238 0
-211 -239 0
-211 -240 0
-212 -213 0
-212 -214 0
-212 -215 0
-212 -236 0
-212 -237 0
-212 -238 0
-212 -239 0
-212 -240 0
-213 -214 0
-213 -215 0
-213 -236 0
-213 -237 0
-213 -238 0
-213 -239 0
-213 -240 0
-214 -215 0
-214 -236 0
-214 -237 0
-214 -238 0
-214 -239 0
-214 -240 0
-215 -236 0
-215 -237 0
-215 -238 0
-215 -239 0
-215 -240 0
-236 -237 0
-236 -238 0
-236 -239 0
-236 -240 0
-237 -238 0
-237 -239 0
-237 -240 0
-238 -239 0
-238 -240 0
-239 -240 0
141 142 143 144 145 166 167 168 169 170 191 192 193 194 195 216 217 218 219 220 241 242 243 244 245 0
-141 -142 0
-141 -143 0
-141 -144 0
-141 -145 0
-141 -166 0
-141 -167 0
-141 -168 0
-141 -169 0
-141 -170 0
-141 -191 0
-141 -192 0
-141 -193 0
-141 -194 0
-141 -195 0
-141 -216 0
-141 -217 0
-141 -218 0
-141 -219 0
-141 -220 0
-141 -241 0
-141 -242 0
-141 -243 0
-141 -244 0
-141 -245 0
-142 -143 0
-142 -144 0
-142 -145 0
-142 -166 0
-142 -167 0
-142 -168 0
-142 -169 0
-142 -170 0
-142 -191 0
-142 -192 0
-142 -193 0
-142 -194 0
-142 -195 0
-142 -216 0
-142 -217 0
-142 -218 0
-142 -219 0
-142 -220 0
-142 -241 0
-142 -242 0
-142 -243 0
-142 -244 0
-142 -245 0
-143 -144 0
-143 -145 0
-143 -166 0
-143 -167 0
-143 -168 0
-143 -169 0
-143 -170 0
-143 -191 0
-143 -192 0
-143 -193 0
-143 -194 0
-143 -195 0
-143 -216 0
-143 -217 0
-143 -218 0
-143 -219 0
-143 -220 0
-143 -241 0
-143 -242 0
-143 -243 0
-143 -244 0
-143 -245 0
-144 -145 0
-144 -166 0
-144 -167 0
-144 -168 0
-144 -169 0
-144 -170 0
-144 -191 0
-144 -192 0
-144 -193 0
-144 -194 0
-144 -195 0
-144 -216 0
-144 -217 0
-144 -218 0
-144 -219 0
-144 -220 0
-144 -241 0
-144 -242 0
-144 -243 0
-144 -244 0
-144 -245 0
-145 -166 0
-145 -167 0
-145 -168 0
-145 -169 0
-145 -170 0
-145 -191 0
-145 -192 0
-145 -193 0
-145 -194 0
-145 -195 0
-145 -216 0
-145 -217 0
-145 -218 0
-145 -219 0
-145 -220 0
-145 -241 0
-145 -242 0
-145 -243 0
-145 -244 0
-145 -245 0
-166 -167 0
-166 -168 0
-166 -169 0
-166 -170 0
-166 -191 0
-166 -192 0
-166 -193 0
-166 -194 0
-166 -195 0
-166 -216 0
-166 -217 0
-166 -218 0
-166 -219 0
-166 -220 0
-166 -241 0
-166 -242 0
-166 -243 0
-166 -244 0
-166 -245 0
-167 -168 0
-167 -169 0
-167 -170 0
-167 -191 0
-167 -192 0
-167 -193 0
-167 -194 0
-167 -195 0
-167 -216 0
-167 -217 0
-167 -218 0
-167 -219 0
-167 -220 0
-167 -241 0
-167 -242 0
-167 -243 0
-167 -244 0
-167 -245 0
-168 -169 0
-168 -170 0
-168 -191 0
-168 -192 0
-168 -193 0
-168 -194 0
-168 -195 0
-168 -216 0
-168 -217 0
-168 -218 0
-168 -219 0
-168 -220 0
-168 -241 0
-168 -242 0
-168 -243 0
-168 -244 0
-168 -245 0
-169 -170 0
-169 -191 0
-169 -192 0
-169 -193 0
-169 -194 0
-169 -195 0
-169 -216 0
-169 -217 0
-169 -218 0
-169 -219 0
-169 -220 0
-169 -241 0
-169 -242 0
-169 -243 0
-169 -244 0
-169 -245 0
-170 -191 0
-170 -192 0
-170 -193 0
-170 -194 0
-170 -195 0
-170 -216 0
-170 -217 0
-170 -218 0
-170 -219 0
-170 -220 0
-170 -241 0
-170 -242 0
-170 -243 0
-170 -244 0
-170 -245 0
-191 -192 0
-191 -193 0
-191 -194 0
-191 -195 0
-191 -216 0
-191 -217 0
-191 -218 0
-191 -219 0
-191 -220 0
-191 -241 0
-191 -242 0
-191 -243 0
-191 -244 0
-191 -245 0
-192 -193 0
-192 -194 0
-192 -195 0
-192 -216 0
-192 -217 0
-192 -218 0
-192 -219 0
-192 -220 0
-192 -241 0
-192 -242 0
-192 -243 0
-192 -244 0
-192 -245 0
-193 -194 0
-193 -195 0
-193 -216 0
-193 -217 0
-193 -218 0
-193 -219 0
-193 -220 0
-193 -241 0
-193 -242 0
-193 -243 0
-193 -244 0
-193 -245 0
-194 -195 0
-194 -216 0
-194 -217 0
-194 -218 0
-194 -219 0
-194 -220 0
-194 -241 0
-194 -242 0
-194 -243 0
-194 -244 0
-194 -245 0
-195 -216 0
-195 -217 0
-195 -218 0
-195 -219 0
-195 -220 0
-195 -241 0
-195 -242 0
-195 -243 0
-195 -244 0
-195 -245 0
-216 -217 0
-216 -218 0
-216 -219 0
-216 -220 0
-216 -241 0
-216 -242 0
-216 -243 0
-216 -244 0
-216 -245 0
-217 -218 0
-217 -219 0
-217 -220 0
-217 -241 0
-217 -242 0
-217 -243 0
-217 -244 0
-217 -245 0
-218 -219 0
-218 -220 0
-218 -241 0
-218 -242 0
-218 -243 0
-218 -244 0
-218 -245 0
-219 -220 0
-219 -241 0
-219 -242 0
-219 -243 0
-219 -244 0
-219 -245 0
-220 -241 0
-220 -242 0
-220 -243 0
-220 -244 0
-220 -245 0
-241 -242 0
-241 -243 0
-241 -244 0
-241 -245 0
-242 -243 0
-242 -244 0
-242 -245 0
-243 -244 0
-243 -245 0
-244 -245 0
146 147 148 149 150 171 172 173 174 175 196 197 198 199 200 221 222 223 224 225 246 247 248 249 250 0
-146 -147 0
-146 -148 0
-146 -149 0
-146 -150 0
-146 -171 0
-146 -172 0
-146 -173 0
-146 -174 0
-146 -175 0
-146 -196 0
-146 -197 0
-146 -198 0
-146 -199 0
-146 -200 0
-146 -221 0
-146 -222 0
-146 -223 0
-146 -224 0
-146 -225 0
-146 -246 0
-146 -247 0
-146 -248 0
-146 -249 0
-146 -250 0
-147 -148 0
-147 -149 0
-147 -150 0
-147 -171 0
-147 -172 0
-147 -173 0
-147 -174 0
-147 -175 0
-147 -196 0
-147 -197 0
-147 -198 0
-147 -199 0
-147 -200 0
-147 -221 0
-147 -222 0
-147 -223 0
-147 -224 0
-147 -225 0
-147 -246 0
-147 -247 0
-147 -248 0
-147 -249 0
-147 -250 0
-148 -149 0
-148 -150 0
-148 -171 0
-148 -172 0
-148 -173 0
-148 -174 0
-148 -175 0
-148 -196 0
-148 -197 0
-148 -198 0
-148 -199 0
-148 -200 0
-148 -221 0
-148 -222 0
-148 -223 0
-148 -224 0
-148 -225 0
-148 -246 0
-148 -247 0
-148 -248 0
-148 -249 0
-148 -250 0
-149 -150 0
-149 -171 0
-149 -172 0
-149 -173 0
-149 -174 0
-149 -175 0
-149 -196 0
-149 -197 0
-149 -198 0
-149 -199 0
-149 -200 0
-149 -221 0
-149 -222 0
-149 -223 0
-149 -224 0
-149 -225 0
-149 -246 0
-149 -247 0
-149 -248 0
-149 -249 0
-149 -250 0
-150 -171 0
-150 -172 0
-150 -173 0
-150 -174 0
-150 -175 0
-150 -196 0
-150 -197 0
-150 -198 0
-150 -199 0
-150 -200 0
-150 -221 0
-150 -222 0
-150 -223 0
-150 -224 0
-150 -225 0
-150 -246 0
-150 -247 0
-150 -248 0
-150 -249 0
-150 -250 0
-171 -172 0
-171 -173 0
-171 -174 0
-171 -175 0
-171 -196 0
-171 -197 0
-171 -198 0
-171 -199 0
-171 -200 0
-171 -221 0
-171 -222 0
-171 -223 0
-171 -224 0
-171 -225 0
-171 -246 0
-171 -247 0
-171 -248 0
-171 -249 0
-171 -250 0
-172 -173 0
-172 -174 0
-172 -175 0
-172 -196 0
-172 -197 0
-172 -198 0
-172 -199 0
-172 -200 0
-172 -221 0
-172 -222 0
-172 -223 0
-172 -224 0
-172 -225 0
-172 -246 0
-172 -247 0
-172 -248 0
-172 -249 0
-172 -250 0
-173 -174 0
-173 -175 0
-173 -196 0
-173 -197 0
-173 -198 0
-173 -199 0
-173 -200 0
-173 -221 0
-173 -222 0
-173 -223 0
-173 -224 0
-173 -225 0
-173 -246 0
-173 -247 0
-173 -248 0
-173 -249 0
-173 -250 0
-174 -175 0
-174 -196 0
-174 -197 0
-174 -198 0
-174 -199 0
-174 -200 0
-174 -221 0
-174 -222 0
-174 -223 0
-174 -224 0
-174 -225 0
-174 -246 0
-174 -247 0
-174 -248 0
-174 -249 0
-174 -250 0
-175 -196 0
-175 -197 0
-175 -198 0
-175 -199 0
-175 -200 0
-175 -221 0
-175 -222 0
-175 -223 0
-175 -224 0
-175 -225 0
-175 -246 0
-175 -247 0
-175 -248 0
-175 -249 0
-175 -250 0
-196 -197 0
-196 -198 0
-196 -199 0
-196 -200 0
-196 -221 0
-196 -222 0
-196 -223 0
-196 -224 0
-196 -225 0
-196 -246 0
-196 -247 0
-196 -248 0
-196 -249 0
-196 -250 0
-197 -198 0
-197 -199 0
-197 -200 0
-197 -221 0
-197 -222 0
-197 -223 0
-197 -224 0
-197 -225 0
-197 -246 0
-197 -247 0
-197 -248 0
-197 -249 0
-197 -250 0
-198 -199 0
-198 -200 0
-198 -221 0
-198 -222 0
-198 -223 0
-198 -224 0
-198 -225 0
-198 -246 0
-198 -247 0
-198 -248 0
-198 -249 0
-198 -250 0
-199 -200 0
-199 -221 0
-199 -222 0
-199 -223 0
-199 -224 0
-199 -225 0
-199 -246 0
-199 -247 0
-199 -248 0
-199 -249 0
-199 -250 0
-200 -221 0
-200 -222 0
-200 -223 0
-200 -224 0
-200 -225 0
-200 -246 0
-200 -247 0
-200 -248 0
-200 -249 0
-200 -250 0
-221 -222 0
-221 -223 0
-221 -224 0
-221 -225 0
-221 -246 0
-221 -247 0
-221 -248 0
-221 -249 0
-221 -250 0
-222 -223 0
-222 -224 0
-222 -225 0
-222 -246 0
-222 -247 0
-222 -248 0
-222 -249 0
-222 -250 0
-223 -224 0
-223 -225 0
-223 -246 0
-223 -247 0
-223 -248 0
-223 -249 0
-223 -250 0
-224 -225 0
-224 -246 0
-224 -247 0
-224 -248 0
-224 -249 0
-224 -250 0
-225 -246 0
-225 -247 0
-225 -248 0
-225 -249 0
-225 -250 0
-246 -247 0
-246 -248 0
-246 -249 0
-246 -250 0
-247 -248 0
-247 -249 0
-247 -250 0
-248 -249 0
-248 -250 0
-249 -250 0
251 252 253 254 255 276 277 278 279 280 301 302 303 304 305 326 327 328 329 330 351 352 353 354 355 0
-251 -252 0
-251 -253 0
-251 -254 0
-251 -255 0
-251 -276 0
-251 -277 0
-251 -278 0
-251 -279 0
-251 -280 0
-251 -301 0
-251 -302 0
-251 -303 0
-251 -304 0
-251 -305 0
-251 -326 0
-251 -327 0
-251 -328 0
-251 -329 0
-251 -330 0
-251 -351 0
-251 -352 0
-251 -353 0
-251 -354 0
-251 -355 0
-252 -253 0
-252 -254 0
-252 -255 0
-252 -276 0
-252 -277 0
-252 -278 0
-252 -279 0
-252 -280 0
-252 -301 0
-252 -302 0
-252 -303 0
-252 -304 0
-252 -305 0
-252 -326 0
-252 -327 0
-252 -328 0
-252 -329 0
-252 -330 0
-252 -351 0
-252 -352 0
-252 -353 0
-252 -354 0
-252 -355 0
-253 -254 0
-253 -255 0
-253 -276 0
-253 -277 0
-253 -278 0
-253 -279 0
-253 -280 0
-253 -301 0
-253 -302 0
-253 -303 0
-253 -304 0
-253 -305 0
-253 -326 0
-253 -327 0
-253 -328 0
-253 -329 0
-253 -330 0
-253 -351 0
-253 -352 0
-253 -353 0
-253 -354 0
-253 -355 0
-254 -255 0
-254 -276 0
-254 -277 0
-254 -278 0
-254 -279 0
-254 -280 0
-254 -301 0
-254 -302 0
-254 -303 0
-254 -304 0
-254 -305 0
-254 -326 0
-254 -327 0
-254 -328 0
-254 -329 0
-254 -330 0
-254 -351 0
-254 -352 0
-254 -353 0
-254 -354 0
-254 -355 0
-255 -276 0
-255 -277 0
-255 -278 0
-255 -279 0
-255 -280 0
-255 -301 0
-255 -302 0
-255 -303 0
-255 -304 0
-255 -305 0
-255 -326 0
-255 -327 0
-255 -328 0
-255 -329 0
-255 -330 0
-255 -351 0
-255 -352 0
-255 -353 0
-255 -354 0
-255 -355 0
-276 -277 0
-276 -278 0
-276 -279 0
-276 -280 0
-276 -301 0
-276 -302 0
-276 -303 0
-276 -304 0
-276 -305 0
-276 -326 0
-276 -327 0
-276 -328 0
-276 -329 0
-276 -330 0
-276 -351 0
-276 -352 0
-276 -353 0
-276 -354 0
-276 -355 0
-277 -278 0
-277 -279 0
-277 -280 0
-277 -301 0
-277 -302 0
-277 -303 0
-277 -304 0
-277 -305 0
-277 -326 0
-277 -327 0
-277 -328 0
-277 -329 0
-277 -330 0
-277 -351 0
-277 -352 0
-277 -353 0
-277 -354 0
-277 -355 0
-278 -279 0
-278 -280 0
-278 -301 0
-278 -302 0
-278 -303 0
-278 -304 0
-278 -305 0
-278 -326 0
-278 -327 0
-278 -328 0
-278 -329 0
-278 -330 0
-278 -351 0
-278 -352 0
-278 -353 0
-278 -354 0
-278 -355 0
-279 -280 0
-279 -301 0
-279 -302 0
-279 -303 0
-279 -304 0
-279 -305 0
-279 -326 0
-279 -327 0
-279 -328 0
-279 -329 0
-279 -330 0
-279 -351 0
-279 -352 0
-279 -353 0
-279 -354 0
-279 -355 0
-280 -301 0
-280 -302 0
-280 -303 0
-280 -304 0
-280 -305 0
-280 -326 0
-280 -327 0
-280 -328 0
-280 -329 0
-280 -330 0
-280 -351 0
-280 -352 0
-280 -353 0
-280 -354 0
-280 -355 0
-301 -302 0
-301 -303 0
-301 -304 0
-301 -305 0
-301 -326 0
-301 -327 0
-301 -328 0
-301 -329 0
-301 -330 0
-301 -351 0
-301 -352 0
-301 -353 0
-301 -354 0
-301 -355 0
-302 -303 0
-302 -304 0
-302 -305 0
-302 -326 0
-302 -327 0
-302 -328 0
-302 -329 0
-302 -330 0
-302 -351 0
-302 -352 0
-302 -353 0
-302 -354 0
-302 -355 0
-303 -304 0
-303 -305 0
-303 -326 0
-303 -327 0
-303 -328 0
-303 -329 0
-303 -330 0
-303 -351 0
-303 -352 0
-303 -353 0
-303 -354 0
-303 -355 0
-304 -305 0
-304 -326 0
-304 -327 0
-304 -328 0
-304 -329 0
-304 -330 0
-304 -351 0
-304 -352 0
-304 -353 0
-304 -354 0
-304 -355 0
-305 -326 0
-305 -327 0
-305 -328 0
-305 -329 0
-305 -330 0
-305 -351 0
-305 -352 0
-305 -353 0
-305 -354 0
-305 -355 0
-326 -327 0
-326 -328 0
-326 -329 0
-326 -330 0
-326 -351 0
-326 -352 0
-326 -353 0
-326 -354 0
-326 -355 0
-327 -328 0
-327 -329 0
-327 -330 0
-327 -351 0
-327 -352 0
-327 -353 0
-327 -354 0
-327 -355 0
-328 -329 0
-328 -330 0
-328 -351 0
-328 -352 0
-328 -353 0
-328 -354 0
-328 -355 0
-329 -330 0
-329 -351 0
-329 -352 0
-329 -353 0
-329 -354 0
-329 -355 0
-330 -351 0
-330 -352 0
-330 -353 0
-330 -354 0
-330 -355 0
-351 -352 0
-351 -353 0
-351 -354 0
-351 -355 0
-352 -353 0
-352 -354 0
-352 -355 0
-353 -354 0
-353 -355 0
-354 -355 0
256 257 258 259 260 281 282 283 284 285 306 307 308 309 310 331 332 333 334 335 356 357 358 359 360 0
-256 -257 0
-256 -258 0
-256 -259 0
-256 -260 0
-256 -281 0
-256 -282 0
-256 -283 0
-256 -284 0
-256 -285 0
-256 -306 0
-256 -307 0
-256 -308 0
-256 -309 0
-256 -310 0
-256 -331 0
-256 -332 0
-256 -333 0
-256 -334 0
-256 -335 0
-256 -356 0
-256 -357 0
-256 -358 0
-256 -359 0
-256 -360 0
-257 -258 0
-257 -259 0
-257 -260 0
-257 -281 0
-257 -282 0
-257 -283 0
-257 -284 0
-257 -285 0
-257 -306 0
-257 -307 0
-257 -308 0
-257 -309 0
-257 -310 0
-257 -331 0
-257 -332 0
-257 -333 0
-257 -334 0
-257 -335 0
-257 -356 0
-257 -357 0
-257 -358 0
-257 -359 0
-257 -360 0
-258 -259 0
-258 -260 0
-258 -281 0
-258 -282 0
-258 -283 0
-258 -284 0
-258 -285 0
-258 -306 0
-258 -307 0
-258 -308 0
-258 -309 0
-258 -310 0
-258 -331 0
-258 -332 0
-258 -333 0
-258 -334 0
-258 -335 0
-258 -356 0
-258 -357 0
-258 -358 0
-258 -359 0
-258 -360 0
-259 -260 0
-259 -281 0
-259 -282 0
-259 -283 0
-259 -284 0
-259 -285 0
-259 -306 0
-259 -307 0
-259 -308 0
-259 -309 0
-259 -310 0
-259 -331 0
-259 -332 0
-259 -333 0
-259 -334 0
-259 -335 0
-259 -356 0
-259 -357 0
-259 -358 0
-259 -359 0
-259 -360 0
-260 -281 0
-260 -282 0
-260 -283 0
-260 -284 0
-260 -285 0
-260 -306 0
-260 -307 0
-260 -308 0
-260 -309 0
-260 -310 0
-260 -331 0
-260 -332 0
-260 -333 0
-260 -334 0
-260 -335 0
-260 -356 0
-260 -357 0
-260 -358 0
-260 -359 0
-260 -360 0
-281 -282 0
-281 -283 0
-281 -284 0
-281 -285 0
-281 -306 0
-281 -307 0
-281 -308 0
-281 -309 0
-281 -310 0
-281 -331 0
-281 -332 0
-281 -333 0
-281 -334 0
-281 -335 0
-281 -356 0
-281 -357 0
-281 -358 0
-281 -359 0
-281 -360 0
-282 -283 0
-282 -284 0
-282 -285 0
-282 -306 0
-282 -307 0
-282 -308 0
-282 -309 0
-282 -310 0
-282 -331 0
-282 -332 0
-282 -333 0
-282 -334 0
-282 -335 0
-282 -356 0
-282 -357 0
-282 -358 0
-282 -359 0
-282 -360 0
-283 -284 0
-283 -285 0
-283 -306 0
-283 -307 0
-283 -308 0
-283 -309 0
-283 -310 0
-283 -331 0
-283 -332 0
-283 -333 0
-283 -334 0
-283 -335 0
-283 -356 0
-283 -357 0
-283 -358 0
-283 -359 0
-283 -360 0
-284 -285 0
-284 -306 0
-284 -307 0
-284 -308 0
-284 -309 0
-284 -310 0
-284 -331 0
-284 -332 0
-284 -333 0
-284 -334 0
-284 -335 0
-284 -356 0
-284 -357 0
-284 -358 0
-284 -359 0
-284 -360 0
-285 -306 0
-285 -307 0
-285 -308 0
-285 -309 0
-285 -310 0
-285 -331 0
-285 -332 0
-285 -333 0
-285 -334 0
-285 -335 0
-285 -356 0
-285 -357 0
-285 -358 0
-285 -359 0
-285 -360 0
-306 -307 0
-306 -308 0
-306 -309 0
-306 -310 0
-306 -331 0
-306 -332 0
-306 -333 0
-306 -334 0
-306 -335 0
-306 -356 0
-306 -357 0
-306 -358 0
-306 -359 0
-306 -360 0
-307 -308 0
-307 -309 0
-307 -310 0
-307 -331 0
-307 -332 0
-307 -333 0
-307 -334 0
-307 -335 0
-307 -356 0
-307 -357 0
-307 -358 0
-307 -359 0
-307 -360 0
-308 -309 0
-308 -310 0
-308 -331 0
-308 -332 0
-308 -333 0
-308 -334 0
-308 -335 0
-308 -356 0
-308 -357 0
-308 -358 0
-308 -359 0
-308 -360 0
-309 -310 0
-309 -331 0
-309 -332 0
-309 -333 0
-309 -334 0
-309 -335 0
-309 -356 0
-309 -357 0
-309 -358 0
-309 -359 0
-309 -360 0
-310 -331 0
-310 -332 0
-310 -333 0
-310 -334 0
-310 -335 0
-310 -356 0
-310 -357 0
-310 -358 0
-310 -359 0
-310 -360 0
-331 -332 0
-331 -333 0
-331 -334 0
-331 -335 0
-331 -356 0
-331 -357 0
-331 -358 0
-331 -359 0
-331 -360 0
-332 -333 0
-332 -334 0
-332 -335 0
-332 -356 0
-332 -357 0
-332 -358 0
-332 -359 0
-332 -360 0
-333 -334 0
-333 -335 0
-333 -356 0
-333 -357 0
-333 -358 0
-333 -359 0
-333 -360 0
-334 -335 0
-334 -356 0
-334 -357 0
-334 -358 0
-334 -359 0
-334 -360 0
-335 -356 0
-335 -357 0
-335 -358 0
-335 -359 0
-335 -360 0
-356 -357 0
-356 -358 0
-356 -359 0
-356 -360 0
-357 -358 0
-357 -359 0
-357 -360 0
-358 -359 0
-358 -360 0
-359 -360 0
261 262 263 264 265 286 287 288 289 290 311 312 313 314 315 336 337 338 339 340 361 362 363 364 365 0
-261 -262 0
-261 -263 0
-261 -264 0
-261 -265 0
-261 -286 0
-261 -287 0
-261 -288 0
-261 -289 0
-261 -290 0
-261 -311 0
-261 -312 0
-261 -313 0
-261 -314 0
-261 -315 0
-261 -336 0
-261 -337 0
-261 -338 0
-261 -339 0
-261 -340 0
-261 -361 0
-261 -362 0
-261 -363 0
-261 -364 0
-261 -365 0
-262 -263 0
-262 -264 0
-262 -265 0
-262 -286 0
-262 -287 0
-262 -288 0
-262 -289 0
-262 -290 0
-262 -311 0
-262 -312 0
-262 -313 0
-262 -314 0
-262 -315 0
-262 -336 0
-262 -337 0
-262 -338 0
-262 -339 0
-262 -340 0
-262 -361 0
-262 -362 0
-262 -363 0
-262 -364 0
-262 -365 0
-263 -264 0
-263 -265 0
-263 -286 0
-263 -287 0
-263 -288 0
-263 -289 0
-263 -290 0
-263 -311 0
-263 -312 0
-263 -313 0
-263 -314 0
-263 -315 0
-263 -336 0
-263 -337 0
-263 -338 0
-263 -339 0
-263 -340 0
-263 -361 0
-263 -362 0
-263 -363 0
-263 -364 0
-263 -365 0
-264 -265 0
-264 -286 0
-264 -287 0
-264 -288 0
-264 -289 0
-264 -290 0
-264 -311 0
-264 -312 0
-264 -313 0
-264 -314 0
-264 -315 0
-264 -336 0
-264 -337 0
-264 -338 0
-264 -339 0
-264 -340 0
-264 -361 0
-264 -362 0
-264 -363 0
-264 -364 0
-264 -365 0
-265 -286 0
-265 -287 0
-265 -288 0
-265 -289 0
-265 -290 0
-265 -311 0
-265 -312 0
-265 -313 0
-265 -314 0
-265 -315 0
-265 -336 0
-265 -337 0
-265 -338 0
-265 -339 0
-265 -340 0
-265 -361 0
-265 -362 0
-265 -363 0
-265 -364 0
-265 -365 0
-286 -287 0
-286 -288 0
-286 -289 0
-286 -290 0
-286 -311 0
-286 -312 0
-286 -313 0
-286 -314 0
-286 -315 0
-286 -336 0
-286 -337 0
-286 -338 0
-286 -339 0
-286 -340 0
-286 -361 0
-286 -362 0
-286 -363 0
-286 -364 0
-286 -365 0
-287 -288 0
-287 -289 0
-287 -290 0
-287 -311 0
-287 -312 0
-287 -313 0
-287 -314 0
-287 -315 0
-287 -336 0
-287 -337 0
-287 -338 0
-287 -339 0
-287 -340 0
-287 -361 0
-287 -362 0
-287 -363 0
-287 -364 0
-287 -365 0
-288 -289 0
-288 -290 0
-288 -311 0
-288 -312 0
-288 -313 0
-288 -314 0
-288 -315 0
-288 -336 0
-288 -337 0
-288 -338 0
-288 -339 0
-288 -340 0
-288 -361 0
-288 -362 0
-288 -363 0
-288 -364 0
-288 -365 0
-289 -290 0
-289 -311 0
-289 -312 0
-289 -313 0
-289 -314 0
-289 -315 0
-289 -336 0
-289 -337 0
-289 -338 0
-289 -339 0
-289 -340 0
-289 -361 0
-289 -362 0
-289 -363 0
-289 -364 0
-289 -365 0
-290 -311 0
-290 -312 0
-290 -313 0
-290 -314 0
-290 -315 0
-290 -336 0
-290 -337 0
-290 -338 0
-290 -339 0
-290 -340 0
-290 -361 0
-290 -362 0
-290 -363 0
-290 -364 0
-290 -365 0
-311 -312 0
-311 -313 0
-311 -314 0
-311 -315 0
-311 -336 0
-311 -337 0
-311 -338 0
-311 -339 0
-311 -340 0
-311 -361 0
-311 -362 0
-311 -363 0
-311 -364 0
-311 -365 0
-312 -313 0
-312 -314 0
-312 -315 0
-312 -336 0
-312 -337 0
-312 -338 0
-312 -339 0
-312 -340 0
-312 -361 0
-312 -362 0
-312 -363 0
-312 -364 0
-312 -365 0
-313 -314 0
-313 -315 0
-313 -336 0
-313 -337 0
-313 -338 0
-313 -339 0
-313 -340 0
-313 -361 0
-313 -362 0
-313 -363 0
-313 -364 0
-313 -365 0
-314 -315 0
-314 -336 0
-314 -337 0
-314 -338 0
-314 -339 0
-314 -340 0
-314 -361 0
-314 -362 0
-314 -363 0
-314 -364 0
-314 -365 0
-315 -336 0
-315 -337 0
-315 -338 0
-315 -339 0
-315 -340 0
-315 -361 0
-315 -362 0
-315 -363 0
-315 -364 0
-315 -365 0
-336 -337 0
-336 -338 0
-336 -339 0
-336 -340 0
-336 -361 0
-336 -362 0
-336 -363 0
-336 -364 0
-336 -365 0
-337 -338 0
-337 -339 0
-337 -340 0
-337 -361 0
-337 -362 0
-337 -363 0
-337 -364 0
-337 -365 0
-338 -339 0
-338 -340 0
-338 -361 0
-338 -362 0
-338 -363 0
-338 -364 0
-338 -365 0
-339 -340 0
-339 -361 0
-339 -362 0
-339 -363 0
-339 -364 0
-339 -365 0
-340 -361 0
-340 -362 0
-340 -363 0
-340 -364 0
-340 -365 0
-361 -362 0
-361 -363 0
-361 -364 0
-361 -365 0
-362 -363 0
-362 -364 0
-362 -365 0
-363 -364 0
-363 -365 0
-364 -365 0
266 267 268 269 270 291 292 293 294 295 316 317 318 319 320 341 342 343 344 345 366 367 368 369 370 0
-266 -267 0
-266 -268 0
-266 -269 0
-266 -270 0
-266 -291 0
-266 -292 0
-266 -293 0
-266 -294 0
-266 -295 0
-266 -316 0
-266 -317 0
-266 -318 0
-266 -319 0
-266 -320 0
-266 -341 0
-266 -342 0
-266 -343 0
-266 -344 0
-266 -345 0
-266 -366 0
-266 -367 0
-266 -368 0
-266 -369 0
-266 -370 0
-267 -268 0
-267 -269 0
-267 -270 0
-267 -291 0
-267 -292 0
-267 -293 0
-267 -294 0
-267 -295 0
-267 -316 0
-267 -317 0
-267 -318 0
-267 -319 0
-267 -320 0
-267 -341 0
-267 -342 0
-267 -343 0
-267 -344 0
-267 -345 0
-267 -366 0
-267 -367 0
-267 -368 0
-267 -369 0
-267 -370 0
-268 -269 0
-268 -270 0
-268 -291 0
-268 -292 0
-268 -293 0
-268 -294 0
-268 -295 0
-268 -316 0
-268 -317 0
-268 -318 0
-268 -319 0
-268 -320 0
-268 -341 0
-268 -342 0
-268 -343 0
-268 -344 0
-268 -345 0
-268 -366 0
-268 -367 0
-268 -368 0
-268 -369 0
-268 -370 0
-269 -270 0
-269 -291 0
-269 -292 0
-269 -293 0
-269 -294 0
-269 -295 0
-269 -316 0
-269 -317 0
-269 -318 0
-269 -319 0
-269 -320 0
-269 -341 0
-269 -342 0
-269 -343 0
-269 -344 0
-269 -345 0
-269 -366 0
-269 -367 0
-269 -368 0
-269 -369 0
-269 -370 0
-270 -291 0
-270 -292 0
-270 -293 0
-270 -294 0
-270 -295 0
-270 -316 0
-270 -317 0
-270 -318 0
-270 -319 0
-270 -320 0
-270 -341 0
-270 -342 0
-270 -343 0
-270 -344 0
-270 -345 0
-270 -366 0
-270 -367 0
-270 -368 0
-270 -369 0
-270 -370 0
-291 -292 0
-291 -293 0
-291 -294 0
-291 -295 0
-291 -316 0
-291 -317 0
-291 -318 0
-291 -319 0
-291 -320 0
-291 -341 0
-291 -342 0
-291 -343 0
-291 -344 0
-291 -345 0
-291 -366 0
-291 -367 0
-291 -368 0
-291 -369 0
-291 -370 0
-292 -293 0
-292 -294 0
-292 -295 0
-292 -316 0
-292 -317 0
-292 -318 0
-292 -319 0
-292 -320 0
-292 -341 0
-292 -342 0
-292 -343 0
-292 -344 0
-292 -345 0
-292 -366 0
-292 -367 0
-292 -368 0
-292 -369 0
-292 -370 0
-293 -294 0
-293 -295 0
-293 -316 0
-293 -317 0
-293 -318 0
-293 -319 0
-293 -320 0
-293 -341 0
-293 -342 0
-293 -343 0
-293 -344 0
-293 -345 0
-293 -366 0
-293 -367 0
-293 -368 0
-293 -369 0
-293 -370 0
-294 -295 0
-294 -316 0
-294 -317 0
-294 -318 0
-294 -319 0
-294 -320 0
-294 -341 0
-294 -342 0
-294 -343 0
-294 -344 0
-294 -345 0
-294 -366 0
-294 -367 0
-294 -368 0
-294 -369 0
-294 -370 0
-295 -316 0
-295 -317 0
-295 -318 0
-295 -319 0
-295 -320 0
-295 -341 0
-295 -342 0
-295 -343 0
-295 -344 0
-295 -345 0
-295 -366 0
-295 -367 0
-295 -368 0
-295 -369 0
-295 -370 0
-316 -317 0
-316 -318 0
-316 -319 0
-316 -320 0
-316 -341 0
-316 -342 0
-316 -343 0
-316 -344 0
-316 -345 0
-316 -366 0
-316 -367 0
-316 -368 0
-316 -369 0
-316 -370 0
-317 -318 0
-317 -319 0
-317 -320 0
-317 -341 0
-317 -342 0
-317 -343 0
-317 -344 0
-317 -345 0
-317 -366 0
-317 -367 0
-317 -368 0
-317 -369 0
-317 -370 0
-318 -319 0
-318 -320 0
-318 -341 0
-318 -342 0
-318 -343 0
-318 -344 0
-318 -345 0
-318 -366 0
-318 -367 0
-318 -368 0
-318 -369 0
-318 -370 0
-319 -320 0
-319 -341 0
-319 -342 0
-319 -343 0
-319 -344 0
-319 -345 0
-319 -366 0
-319 -367 0
-319 -368 0
-319 -369 0
-319 -370 0
-320 -341 0
-320 -342 0
-320 -343 0
-320 -344 0
-320 -345 0
-320 -366 0
-320 -367 0
-320 -368 0
-320 -369 0
-320 -370 0
-341 -342 0
-341 -343 0
-341 -344 0
-341 -345 0
-341 -366 0
-341 -367 0
-341 -368 0
-341 -369 0
-341 -370 0
-342 -343 0
-342 -344 0
-342 -345 0
-342 -366 0
-342 -367 0
-342 -368 0
-342 -369 0
-342 -370 0
-343 -344 0
-343 -345 0
-343 -366 0
-343 -367 0
-343 -368 0
-343 -369 0
-343 -370 0
-344 -345 0
-344 -366 0
-344 -367 0
-344 -368 0
-344 -369 0
-344 -370 0
-345 -366 0
-345 -367 0
-345 -368 0
-345 -369 0
-345 -370 0
-366 -367 0
-366 -368 0
-366 -369 0
-366 -370 0
-367 -368 0
-367 -369 0
-367 -370 0
-368 -369 0
-368 -370 0
-369 -370 0
271 272 273 274 275 296 297 298 299 300 321 322 323 324 325 346 347 348 349 350 371 372 373 374 375 0
-271 -272 0
-271 -273 0
-271 -274 0
-271 -275 0
-271 -296 0
-271 -297 0
-271 -298 0
-271 -299 0
-271 -300 0
-271 -321 0
-271 -322 0
-271 -323 0
-271 -324 0
-271 -325 0
-271 -346 0
-271 -347 0
-271 -348 0
-271 -349 0
-271 -350 0
-271 -371 0
-271 -372 0
-271 -373 0
-271 -374 0
-271 -375 0
-272 -273 0
-272 -274 0
-272 -275 0
-272 -296 0
-272 -297 0
-272 -298 0
-272 -299 0
-272 -300 0
-272 -321 0
-272 -322 0
-272 -323 0
-272 -324 0
-272 -325 0
-272 -346 0
-272 -347 0
-272 -348 0
-272 -349 0
-272 -350 0
-272 -371 0
-272 -372 0
-272 -373 0
-272 -374 0
-272 -375 0
-273 -274 0
-273 -275 0
-273 -296 0
-273 -297 0
-273 -298 0
-273 -299 0
-273 -300 0
-273 -321 0
-273 -322 0
-273 -323 0
-273 -324 0
-273 -325 0
-273 -346 0
-273 -347 0
-273 -348 0
-273 -349 0
-273 -350 0
-273 -371 0
-273 -372 0
-273 -373 0
-273 -374 0
-273 -375 0
-274 -275 0
-274 -296 0
-274 -297 0
-274 -298 0
-274 -299 0
-274 -300 0
-274 -321 0
-274 -322 0
-274 -323 0
-274 -324 0
-274 -325 0
-274 -346 0
-274 -347 0
-274 -348 0
-274 -349 0
-274 -350 0
-274 -371 0
-274 -372 0
-274 -373 0
-274 -374 0
-274 -375 0
-275 -296 0
-275 -297 0
-275 -298 0
-275 -299 0
-275 -300 0
-275 -321 0
-275 -322 0
-275 -323 0
-275 -324 0
-275 -325 0
-275 -346 0
-275 -347 0
-275 -348 0
-275 -349 0
-275 -350 0
-275 -371 0
-275 -372 0
-275 -373 0
-275 -374 0
-275 -375 0
-296 -297 0
-296 -298 0
-296 -299 0
-296 -300 0
-296 -321 0
-296 -322 0
-296 -323 0
-296 -324 0
-296 -325 0
-296 -346 0
-296 -347 0
-296 -348 0
-296 -349 0
-296 -350 0
-296 -371 0
-296 -372 0
-296 -373 0
-296 -374 0
-296 -375 0
-297 -298 0
-297 -299 0
-297 -300 0
-297 -321 0
-297 -322 0
-297 -323 0
-297 -324 0
-297 -325 0
-297 -346 0
-297 -347 0
-297 -348 0
-297 -349 0
-297 -350 0
-297 -371 0
-297 -372 0
-297 -373 0
-297 -374 0
-297 -375 0
-298 -299 0
-298 -300 0
-298 -321 0
-298 -322 0
-298 -323 0
-298 -324 0
-298 -325 0
-298 -346 0
-298 -347 0
-298 -348 0
-298 -349 0
-298 -350 0
-298 -371 0
-298 -372 0
-298 -373 0
-298 -374 0
-298 -375 0
-299 -300 0
-299 -321 0
-299 -322 0
-299 -323 0
-299 -324 0
-299 -325 0
-299 -346 0
-299 -347 0
-299 -348 0
-299 -349 0
-299 -350 0
-299 -371 0
-299 -372 0
-299 -373 0
-299 -374 0
-299 -375 0
-300 -321 0
-300 -322 0
-300 -323 0
-300 -324 0
-300 -325 0
-300 -346 0
-300 -347 0
-300 -348 0
-300 -349 0
-300 -350 0
-300 -371 0
-300 -372 0
-300 -373 0
-300 -374 0
-300 -375 0
-321 -322 0
-321 -323 0
-321 -324 0
-321 -325 0
-321 -346 0
-321 -347 0
-321 -348 0
-321 -349 0
-321 -350 0
-321 -371 0
-321 -372 0
-321 -373 0
-321 -374 0
-321 -375 0
-322 -323 0
-322 -324 0
-322 -325 0
-322 -346 0
-322 -347 0
-322 -348 0
-322 -349 0
-322 -350 0
-322 -371 0
-322 -372 0
-322 -373 0
-322 -374 0
-322 -375 0
-323 -324 0
-323 -325 0
-323 -346 0
-323 -347 0
-323 -348 0
-323 -349 0
-323 -350 0
-323 -371 0
-323 -372 0
-323 -373 0
-323 -374 0
-323 -375 0
-324 -325 0
-324 -346 0
-324 -347 0
-324 -348 0
-324 -349 0
-324 -350 0
-324 -371 0
-324 -372 0
-324 -373 0
-324 -374 0
-324 -375 0
-325 -346 0
-325 -347 0
-325 -348 0
-325 -349 0
-325 -350 0
-325 -371 0
-325 -372 0
-325 -373 0
-325 -374 0
-325 -375 0
-346 -347 0
-346 -348 0
-346 -349 0
-346 -350 0
-346 -371 0
-346 -372 0
-346 -373 0
-346 -374 0
-346 -375 0
-347 -348 0
-347 -349 0
-347 -350 0
-347 -371 0
-347 -372 0
-347 -373 0
-347 -374 0
-347 -375 0
-348 -349 0
-348 -350 0
-348 -371 0
-348 -372 0
-348 -373 0
-348 -374 0
-348 -375 0
-349 -350 0
-349 -371 0
-349 -372 0
-349 -373 0
-349 -374 0
-349 -375 0
-350 -371 0
-350 -372 0
-350 -373 0
-350 -374 0
-350 -375 0
-371 -372 0
-371 -373 0
-371 -374 0
-371 -375 0
-372 -373 0
-372 -374 0
-372 -375 0
-373 -374 0
-373 -375 0
-374 -375 0
376 377 378 379 380 401 402 403 404 405 426 427 428 429 430 451 452 453 454 455 476 477 478 479 480 0
-376 -377 0
-376 -378 0
-376 -379 0
-376 -380 0
-376 -401 0
-376 -402 0
-376 -403 0
-376 -404 0
-376 -405 0
-376 -426 0
-376 -427 0
-376 -428 0
-376 -429 0
-376 -430 0
-376 -451 0
-376 -452 0
-376 -453 0
-376 -454 0
-376 -455 0
-376 -476 0
-376 -477 0
-376 -478 0
-376 -479 0
-376 -480 0
-377 -378 0
-377 -379 0
-377 -380 0
-377 -401 0
-377 -402 0
-377 -403 0
-377 -404 0
-377 -405 0
-377 -426 0
-377 -427 0
-377 -428 0
-377 -429 0
-377 -430 0
-377 -451 0
-377 -452 0
-377 -453 0
-377 -454 0
-377 -455 0
-377 -476 0
-377 -477 0
-377 -478 0
-377 -479 0
-377 -480 0
-378 -379 0
-378 -380 0
-378 -401 0
-378 -402 0
-378 -403 0
-378 -404 0
-378 -405 0
-378 -426 0
-378 -427 0
-378 -428 0
-378 -429 0
-378 -430 0
-378 -451 0
-378 -452 0
-378 -453 0
-378 -454 0
-378 -455 0
-378 -476 0
-378 -477 0
-378 -478 0
-378 -479 0
-378 -480 0
-379 -380 0
-379 -401 0
-379 -402 0
-379 -403 0
-379 -404 0
-379 -405 0
-379 -426 0
-379 -427 0
-379 -428 0
-379 -429 0
-379 -430 0
-379 -451 0
-379 -452 0
-379 -453 0
-379 -454 0
-379 -455 0
-379 -476 0
-379 -477 0
-379 -478 0
-379 -479 0
-379 -480 0
-380 -401 0
-380 -402 0
-380 -403 0
-380 -404 0
-380 -405 0
-380 -426 0
-380 -427 0
-380 -428 0
-380 -429 0
-380 -430 0
-380 -451 0
-380 -452 0
-380 -453 0
-380 -454 0
-380 -455 0
-380 -476 0
-380 -477 0
-380 -478 0
-380 -479 0
-380 -480 0
-401 -402 0
-401 -403 0
-401 -404 0
-401 -405 0
-401 -426 0
-401 -427 0
-401 -428 0
-401 -429 0
-401 -430 0
-401 -451 0
-401 -452 0
-401 -453 0
-401 -454 0
-401 -455 0
-401 -476 0
-401 -477 0
-401 -478 0
-401 -479 0
-401 -480 0
-402 -403 0
-402 -404 0
-402 -405 0
-402 -426 0
-402 -427 0
-402 -428 0
-402 -429 0
-402 -430 0
-402 -451 0
-402 -452 0
-402 -453 0
-402 -454 0
-402 -455 0
-402 -476 0
-402 -477 0
-402 -478 0
-402 -479 0
-402 -480 0
-403 -404 0
-403 -405 0
-403 -426 0
-403 -427 0
-403 -428 0
-403 -429 0
-403 -430 0
-403 -451 0
-403 -452 0
-403 -453 0
-403 -454 0
-403 -455 0
-403 -476 0
-403 -477 0
-403 -478 0
-403 -479 0
-403 -480 0
-404 -405 0
-404 -426 0
-404 -427 0
-404 -428 0
-404 -429 0
-404 -430 0
-404 -451 0
-404 -452 0
-404 -453 0
-404 -454 0
-404 -455 0
-404 -476 0
-404 -477 0
-404 -478 0
-404 -479 0
-404 -480 0
-405 -426 0
-405 -427 0
-405 -428 0
-405 -429 0
-405 -430 0
-405 -451 0
-405 -452 0
-405 -453 0
-405 -454 0
-405 -455 0
-405 -476 0
-405 -477 0
-405 -478 0
-405 -479 0
-405 -480 0
-426 -427 0
-426 -428 0
-426 -429 0
-426 -430 0
-426 -451 0
-426 -452 0
-426 -453 0
-426 -454 0
-426 -455 0
-426 -476 0
-426 -477 0
-426 -478 0
-426 -479 0
-426 -480 0
-427 -428 0
-427 -429 0
-427 -430 0
-427 -451 0
-427 -452 0
-427 -453 0
-427 -454 0
-427 -455 0
-427 -476 0
-427 -477 0
-427 -478 0
-427 -479 0
-427 -480 0
-428 -429 0
-428 -430 0
-428 -451 0
-428 -452 0
-428 -453 0
-428 -454 0
-428 -455 0
-428 -476 0
-428 -477 0
-428 -478 0
-428 -479 0
-428 -480 0
-429 -430 0
-429 -451 0
-429 -452 0
-429 -453 0
-429 -454 0
-429 -455 0
-429 -476 0
-429 -477 0
-429 -478 0
-429 -479 0
-429 -480 0
-430 -451 0
-430 -452 0
-430 -453 0
-430 -454 0
-430 -455 0
-430 -476 0
-430 -477 0
-430 -478 0
-430 -479 0
-430 -480 0
-451 -452 0
-451 -453 0
-451 -454 0
-451 -455 0
-451 -476 0
-451 -477 0
-451 -478 0
-451 -479 0
-451 -480 0
-452 -453 0
-452 -454 0
-452 -455 0
-452 -476 0
-452 -477 0
-452 -478 0
-452 -479 0
-452 -480 0
-453 -454 0
-453 -455 0
-453 -476 0
-453 -477 0
-453 -478 0
-453 -479 0
-453 -480 0
-454 -455 0
-454 -476 0
-454 -477 0
-454 -478 0
-454 -479 0
-454 -480 0
-455 -476 0
-455 -477 0
-455 -478 0
-455 -479 0
-455 -480 0
-476 -477 0
-476 -478 0
-476 -479 0
-476 -480 0
-477 -478 0
-477 -479 0
-477 -480 0
-478 -479 0
-478 -480 0
-479 -480 0
381 382 383 384 385 406 407 408 409 410 431 432 433 434 435 456 457 458 459 460 481 482 483 484 485 0
-381 -382 0
-381 -383 0
-381 -384 0
-381 -385 0
-381 -406 0
-381 -407 0
-381 -408 0
-381 -409 0
-381 -410 0
-381 -431 0
-381 -432 0
-381 -433 0
-381 -434 0
-381 -435 0
-381 -456 0
-381 -457 0
-381 -458 0
-381 -459 0
-381 -460 0
-381 -481 0
-381 -482 0
-381 -483 0
-381 -484 0
-381 -485 0
-382 -383 0
-382 -384 0
-382 -385 0
-382 -406 0
-382 -407 0
-382 -408 0
-382 -409 0
-382 -410 0
-382 -431 0
-382 -432 0
-382 -433 0
-382 -434 0
-382 -435 0
-382 -456 0
-382 -457 0
-382 -458 0
-382 -459 0
-382 -460 0
-382 -481 0
-382 -482 0
-382 -483 0
-382 -484 0
-382 -485 0
-383 -384 0
-383 -385 0
-383 -406 0
-383 -407 0
-383 -408 0
-383 -409 0
-383 -410 0
-383 -431 0
-383 -432 0
-383 -433 0
-383 -434 0
-383 -435 0
-383 -456 0
-383 -457 0
-383 -458 0
-383 -459 0
-383 -460 0
-383 -481 0
-383 -482 0
-383 -483 0
-383 -484 0
-383 -485 0
-384 -385 0
-384 -406 0
-384 -407 0
-384 -408 0
-384 -409 0
-384 -410 0
-384 -431 0
-384 -432 0
-384 -433 0
-384 -434 0
-384 -435 0
-384 -456 0
-384 -457 0
-384 -458 0
-384 -459 0
-384 -460 0
-384 -481 0
-384 -482 0
-384 -483 0
-384 -484 0
-384 -485 0
-385 -406 0
-385 -407 0
-385 -408 0
-385 -409 0
-385 -410 0
-385 -431 0
-385 -432 0
-385 -433 0
-385 -434 0
-385 -435 0
-385 -456 0
-385 -457 0
-385 -458 0
-385 -459 0
-385 -460 0
-385 -481 0
-385 -482 0
-385 -483 0
-385 -484 0
-385 -485 0
-406 -407 0
-406 -408 0
-406 -409 0
-406 -410 0
-406 -431 0
-406 -432 0
-406 -433 0
-406 -434 0
-406 -435 0
-406 -456 0
-406 -457 0
-406 -458 0
-406 -459 0
-406 -460 0
-406 -481 0
-406 -482 0
-406 -483 0
-406 -484 0
-406 -485 0
-407 -408 0
-407 -409 0
-407 -410 0
-407 -431 0
-407 -432 0
-407 -433 0
-407 -434 0
-407 -435 0
-407 -456 0
-407 -457 0
-407 -458 0
-407 -459 0
-407 -460 0
-407 -481 0
-407 -482 0
-407 -483 0
-407 -484 0
-407 -485 0
-408 -409 0
-408 -410 0
-408 -431 0
-408 -432 0
-408 -433 0
-408 -434 0
-408 -435 0
-408 -456 0
-408 -457 0
-408 -458 0
-408 -459 0
-408 -460 0
-408 -481 0
-408 -482 0
-408 -483 0
-408 -484 0
-408 -485 0
-409 -410 0
-409 -431 0
-409 -432 0
-409 -433 0
-409 -434 0
-409 -435 0
-409 -456 0
-409 -457 0
-409 -458 0
-409 -459 0
-409 -460 0
-409 -481 0
-409 -482 0
-409 -483 0
-409 -484 0
-409 -485 0
-410 -431 0
-410 -432 0
-410 -433 0
-410 -434 0
-410 -435 0
-410 -456 0
-410 -457 0
-410 -458 0
-410 -459 0
-410 -460 0
-410 -481 0
-410 -482 0
-410 -483 0
-410 -484 0
-410 -485 0
-431 -432 0
-431 -433 0
-431 -434 0
-431 -435 0
-431 -456 0
-431 -457 0
-431 -458 0
-431 -459 0
-431 -460 0
-431 -481 0
-431 -482 0
-431 -483 0
-431 -484 0
-431 -485 0
-432 -433 0
-432 -434 0
-432 -435 0
-432 -456 0
-432 -457 0
-432 -458 0
-432 -459 0
-432 -460 0
-432 -481 0
-432 -482 0
-432 -483 0
-432 -484 0
-432 -485 0
-433 -434 0
-433 -435 0
-433 -456 0
-433 -457 0
-433 -458 0
-433 -459 0
-433 -460 0
-433 -481 0
-433 -482 0
-433 -483 0
-433 -484 0
-433 -485 0
-434 -435 0
-434 -456 0
-434 -457 0
-434 -458 0
-434 -459 0
-434 -460 0
-434 -481 0
-434 -482 0
-434 -483 0
-434 -484 0
-434 -485 0
-435 -456 0
-435 -457 0
-435 -458 0
-435 -459 0
-435 -460 0
-435 -481 0
-435 -482 0
-435 -483 0
-435 -484 0
-435 -485 0
-456 -457 0
-456 -458 0
-456 -459 0
-456 -460 0
-456 -481 0
-456 -482 0
-456 -483 0
-456 -484 0
-456 -485 0
-457 -458 0
-457 -459 0
-457 -460 0
-457 -481 0
-457 -482 0
-457 -483 0
-457 -484 0
-457 -485 0
-458 -459 0
-458 -460 0
-458 -481 0
-458 -482 0
-458 -483 0
-458 -484 0
-458 -485 0
-459 -460 0
-459 -481 0
-459 -482 0
-459 -483 0
-459 -484 0
-459 -485 0
-460 -481 0
-460 -482 0
-460 -483 0
-460 -484 0
-460 -485 0
-481 -482 0
-481 -483 0
-481 -484 0
-481 -485 0
-482 -483 0
-482 -484 0
-482 -485 0
-483 -484 0
-483 -485 0
-484 -485 0
386 387 388 389 390 411 412 413 414 415 436 437 438 439 440 461 462 463 464 465 486 487 488 489 490 0
-386 -387 0
-386 -388 0
-386 -389 0
-386 -390 0
-386 -411 0
-386 -412 0
-386 -413 0
-386 -414 0
-386 -415 0
-386 -436 0
-386 -437 0
-386 -438 0
-386 -439 0
-386 -440 0
-386 -461 0
-386 -462 0
-386 -463 0
-386 -464 0
-386 -465 0
-386 -486 0
-386 -487 0
-386 -488 0
-386 -489 0
-386 -490 0
-387 -388 0
-387 -389 0
-387 -390 0
-387 -411 0
-387 -412 0
-387 -413 0
-387 -414 0
-387 -415 0
-387 -436 0
-387 -437 0
-387 -438 0
-387 -439 0
-387 -440 0
-387 -461 0
-387 -462 0
-387 -463 0
-387 -464 0
-387 -465 0
-387 -486 0
-387 -487 0
-387 -488 0
-387 -489 0
-387 -490 0
-388 -389 0
-388 -390 0
-388 -411 0
-388 -412 0
-388 -413 0
-388 -414 0
-388 -415 0
-388 -436 0
-388 -437 0
-388 -438 0
-388 -439 0
-388 -440 0
-388 -461 0
-388 -462 0
-388 -463 0
-388 -464 0
-388 -465 0
-388 -486 0
-388 -487 0
-388 -488 0
-388 -489 0
-388 -490 0
-389 -390 0
-389 -411 0
-389 -412 0
-389 -413 0
-389 -414 0
-389 -415 0
-389 -436 0
-389 -437 0
-389 -438 0
-389 -439 0
-389 -440 0
-389 -461 0
-389 -462 0
-389 -463 0
-389 -464 0
-389 -465 0
-389 -486 0
-389 -487 0
-389 -488 0
-389 -489 0
-389 -490 0
-390 -411 0
-390 -412 0
-390 -413 0
-390 -414 0
-390 -415 0
-390 -436 0
-390 -437 0
-390 -438 0
-390 -439 0
-390 -440 0
-390 -461 0
-390 -462 0
-390 -463 0
-390 -464 0
-390 -465 0
-390 -486 0
-390 -487 0
-390 -488 0
-390 -489 0
-390 -490 0
-411 -412 0
-411 -413 0
-411 -414 0
-411 -415 0
-411 -436 0
-411 -437 0
-411 -438 0
-411 -439 0
-411 -440 0
-411 -461 0
-411 -462 0
-411 -463 0
-411 -464 0
-411 -465 0
-411 -486 0
-411 -487 0
-411 -488 0
-411 -489 0
-411 -490 0
-412 -413 0
-412 -414 0
-412 -415 0
-412 -436 0
-412 -437 0
-412 -438 0
-412 -439 0
-412 -440 0
-412 -461 0
-412 -462 0
-412 -463 0
-412 -464 0
-412 -465 0
-412 -486 0
-412 -487 0
-412 -488 0
-412 -489 0
-412 -490 0
-413 -414 0
-413 -415 0
-413 -436 0
-413 -437 0
-413 -438 0
-413 -439 0
-413 -440 0
-413 -461 0
-413 -462 0
-413 -463 0
-413 -464 0
-413 -465 0
-413 -486 0
-413 -487 0
-413 -488 0
-413 -489 0
-413 -490 0
-414 -415 0
-414 -436 0
-414 -437 0
-414 -438 0
-414 -439 0
-414 -440 0
-414 -461 0
-414 -462 0
-414 -463 0
-414 -464 0
-414 -465 0
-414 -486 0
-414 -487 0
-414 -488 0
-414 -489 0
-414 -490 0
-415 -436 0
-415 -437 0
-415 -438 0
-415 -439 0
-415 -440 0
-415 -461 0
-415 -462 0
-415 -463 0
-415 -464 0
-415 -465 0
-415 -486 0
-415 -487 0
-415 -488 0
-415 -489 0
-415 -490 0
-436 -437 0
-436 -438 0
-436 -439 0
-436 -440 0
-436 -461 0
-436 -462 0
-436 -463 0
-436 -464 0
-436 -465 0
-436 -486 0
-436 -487 0
-436 -488 0
-436 -489 0
-436 -490 0
-437 -438 0
-437 -439 0
-437 -440 0
-437 -461 0
-437 -462 0
-437 -463 0
-437 -464 0
-437 -465 0
-437 -486 0
-437 -487 0
-437 -488 0
-437 -489 0
-437 -490 0
-438 -439 0
-438 -440 0
-438 -461 0
-438 -462 0
-438 -463 0
-438 -464 0
-438 -465 0
-438 -486 0
-438 -487 0
-438 -488 0
-438 -489 0
-438 -490 0
-439 -440 0
-439 -461 0
-439 -462 0
-439 -463 0
-439 -464 0
-439 -465 0
-439 -486 0
-439 -487 0
-439 -488 0
-439 -489 0
-439 -490 0
-440 -461 0
-440 -462 0
-440 -463 0
-440 -464 0
-440 -465 0
-440 -486 0
-440 -487 0
-440 -488 0
-440 -489 0
-440 -490 0
-461 -462 0
-461 -463 0
-461 -464 0
-461 -465 0
-461 -486 0
-461 -487 0
-461 -488 0
-461 -489 0
-461 -490 0
-462 -463 0
-462 -464 0
-462 -465 0
-462 -486 0
-462 -487 0
-462 -488 0
-462 -489 0
-462 -490 0
-463 -464 0
-463 -465 0
-463 -486 0
-463 -487 0
-463 -488 0
-463 -489 0
-463 -490 0
-464 -465 0
-464 -486 0
-464 -487 0
-464 -488 0
-464 -489 0
-464 -490 0
-465 -486 0
-465 -487 0
-465 -488 0
-465 -489 0
-465 -490 0
-486 -487 0
-486 -488 0
-486 -489 0
-486 -490 0
-487 -488 0
-487 -489 0
-487 -490 0
-488 -489 0
-488 -490 0
-489 -490 0
391 392 393 394 395 416 417 418 419 420 441 442 443 444 445 466 467 468 469 470 491 492 493 494 495 0
-391 -392 0
-391 -393 0
-391 -394 0
-391 -395 0
-391 -416 0
-391 -417 0
-391 -418 0
-391 -419 0
-391 -420 0
-391 -441 0
-391 -442 0
-391 -443 0
-391 -444 0
-391 -445 0
-391 -466 0
-391 -467 0
-391 -468 0
-391 -469 0
-391 -470 0
-391 -491 0
-391 -492 0
-391 -493 0
-391 -494 0
-391 -495 0
-392 -393 0
-392 -394 0
-392 -395 0
-392 -416 0
-392 -417 0
-392 -418 0
-392 -419 0
-392 -420 0
-392 -441 0
-392 -442 0
-392 -443 0
-392 -444 0
-392 -445 0
-392 -466 0
-392 -467 0
-392 -468 0
-392 -469 0
-392 -470 0
-392 -491 0
-392 -492 0
-392 -493 0
-392 -494 0
-392 -495 0
-393 -394 0
-393 -395 0
-393 -416 0
-393 -417 0
-393 -418 0
-393 -419 0
-393 -420 0
-393 -441 0
-393 -442 0
-393 -443 0
-393 -444 0
-393 -445 0
-393 -466 0
-393 -467 0
-393 -468 0
-393 -469 0
-393 -470 0
-393 -491 0
-393 -492 0
-393 -493 0
-393 -494 0
-393 -495 0
-394 -395 0
-394 -416 0
-394 -417 0
-394 -418 0
-394 -419 0
-394 -420 0
-394 -441 0
-394 -442 0
-394 -443 0
-394 -444 0
-394 -445 0
-394 -466 0
-394 -467 0
-394 -468 0
-394 -469 0
-394 -470 0
-394 -491 0
-394 -492 0
-394 -493 0
-394 -494 0
-394 -495 0
-395 -416 0
-395 -417 0
-395 -418 0
-395 -419 0
-395 -420 0
-395 -441 0
-395 -442 0
-395 -443 0
-395 -444 0
-395 -445 0
-395 -466 0
-395 -467 0
-395 -468 0
-395 -469 0
-395 -470 0
-395 -491 0
-395 -492 0
-395 -493 0
-395 -494 0
-395 -495 0
-416 -417 0
-416 -418 0
-416 -419 0
-416 -420 0
-416 -441 0
-416 -442 0
-416 -443 0
-416 -444 0
-416 -445 0
-416 -466 0
-416 -467 0
-416 -468 0
-416 -469 0
-416 -470 0
-416 -491 0
-416 -492 0
-416 -493 0
-416 -494 0
-416 -495 0
-417 -418 0
-417 -419 0
-417 -420 0
-417 -441 0
-417 -442 0
-417 -443 0
-417 -444 0
-417 -445 0
-417 -466 0
-417 -467 0
-417 -468 0
-417 -469 0
-417 -470 0
-417 -491 0
-417 -492 0
-417 -493 0
-417 -494 0
-417 -495 0
-418 -419 0
-418 -420 0
-418 -441 0
-418 -442 0
-418 -443 0
-418 -444 0
-418 -445 0
-418 -466 0
-418 -467 0
-418 -468 0
-418 -469 0
-418 -470 0
-418 -491 0
-418 -492 0
-418 -493 0
-418 -494 0
-418 -495 0
-419 -420 0
-419 -441 0
-419 -442 0
-419 -443 0
-419 -444 0
-419 -445 0
-419 -466 0
-419 -467 0
-419 -468 0
-419 -469 0
-419 -470 0
-419 -491 0
-419 -492 0
-419 -493 0
-419 -494 0
-419 -495 0
-420 -441 0
-420 -442 0
-420 -443 0
-420 -444 0
-420 -445 0
-420 -466 0
-420 -467 0
-420 -468 0
-420 -469 0
-420 -470 0
-420 -491 0
-420 -492 0
-420 -493 0
-420 -494 0
-420 -495 0
-441 -442 0
-441 -443 0
-441 -444 0
-441 -445 0
-441 -466 0
-441 -467 0
-441 -468 0
-441 -469 0
-441 -470 0
-441 -491 0
-441 -492 0
-441 -493 0
-441 -494 0
-441 -495 0
-442 -443 0
-442 -444 0
-442 -445 0
-442 -466 0
-442 -467 0
-442 -468 0
-442 -469 0
-442 -470 0
-442 -491 0
-442 -492 0
-442 -493 0
-442 -494 0
-442 -495 0
-443 -444 0
-443 -445 0
-443 -466 0
-443 -467 0
-443 -468 0
-443 -469 0
-443 -470 0
-443 -491 0
-443 -492 0
-443 -493 0
-443 -494 0
-443 -495 0
-444 -445 0
-444 -466 0
-444 -467 0
-444 -468 0
-444 -469 0
-444 -470 0
-444 -491 0
-444 -492 0
-444 -493 0
-444 -494 0
-444 -495 0
-445 -466 0
-445 -467 0
-445 -468 0
-445 -469 0
-445 -470 0
-445 -491 0
-445 -492 0
-445 -493 0
-445 -494 0
-445 -495 0
-466 -467 0
-466 -468 0
-466 -469 0
-466 -470 0
-466 -491 0
-466 -492 0
-466 -493 0
-466 -494 0
-466 -495 0
-467 -468 0
-467 -469 0
-467 -470 0
-467 -491 0
-467 -492 0
-467 -493 0
-467 -494 0
-467 -495 0
-468 -469 0
-468 -470 0
-468 -491 0
-468 -492 0
-468 -493 0
-468 -494 0
-468 -495 0
-469 -470 0
-469 -491 0
-469 -492 0
-469 -493 0
-469 -494 0
-469 -495 0
-470 -491 0
-470 -492 0
-470 -493 0
-470 -494 0
-470 -495 0
-491 -492 0
-491 -493 0
-491 -494 0
-491 -495 0
-492 -493 0
-492 -494 0
-492 -495 0
-493 -494 0
-493 -495 0
-494 -495 0
396 397 398 399 400 421 422 423 424 425 446 447 448 449 450 471 472 473 474 475 496 497 498 499 500 0
-396 -397 0
-396 -398 0
-396 -399 0
-396 -400 0
-396 -421 0
-396 -422 0
-396 -423 0
-396 -424 0
-396 -425 0
-396 -446 0
-396 -447 0
-396 -448 0
-396 -449 0
-396 -450 0
-396 -471 0
-396 -472 0
-396 -473 0
-396 -474 0
-396 -475 0
-396 -496 0
-396 -497 0
-396 -498 0
-396 -499 0
-396 -500 0
-397 -398 0
-397 -399 0
-397 -400 0
-397 -421 0
-397 -422 0
-397 -423 0
-397 -424 0
-397 -425 0
-397 -446 0
-397 -447 0
-397 -448 0
-397 -449 0
-397 -450 0
-397 -471 0
-397 -472 0
-397 -473 0
-397 -474 0
-397 -475 0
-397 -496 0
-397 -497 0
-397 -498 0
-397 -499 0
-397 -500 0
-398 -399 0
-398 -400 0
-398 -421 0
-398 -422 0
-398 -423 0
-398 -424 0
-398 -425 0
-398 -446 0
-398 -447 0
-398 -448 0
-398 -449 0
-398 -450 0
-398 -471 0
-398 -472 0
-398 -473 0
-398 -474 0
-398 -475 0
-398 -496 0
-398 -497 0
-398 -498 0
-398 -499 0
-398 -500 0
-399 -400 0
-399 -421 0
-399 -422 0
-399 -423 0
-399 -424 0
-399 -425 0
-399 -446 0
-399 -447 0
-399 -448 0
-399 -449 0
-399 -450 0
-399 -471 0
-399 -472 0
-399 -473 0
-399 -474 0
-399 -475 0
-399 -496 0
-399 -497 0
-399 -498 0
-399 -499 0
-399 -500 0
-400 -421 0
-400 -422 0
-400 -423 0
-400 -424 0
-400 -425 0
-400 -446 0
-400 -447 0
-400 -448 0
-400 -449 0
-400 -450 0
-400 -471 0
-400 -472 0
-400 -473 0
-400 -474 0
-400 -475 0
-400 -496 0
-400 -497 0
-400 -498 0
-400 -499 0
-400 -500 0
-421 -422 0
-421 -423 0
-421 -424 0
-421 -425 0
-421 -446 0
-421 -447 0
-421 -448 0
-421 -449 0
-421 -450 0
-421 -471 0
-421 -472 0
-421 -473 0
-421 -474 0
-421 -475 0
-421 -496 0
-421 -497 0
-421 -498 0
-421 -499 0
-421 -500 0
-422 -423 0
-422 -424 0
-422 -425 0
-422 -446 0
-422 -447 0
-422 -448 0
-422 -449 0
-422 -450 0
-422 -471 0
-422 -472 0
-422 -473 0
-422 -474 0
-422 -475 0
-422 -496 0
-422 -497 0
-422 -498 0
-422 -499 0
-422 -500 0
-423 -424 0
-423 -425 0
-423 -446 0
-423 -447 0
-423 -448 0
-423 -449 0
-423 -450 0
-423 -471 0
-423 -472 0
-423 -473 0
-423 -474 0
-423 -475 0
-423 -496 0
-423 -497 0
-423 -498 0
-423 -499 0
-423 -500 0
-424 -425 0
-424 -446 0
-424 -447 0
-424 -448 0
-424 -449 0
-424 -450 0
-424 -471 0
-424 -472 0
-424 -473 0
-424 -474 0
-424 -475 0
-424 -496 0
-424 -497 0
-424 -498 0
-424 -499 0
-424 -500 0
-425 -446 0
-425 -447 0
-425 -448 0
-425 -449 0
-425 -450 0
-425 -471 0
-425 -472 0
-425 -473 0
-425 -474 0
-425 -475 0
-425 -496 0
-425 -497 0
-425 -498 0
-425 -499 0
-425 -500 0
-446 -447 0
-446 -448 0
-446 -449 0
-446 -450 0
-446 -471 0
-446 -472 0
-446 -473 0
-446 -474 0
-446 -475 0
-446 -496 0
-446 -497 0
-446 -498 0
-446 -499 0
-446 -500 0
-447 -448 0
-447 -449 0
-447 -450 0
-447 -471 0
-447 -472 0
-447 -473 0
-447 -474 0
-447 -475 0
-447 -496 0
-447 -497 0
-447 -498 0
-447 -499 0
-447 -500 0
-448 -449 0
-448 -450 0
-448 -471 0
-448 -472 0
-448 -473 0
-448 -474 0
-448 -475 0
-448 -496 0
-448 -497 0
-448 -498 0
-448 -499 0
-448 -500 0
-449 -450 0
-449 -471 0
-449 -472 0
-449 -473 0
-449 -474 0
-449 -475 0
-449 -496 0
-449 -497 0
-449 -498 0
-449 -499 0
-449 -500 0
-450 -471 0
-450 -472 0
-450 -473 0
-450 -474 0
-450 -475 0
-450 -496 0
-450 -497 0
-450 -498 0
-450 -499 0
-450 -500 0
-471 -472 0
-471 -473 0
-471 -474 0
-471 -475 0
-471 -496 0
-471 -497 0
-471 -498 0
-471 -499 0
-471 -500 0
-472 -473 0
-472 -474 0
-472 -475 0
-472 -496 0
-472 -497 0
-472 -498 0
-472 -499 0
-472 -500 0
-473 -474 0
-473 -475 0
-473 -496 0
-473 -497 0
-473 -498 0
-473 -499 0
-473 -500 0
-474 -475 0
-474 -496 0
-474 -497 0
-474 -498 0
-474 -499 0
-474 -500 0
-475 -496 0
-475 -497 0
-475 -498 0
-475 -499 0
-475 -500 0
-496 -497 0
-496 -498 0
-496 -499 0
-496 -500 0
-497 -498 0
-497 -499 0
-497 -500 0
-498 -499 0
-498 -500 0
-499 -500 0
501 502 503 504 505 526 527 528 529 530 551 552 553 554 555 576 577 578 579 580 601 602 603 604 605 0
-501 -502 0
-501 -503 0
-501 -504 0
-501 -505 0
-501 -526 0
-501 -527 0
-501 -528 0
-501 -529 0
-501 -530 0
-501 -551 0
-501 -552 0
-501 -553 0
-501 -554 0
-501 -555 0
-501 -576 0
-501 -577 0
-501 -578 0
-501 -579 0
-501 -580 0
-501 -601 0
-501 -602 0
-501 -603 0
-501 -604 0
-501 -605 0
-502 -503 0
-502 -504 0
-502 -505 0
-502 -526 0
-502 -527 0
-502 -528 0
-502 -529 0
-502 -530 0
-502 -551 0
-502 -552 0
-502 -553 0
-502 -554 0
-502 -555 0
-502 -576 0
-502 -577 0
-502 -578 0
-502 -579 0
-502 -580 0
-502 -601 0
-502 -602 0
-502 -603 0
-502 -604 0
-502 -605 0
-503 -504 0
-503 -505 0
-503 -526 0
-503 -527 0
-503 -528 0
-503 -529 0
-503 -530 0
-503 -551 0
-503 -552 0
-503 -553 0
-503 -554 0
-503 -555 0
-503 -576 0
-503 -577 0
-503 -578 0
-503 -579 0
-503 -580 0
-503 -601 0
-503 -602 0
-503 -603 0
-503 -604 0
-503 -605 0
-504 -505 0
-504 -526 0
-504 -527 0
-504 -528 0
-504 -529 0
-504 -530 0
-504 -551 0
-504 -552 0
-504 -553 0
-504 -554 0
-504 -555 0
-504 -576 0
-504 -577 0
-504 -578 0
-504 -579 0
-504 -580 0
-504 -601 0
-504 -602 0
-504 -603 0
-504 -604 0
-504 -605 0
-505 -526 0
-505 -527 0
-505 -528 0
-505 -529 0
-505 -530 0
-505 -551 0
-505 -552 0
-505 -553 0
-505 -554 0
-505 -555 0
-505 -576 0
-505 -577 0
-505 -578 0
-505 -579 0
-505 -580 0
-505 -601 0
-505 -602 0
-505 -603 0
-505 -604 0
-505 -605 0
-526 -527 0
-526 -528 0
-526 -529 0
-526 -530 0
-526 -551 0
-526 -552 0
-526 -553 0
-526 -554 0
-526 -555 0
-526 -576 0
-526 -577 0
-526 -578 0
-526 -579 0
-526 -580 0
-526 -601 0
-526 -602 0
-526 -603 0
-526 -604 0
-526 -605 0
-527 -528 0
-527 -529 0
-527 -530 0
-527 -551 0
-527 -552 0
-527 -553 0
-527 -554 0
-527 -555 0
-527 -576 0
-527 -577 0
-527 -578 0
-527 -579 0
-527 -580 0
-527 -601 0
-527 -602 0
-527 -603 0
-527 -604 0
-527 -605 0
-528 -529 0
-528 -530 0
-528 -551 0
-528 -552 0
-528 -553 0
-528 -554 0
-528 -555 0
-528 -576 0
-528 -577 0
-528 -578 0
-528 -579 0
-528 -580 0
-528 -601 0
-528 -602 0
-528 -603 0
-528 -604 0
-528 -605 0
-529 -530 0
-529 -551 0
-529 -552 0
-529 -553 0
-529 -554 0
-529 -555 0
-529 -576 0
-529 -577 0
-529 -578 0
-529 -579 0
-529 -580 0
-529 -601 0
-529 -602 0
-529 -603 0
-529 -604 0
-529 -605 0
-530 -551 0
-530 -552 0
-530 -553 0
-530 -554 0
-530 -555 0
-530 -576 0
-530 -577 0
-530 -578 0
-530 -579 0
-530 -580 0
-530 -601 0
-530 -602 0
-530 -603 0
-530 -604 0
-530 -605 0
-551 -552 0
-551 -553 0
-551 -554 0
-551 -555 0
-551 -576 0
-551 -577 0
-551 -578 0
-551 -579 0
-551 -580 0
-551 -601 0
-551 -602 0
-551 -603 0
-551 -604 0
-551 -605 0
-552 -553 0
-552 -554 0
-552 -555 0
-552 -576 0
-552 -577 0
-552 -578 0
-552 -579 0
-552 -580 0
-552 -601 0
-552 -602 0
-552 -603 0
-552 -604 0
-552 -605 0
-553 -554 0
-553 -555 0
-553 -576 0
-553 -577 0
-553 -578 0
-553 -579 0
-553 -580 0
-553 -601 0
-553 -602 0
-553 -603 0
-553 -604 0
-553 -605 0
-554 -555 0
-554 -576 0
-554 -577 0
-554 -578 0
-554 -579 0
-554 -580 0
-554 -601 0
-554 -602 0
-554 -603 0
-554 -604 0
-554 -605 0
-555 -576 0
-555 -577 0
-555 -578 0
-555 -579 0
-555 -580 0
-555 -601 0
-555 -602 0
-555 -603 0
-555 -604 0
-555 -605 0
-576 -577 0
-576 -578 0
-576 -579 0
-576 -580 0
-576 -601 0
-576 -602 0
-576 -603 0
-576 -604 0
-576 -605 0
-577 -578 0
-577 -579 0
-577 -580 0
-577 -601 0
-577 -602 0
-577 -603 0
-577 -604 0
-577 -605 0
-578 -579 0
-578 -580 0
-578 -601 0
-578 -602 0
-578 -603 0
-578 -604 0
-578 -605 0
-579 -580 0
-579 -601 0
-579 -602 0
-579 -603 0
-579 -604 0
-579 -605 0
-580 -601 0
-580 -602 0
-580 -603 0
-580 -604 0
-580 -605 0
-601 -602 0
-601 -603 0
-601 -604 0
-601 -605 0
-602 -603 0
-602 -604 0
-602 -605 0
-603 -604 0
-603 -605 0
-604 -605 0
506 507 508 509 510 531 532 533 534 535 556 557 558 559 560 581 582 583 584 585 606 607 608 609 610 0
-506 -507 0
-506 -508 0
-506 -509 0
-506 -510 0
-506 -531 0
-506 -532 0
-506 -533 0
-506 -534 0
-506 -535 0
-506 -556 0
-506 -557 0
-506 -558 0
-506 -559 0
-506 -560 0
-506 -581 0
-506 -582 0
-506 -583 0
-506 -584 0
-506 -585 0
-506 -606 0
-506 -607 0
-506 -608 0
-506 -609 0
-506 -610 0
-507 -508 0
-507 -509 0
-507 -510 0
-507 -531 0
-507 -532 0
-507 -533 0
-507 -534 0
-507 -535 0
-507 -556 0
-507 -557 0
-507 -558 0
-507 -559 0
-507 -560 0
-507 -581 0
-507 -582 0
-507 -583 0
-507 -584 0
-507 -585 0
-507 -606 0
-507 -607 0
-507 -608 0
-507 -609 0
-507 -610 0
-508 -509 0
-508 -510 0
-508 -531 0
-508 -532 0
-508 -533 0
-508 -534 0
-508 -535 0
-508 -556 0
-508 -557 0
-508 -558 0
-508 -559 0
-508 -560 0
-508 -581 0
-508 -582 0
-508 -583 0
-508 -584 0
-508 -585 0
-508 -606 0
-508 -607 0
-508 -608 0
-508 -609 0
-508 -610 0
-509 -510 0
-509 -531 0
-509 -532 0
-509 -533 0
-509 -534 0
-509 -535 0
-509 -556 0
-509 -557 0
-509 -558 0
-509 -559 0
-509 -560 0
-509 -581 0
-509 -582 0
-509 -583 0
-509 -584 0
-509 -585 0
-509 -606 0
-509 -607 0
-509 -608 0
-509 -609 0
-509 -610 0
-510 -531 0
-510 -532 0
-510 -533 0
-510 -534 0
-510 -535 0
-510 -556 0
-510 -557 0
-510 -558 0
-510 -559 0
-510 -560 0
-510 -581 0
-510 -582 0
-510 -583 0
-510 -584 0
-510 -585 0
-510 -606 0
-510 -607 0
-510 -608 0
-510 -609 0
-510 -610 0
-531 -532 0
-531 -533 0
-531 -534 0
-531 -535 0
-531 -556 0
-531 -557 0
-531 -558 0
-531 -559 0
-531 -560 0
-531 -581 0
-531 -582 0
-531 -583 0
-531 -584 0
-531 -585 0
-531 -606 0
-531 -607 0
-531 -608 0
-531 -609 0
-531 -610 0
-532 -533 0
-532 -534 0
-532 -535 0
-532 -556 0
-532 -557 0
-532 -558 0
-532 -559 0
-532 -560 0
-532 -581 0
-532 -582 0
-532 -583 0
-532 -584 0
-532 -585 0
-532 -606 0
-532 -607 0
-532 -608 0
-532 -609 0
-532 -610 0
-533 -534 0
-533 -535 0
-533 -556 0
-533 -557 0
-533 -558 0
-533 -559 0
-533 -560 0
-533 -581 0
-533 -582 0
-533 -583 0
-533 -584 0
-533 -585 0
-533 -606 0
-533 -607 0
-533 -608 0
-533 -609 0
-533 -610 0
-534 -535 0
-534 -556 0
-534 -557 0
-534 -558 0
-534 -559 0
-534 -560 0
-534 -581 0
-534 -582 0
-534 -583 0
-534 -584 0
-534 -585 0
-534 -606 0
-534 -607 0
-534 -608 0
-534 -609 0
-534 -610 0
-535 -556 0
-535 -557 0
-535 -558 0
-535 -559 0
-535 -560 0
-535 -581 0
-535 -582 0
-535 -583 0
-535 -584 0
-535 -585 0
-535 -606 0
-535 -607 0
-535 -608 0
-535 -609 0
-535 -610 0
-556 -557 0
-556 -558 0
-556 -559 0
-556 -560 0
-556 -581 0
-556 -582 0
-556 -583 0
-556 -584 0
-556 -585 0
-556 -606 0
-556 -607 0
-556 -608 0
-556 -609 0
-556 -610 0
-557 -558 0
-557 -559 0
-557 -560 0
-557 -581 0
-557 -582 0
-557 -583 0
-557 -584 0
-557 -585 0
-557 -606 0
-557 -607 0
-557 -608 0
-557 -609 0
-557 -610 0
-558 -559 0
-558 -560 0
-558 -581 0
-558 -582 0
-558 -583 0
-558 -584 0
-558 -585 0
-558 -606 0
-558 -607 0
-558 -608 0
-558 -609 0
-558 -610 0
-559 -560 0
-559 -581 0
-559 -582 0
-559 -583 0
-559 -584 0
-559 -585 0
-559 -606 0
-559 -607 0
-559 -608 0
-559 -609 0
-559 -610 0
-560 -581 0
-560 -582 0
-560 -583 0
-560 -584 0
-560 -585 0
-560 -606 0
-560 -607 0
-560 -608 0
-560 -609 0
-560 -610 0
-581 -582 0
-581 -583 0
-581 -584 0
-581 -585 0
-581 -606 0
-581 -607 0
-581 -608 0
-581 -609 0
-581 -610 0
-582 -583 0
-582 -584 0
-582 -585 0
-582 -606 0
-582 -607 0
-582 -608 0
-582 -609 0
-582 -610 0
-583 -584 0
-583 -585 0
-583 -606 0
-583 -607 0
-583 -608 0
-583 -609 0
-583 -610 0
-584 -585 0
-584 -606 0
-584 -607 0
-584 -608 0
-584 -609 0
-584 -610 0
-585 -606 0
-585 -607 0
-585 -608 0
-585 -609 0
-585 -610 0
-606 -607 0
-606 -608 0
-606 -609 0
-606 -610 0
-607 -608 0
-607 -609 0
-607 -610 0
-608 -609 0
-608 -610 0
-609 -610 0
511 512 513 514 515 536 537 538 539 540 561 562 563 564 565 586 587 588 589 590 611 612 613 614 615 0
-511 -512 0
-511 -513 0
-511 -514 0
-511 -515 0
-511 -536 0
-511 -537 0
-511 -538 0
-511 -539 0
-511 -540 0
-511 -561 0
-511 -562 0
-511 -563 0
-511 -564 0
-511 -565 0
-511 -586 0
-511 -587 0
-511 -588 0
-511 -589 0
-511 -590 0
-511 -611 0
-511 -612 0
-511 -613 0
-511 -614 0
-511 -615 0
-512 -513 0
-512 -514 0
-512 -515 0
-512 -536 0
-512 -537 0
-512 -538 0
-512 -539 0
-512 -540 0
-512 -561 0
-512 -562 0
-512 -563 0
-512 -564 0
-512 -565 0
-512 -586 0
-512 -587 0
-512 -588 0
-512 -589 0
-512 -590 0
-512 -611 0
-512 -612 0
-512 -613 0
-512 -614 0
-512 -615 0
-513 -514 0
-513 -515 0
-513 -536 0
-513 -537 0
-513 -538 0
-513 -539 0
-513 -540 0
-513 -561 0
-513 -562 0
-513 -563 0
-513 -564 0
-513 -565 0
-513 -586 0
-513 -587 0
-513 -588 0
-513 -589 0
-513 -590 0
-513 -611 0
-513 -612 0
-513 -613 0
-513 -614 0
-513 -615 0
-514 -515 0
-514 -536 0
-514 -537 0
-514 -538 0
-514 -539 0
-514 -540 0
-514 -561 0
-514 -562 0
-514 -563 0
-514 -564 0
-514 -565 0
-514 -586 0
-514 -587 0
-514 -588 0
-514 -589 0
-514 -590 0
-514 -611 0
-514 -612 0
-514 -613 0
-514 -614 0
-514 -615 0
-515 -536 0
-515 -537 0
-515 -538 0
-515 -539 0
-515 -540 0
-515 -561 0
-515 -562 0
-515 -563 0
-515 -564 0
-515 -565 0
-515 -586 0
-515 -587 0
-515 -588 0
-515 -589 0
-515 -590 0
-515 -611 0
-515 -612 0
-515 -613 0
-515 -614 0
-515 -615 0
-536 -537 0
-536 -538 0
-536 -539 0
-536 -540 0
-536 -561 0
-536 -562 0
-536 -563 0
-536 -564 0
-536 -565 0
-536 -586 0
-536 -587 0
-536 -588 0
-536 -589 0
-536 -590 0
-536 -611 0
-536 -612 0
-536 -613 0
-536 -614 0
-536 -615 0
-537 -538 0
-537 -539 0
-537 -540 0
-537 -561 0
-537 -562 0
-537 -563 0
-537 -564 0
-537 -565 0
-537 -586 0
-537 -587 0
-537 -588 0
-537 -589 0
-537 -590 0
-537 -611 0
-537 -612 0
-537 -613 0
-537 -614 0
-537 -615 0
-538 -539 0
-538 -540 0
-538 -561 0
-538 -562 0
-538 -563 0
-538 -564 0
-538 -565 0
-538 -586 0
-538 -587 0
-538 -588 0
-538 -589 0
-538 -590 0
-538 -611 0
-538 -612 0
-538 -613 0
-538 -614 0
-538 -615 0
-539 -540 0
-539 -561 0
-539 -562 0
-539 -563 0
-539 -564 0
-539 -565 0
-539 -586 0
-539 -587 0
-539 -588 0
-539 -589 0
-539 -590 0
-539 -611 0
-539 -612 0
-539 -613 0
-539 -614 0
-539 -615 0
-540 -561 0
-540 -562 0
-540 -563 0
-540 -564 0
-540 -565 0
-540 -586 0
-540 -587 0
-540 -588 0
-540 -589 0
-540 -590 0
-540 -611 0
-540 -612 0
-540 -613 0
-540 -614 0
-540 -615 0
-561 -562 0
-561 -563 0
-561 -564 0
-561 -565 0
-561 -586 0
-561 -587 0
-561 -588 0
-561 -589 0
-561 -590 0
-561 -611 0
-561 -612 0
-561 -613 0
-561 -614 0
-561 -615 0
-562 -563 0
-562 -564 0
-562 -565 0
-562 -586 0
-562 -587 0
-562 -588 0
-562 -589 0
-562 -590 0
-562 -611 0
-562 -612 0
-562 -613 0
-562 -614 0
-562 -615 0
-563 -564 0
-563 -565 0
-563 -586 0
-563 -587 0
-563 -588 0
-563 -589 0
-563 -590 0
-563 -611 0
-563 -612 0
-563 -613 0
-563 -614 0
-563 -615 0
-564 -565 0
-564 -586 0
-564 -587 0
-564 -588 0
-564 -589 0
-564 -590 0
-564 -611 0
-564 -612 0
-564 -613 0
-564 -614 0
-564 -615 0
-565 -586 0
-565 -587 0
-565 -588 0
-565 -589 0
-565 -590 0
-565 -611 0
-565 -612 0
-565 -613 0
-565 -614 0
-565 -615 0
-586 -587 0
-586 -588 0
-586 -589 0
-586 -590 0
-586 -611 0
-586 -612 0
-586 -613 0
-586 -614 0
-586 -615 0
-587 -588 0
-587 -589 0
-587 -590 0
-587 -611 0
-587 -612 0
-587 -613 0
-587 -614 0
-587 -615 0
-588 -589 0
-588 -590 0
-588 -611 0
-588 -612 0
-588 -613 0
-588 -614 0
-588 -615 0
-589 -590 0
-589 -611 0
-589 -612 0
-589 -613 0
-589 -614 0
-589 -615 0
-590 -611 0
-590 -612 0
-590 -613 0
-590 -614 0
-590 -615 0
-611 -612 0
-611 -613 0
-611 -614 0
-611 -615 0
-612 -613 0
-612 -614 0
-612 -615 0
-613 -614 0
-613 -615 0
-614 -615 0
516 517 518 519 520 541 542 543 544 545 566 567 568 569 570 591 592 593 594 595 616 617 618 619 620 0
-516 -517 0
-516 -518 0
-516 -519 0
-516 -520 0
-516 -541 0
-516 -542 0
-516 -543 0
-516 -544 0
-516 -545 0
-516 -566 0
-516 -567 0
-516 -568 0
-516 -569 0
-516 -570 0
-516 -591 0
-516 -592 0
-516 -593 0
-516 -594 0
-516 -595 0
-516 -616 0
-516 -617 0
-516 -618 0
-516 -619 0
-516 -620 0
-517 -518 0
-517 -519 0
-517 -520 0
-517 -541 0
-517 -542 0
-517 -543 0
-517 -544 0
-517 -545 0
-517 -566 0
-517 -567 0
-517 -568 0
-517 -569 0
-517 -570 0
-517 -591 0
-517 -592 0
-517 -593 0
-517 -594 0
-517 -595 0
-517 -616 0
-517 -617 0
-517 -618 0
-517 -619 0
-517 -620 0
-518 -519 0
-518 -520 0
-518 -541 0
-518 -542 0
-518 -543 0
-518 -544 0
-518 -545 0
-518 -566 0
-518 -567 0
-518 -568 0
-518 -569 0
-518 -570 0
-518 -591 0
-518 -592 0
-518 -593 0
-518 -594 0
-518 -595 0
-518 -616 0
-518 -617 0
-518 -618 0
-518 -619 0
-518 -620 0
-519 -520 0
-519 -541 0
-519 -542 0
-519 -543 0
-519 -544 0
-519 -545 0
-519 -566 0
-519 -567 0
-519 -568 0
-519 -569 0
-519 -570 0
-519 -591 0
-519 -592 0
-519 -593 0
-519 -594 0
-519 -595 0
-519 -616 0
-519 -617 0
-519 -618 0
-519 -619 0
-519 -620 0
-520 -541 0
-520 -542 0
-520 -543 0
-520 -544 0
-520 -545 0
-520 -566 0
-520 -567 0
-520 -568 0
-520 -569 0
-520 -570 0
-520 -591 0
-520 -592 0
-520 -593 0
-520 -594 0
-520 -595 0
-520 -616 0
-520 -617 0
-520 -618 0
-520 -619 0
-520 -620 0
-541 -542 0
-541 -543 0
-541 -544 0
-541 -545 0
-541 -566 0
-541 -567 0
-541 -568 0
-541 -569 0
-541 -570 0
-541 -591 0
-541 -592 0
-541 -593 0
-541 -594 0
-541 -595 0
-541 -616 0
-541 -617 0
-541 -618 0
-541 -619 0
-541 -620 0
-542 -543 0
-542 -544 0
-542 -545 0
-542 -566 0
-542 -567 0
-542 -568 0
-542 -569 0
-542 -570 0
-542 -591 0
-542 -592 0
-542 -593 0
-542 -594 0
-542 -595 0
-542 -616 0
-542 -617 0
-542 -618 0
-542 -619 0
-542 -620 0
-543 -544 0
-543 -545 0
-543 -566 0
-543 -567 0
-543 -568 0
-543 -569 0
-543 -570 0
-543 -591 0
-543 -592 0
-543 -593 0
-543 -594 0
-543 -595 0
-543 -616 0
-543 -617 0
-543 -618 0
-543 -619 0
-543 -620 0
-544 -545 0
-544 -566 0
-544 -567 0
-544 -568 0
-544 -569 0
-544 -570 0
-544 -591 0
-544 -592 0
-544 -593 0
-544 -594 0
-544 -595 0
-544 -616 0
-544 -617 0
-544 -618 0
-544 -619 0
-544 -620 0
-545 -566 0
-545 -567 0
-545 -568 0
-545 -569 0
-545 -570 0
-545 -591 0
-545 -592 0
-545 -593 0
-545 -594 0
-545 -595 0
-545 -616 0
-545 -617 0
-545 -618 0
-545 -619 0
-545 -620 0
-566 -567 0
-566 -568 0
-566 -569 0
-566 -570 0
-566 -591 0
-566 -592 0
-566 -593 0
-566 -594 0
-566 -595 0
-566 -616 0
-566 -617 0
-566 -618 0
-566 -619 0
-566 -620 0
-567 -568 0
-567 -569 0
-567 -570 0
-567 -591 0
-567 -592 0
-567 -593 0
-567 -594 0
-567 -595 0
-567 -616 0
-567 -617 0
-567 -618 0
-567 -619 0
-567 -620 0
-568 -569 0
-568 -570 0
-568 -591 0
-568 -592 0
-568 -593 0
-568 -594 0
-568 -595 0
-568 -616 0
-568 -617 0
-568 -618 0
-568 -619 0
-568 -620 0
-569 -570 0
-569 -591 0
-569 -592 0
-569 -593 0
-569 -594 0
-569 -595 0
-569 -616 0
-569 -617 0
-569 -618 0
-569 -619 0
-569 -620 0
-570 -591 0
-570 -592 0
-570 -593 0
-570 -594 0
-570 -595 0
-570 -616 0
-570 -617 0
-570 -618 0
-570 -619 0
-570 -620 0
-591 -592 0
-591 -593 0
-591 -594 0
-591 -595 0
-591 -616 0
-591 -617 0
-591 -618 0
-591 -619 0
-591 -620 0
-592 -593 0
-592 -594 0
-592 -595 0
-592 -616 0
-592 -617 0
-592 -618 0
-592 -619 0
-592 -620 0
-593 -594 0
-593 -595 0
-593 -616 0
-593 -617 0
-593 -618 0
-593 -619 0
-593 -620 0
-594 -595 0
-594 -616 0
-594 -617 0
-594 -618 0
-594 -619 0
-594 -620 0
-595 -616 0
-595 -617 0
-595 -618 0
-595 -619 0
-595 -620 0
-616 -617 0
-616 -618 0
-616 -619 0
-616 -620 0
-617 -618 0
-617 -619 0
-617 -620 0
-618 -619 0
-618 -620 0
-619 -620 0
521 522 523 524 525 546 547 548 549 550 571 572 573 574 575 596 597 598 599 600 621 622 623 624 625 0
-521 -522 0
-521 -523 0
-521 -524 0
-521 -525 0
-521 -546 0
-521 -547 0
-521 -548 0
-521 -549 0
-521 -550 0
-521 -571 0
-521 -572 0
-521 -573 0
-521 -574 0
-521 -575 0
-521 -596 0
-521 -597 0
-521 -598 0
-521 -599 0
-521 -600 0
-521 -621 0
-521 -622 0
-521 -623 0
-521 -624 0
-521 -625 0
-522 -523 0
-522 -524 0
-522 -525 0
-522 -546 0
-522 -547 0
-522 -548 0
-522 -549 0
-522 -550 0
-522 -571 0
-522 -572 0
-522 -573 0
-522 -574 0
-522 -575 0
-522 -596 0
-522 -597 0
-522 -598 0
-522 -599 0
-522 -600 0
-522 -621 0
-522 -622 0
-522 -623 0
-522 -624 0
-522 -625 0
-523 -524 0
-523 -525 0
-523 -546 0
-523 -547 0
-523 -548 0
-523 -549 0
-523 -550 0
-523 -571 0
-523 -572 0
-523 -573 0
-523 -574 0
-523 -575 0
-523 -596 0
-523 -597 0
-523 -598 0
-523 -599 0
-523 -600 0
-523 -621 0
-523 -622 0
-523 -623 0
-523 -624 0
-523 -625 0
-524 -525 0
-524 -546 0
-524 -547 0
-524 -548 0
-524 -549 0
-524 -550 0
-524 -571 0
-524 -572 0
-524 -573 0
-524 -574 0
-524 -575 0
-524 -596 0
-524 -597 0
-524 -598 0
-524 -599 0
-524 -600 0
-524 -621 0
-524 -622 0
-524 -623 0
-524 -624 0
-524 -625 0
-525 -546 0
-525 -547 0
-525 -548 0
-525 -549 0
-525 -550 0
-525 -571 0
-525 -572 0
-525 -573 0
-525 -574 0
-525 -575 0
-525 -596 0
-525 -597 0
-525 -598 0
-525 -599 0
-525 -600 0
-525 -621 0
-525 -622 0
-525 -623 0
-525 -624 0
-525 -625 0
-546 -547 0
-546 -548 0
-546 -549 0
-546 -550 0
-546 -571 0
-546 -572 0
-546 -573 0
-546 -574 0
-546 -575 0
-546 -596 0
-546 -597 0
-546 -598 0
-546 -599 0
-546 -600 0
-546 -621 0
-546 -622 0
-546 -623 0
-546 -624 0
-546 -625 0
-547 -548 0
-547 -549 0
-547 -550 0
-547 -571 0
-547 -572 0
-547 -573 0
-547 -574 0
-547 -575 0
-547 -596 0
-547 -597 0
-547 -598 0
-547 -599 0
-547 -600 0
-547 -621 0
-547 -622 0
-547 -623 0
-547 -624 0
-547 -625 0
-548 -549 0
-548 -550 0
-548 -571 0
-548 -572 0
-548 -573 0
-548 -574 0
-548 -575 0
-548 -596 0
-548 -597 0
-548 -598 0
-548 -599 0
-548 -600 0
-548 -621 0
-548 -622 0
-548 -623 0
-548 -624 0
-548 -625 0
-549 -550 0
-549 -571 0
-549 -572 0
-549 -573 0
-549 -574 0
-549 -575 0
-549 -596 0
-549 -597 0
-549 -598 0
-549 -599 0
-549 -600 0
-549 -621 0
-549 -622 0
-549 -623 0
-549 -624 0
-549 -625 0
-550 -571 0
-550 -572 0
-550 -573 0
-550 -574 0
-550 -575 0
-550 -596 0
-550 -597 0
-550 -598 0
-550 -599 0
-550 -600 0
-550 -621 0
-550 -622 0
-550 -623 0
-550 -624 0
-550 -625 0
-571 -572 0
-571 -573 0
-571 -574 0
-571 -575 0
-571 -596 0
-571 -597 0
-571 -598 0
-571 -599 0
-571 -600 0
-571 -621 0
-571 -622 0
-571 -623 0
-571 -624 0
-571 -625 0
-572 -573 0
-572 -574 0
-572 -575 0
-572 -596 0
-572 -597 0
-572 -598 0
-572 -599 0
-572 -600 0
-572 -621 0
-572 -622 0
-572 -623 0
-572 -624 0
-572 -625 0
-573 -574 0
-573 -575 0
-573 -596 0
-573 -597 0
-573 -598 0
-573 -599 0
-573 -600 0
-573 -621 0
-573 -622 0
-573 -623 0
-573 -624 0
-573 -625 0
-574 -575 0
-574 -596 0
-574 -597 0
-574 -598 0
-574 -599 0
-574 -600 0
-574 -621 0
-574 -622 0
-574 -623 0
-574 -624 0
-574 -625 0
-575 -596 0
-575 -597 0
-575 -598 0
-575 -599 0
-575 -600 0
-575 -621 0
-575 -622 0
-575 -623 0
-575 -624 0
-575 -625 0
-596 -597 0
-596 -598 0
-596 -599 0
-596 -600 0
-596 -621 0
-596 -622 0
-596 -623 0
-596 -624 0
-596 -625 0
-597 -598 0
-597 -599 0
-597 -600 0
-597 -621 0
-597 -622 0
-597 -623 0
-597 -624 0
-597 -625 0
-598 -599 0
-598 -600 0
-598 -621 0
-598 -622 0
-598 -623 0
-598 -624 0
-598 -625 0
-599 -600 0
-599 -621 0
-599 -622 0
-599 -623 0
-599 -624 0
-599 -625 0
-600 -621 0
-600 -622 0
-600 -623 0
-600 -624 0
-600 -625 0
-621 -622 0
-621 -623 0
-621 -624 0
-621 -625 0
-622 -623 0
-622 -624 0
-622 -625 0
-623 -624 0
-623 -625 0
-624 -625 0
1 2 3 4 5 126 127 128 129 130 251 252 253 254 255 376 377 378 379 380 501 502 503 504 505 0
-1 -2 0
-1 -3 0
-1 -4 0
-1 -5 0
-1 -126 0
-1 -127 0
-1 -128 0
-1 -129 0
-1 -130 0
-1 -251 0
-1 -252 0
-1 -253 0
-1 -254 0
-1 -255 0
-1 -376 0
-1 -377 0
-1 -378 0
-1 -379 0
-1 -380 0
-1 -501 0
-1 -502 0
-1 -503 0
-1 -504 0
-1 -505 0
-2 -3 0
-2 -4 0
-2 -5 0
-2 -126 0
-2 -127 0
-2 -128 0
-2 -129 0
-2 -130 0
-2 -251 0
-2 -252 0
-2 -253 0
-2 -254 0
-2 -255 0
-2 -376 0
-2 -377 0
-2 -378 0
-2 -379 0
-2 -380 0
-2 -501 0
-2 -502 0
-2 -503 0
-2 -504 0
-2 -505 0
-3 -4 0
-3 -5 0
-3 -126 0
-3 -127 0
-3 -128 0
-3 -129 0
-3 -130 0
-3 -251 0
-3 -252 0
-3 -253 0
-3 -254 0
-3 -255 0
-3 -376 0
-3 -377 0
-3 -378 0
-3 -379 0
-3 -380 0
-3 -501 0
-3 -502 0
-3 -503 0
-3 -504 0
-3 -505 0
-4 -5 0
-4 -126 0
-4 -127 0
-4 -128 0
-4 -129 0
-4 -130 0
-4 -251 0
-4 -252 0
-4 -253 0
-4 -254 0
-4 -255 0
-4 -376 0
-4 -377 0
-4 -378 0
-4 -379 0
-4 -380 0
-4 -501 0
-4 -502 0
-4 -503 0
-4 -504 0
-4 -505 0
-5 -126 0
-5 -127 0
-5 -128 0
-5 -129 0
-5 -130 0
-5 -251 0
-5 -252 0
-5 -253 0
-5 -254 0
-5 -255 0
-5 -376 0
-5 -377 0
-5 -378 0
-5 -379 0
-5 -380 0
-5 -501 0
-5 -502 0
-5 -503 0
-5 -504 0
-5 -505 0
-126 -127 0
-126 -128 0
-126 -129 0
-126 -130 0
-126 -251 0
-126 -252 0
-126 -253 0
-126 -254 0
-126 -255 0
-126 -376 0
-126 -377 0
-126 -378 0
-126 -379 0
-126 -380 0
-126 -501 0
-126 -502 0
-126 -503 0
-126 -504 0
-126 -505 0
-127 -128 0
-127 -129 0
-127 -130 0
-127 -251 0
-127 -252 0
-127 -253 0
-127 -254 0
-127 -255 0
-127 -376 0
-127 -377 0
-127 -378 0
-127 -379 0
-127 -380 0
-127 -501 0
-127 -502 0
-127 -503 0
-127 -504 0
-127 -505 0
-128 -129 0
-128 -130 0
-128 -251 0
-128 -252 0
-128 -253 0
-128 -254 0
-128 -255 0
-128 -376 0
-128 -377 0
-128 -378 0
-128 -379 0
-128 -380 0
-128 -501 0
-128 -502 0
-128 -503 0
-128 -504 0
-128 -505 0
-129 -130 0
-129 -251 0
-129 -252 0
-129 -253 0
-129 -254 0
-129 -255 0
-129 -376 0
-129 -377 0
-129 -378 0
-129 -379 0
-129 -380 0
-129 -501 0
-129 -502 0
-129 -503 0
-129 -504 0
-129 -505 0
-130 -251 0
-130 -252 0
-130 -253 0
-130 -254 0
-130 -255 0
-130 -376 0
-130 -377 0
-130 -378 0
-130 -379 0
-130 -380 0
-130 -501 0
-130 -502 0
-130 -503 0
-130 -504 0
-130 -505 0
-251 -252 0
-251 -253 0
-251 -254 0
-251 -255 0
-251 -376 0
-251 -377 0
-251 -378 0
-251 -379 0
-251 -380 0
-251 -501 0
-251 -502 0
-251 -503 0
-251 -504 0
-251 -505 0
-252 -253 0
-252 -254 0
-252 -255 0
-252 -376 0
-252 -377 0
-252 -378 0
-252 -379 0
-252 -380 0
-252 -501 0
-252 -502 0
-252 -503 0
-252 -504 0
-252 -505 0
-253 -254 0
-253 -255 0
-253 -376 0
-253 -377 0
-253 -378 0
-253 -379 0
-253 -380 0
-253 -501 0
-253 -502 0
-253 -503 0
-253 -504 0
-253 -505 0
-254 -255 0
-254 -376 0
-254 -377 0
-254 -378 0
-254 -379 0
-254 -380 0
-254 -501 0
-254 -502 0
-254 -503 0
-254 -504 0
-254 -505 0
-255 -376 0
-255 -377 0
-255 -378 0
-255 -379 0
-255 -380 0
-255 -501 0
-255 -502 0
-255 -503 0
-255 -504 0
-255 -505 0
-376 -377 0
-376 -378 0
-376 -379 0
-376 -380 0
-376 -501 0
-376 -502 0
-376 -503 0
-376 -504 0
-376 -505 0
-377 -378 0
-377 -379 0
-377 -380 0
-377 -501 0
-377 -502 0
-377 -503 0
-377 -504 0
-377 -505 0
-378 -379 0
-378 -380 0
-378 -501 0
-378 -502 0
-378 -503 0
-378 -504 0
-378 -505 0
-379 -380 0
-379 -501 0
-379 -502 0
-379 -503 0
-379 -504 0
-379 -505 0
-380 -501 0
-380 -502 0
-380 -503 0
-380 -504 0
-380 -505 0
-501 -502 0
-501 -503 0
-501 -504 0
-501 -505 0
-502 -503 0
-502 -504 0
-502 -505 0
-503 -504 0
-503 -505 0
-504 -505 0
6 7 8 9 10 131 132 133 134 135 256 257 258 259 260 381 382 383 384 385 506 507 508 509 510 0
-6 -7 0
-6 -8 0
-6 -9 0
-6 -10 0
-6 -131 0
-6 -132 0
-6 -133 0
-6 -134 0
-6 -135 0
-6 -256 0
-6 -257 0
-6 -258 0
-6 -259 0
-6 -260 0
-6 -381 0
-6 -382 0
-6 -383 0
-6 -384 0
-6 -385 0
-6 -506 0
-6 -507 0
-6 -508 0
-6 -509 0
-6 -510 0
-7 -8 0
-7 -9 0
-7 -10 0
-7 -131 0
-7 -132 0
-7 -133 0
-7 -134 0
-7 -135 0
-7 -256 0
-7 -257 0
-7 -258 0
-7 -259 0
-7 -260 0
-7 -381 0
-7 -382 0
-7 -383 0
-7 -384 0
-7 -385 0
-7 -506 0
-7 -507 0
-7 -508 0
-7 -509 0
-7 -510 0
-8 -9 0
-8 -10 0
-8 -131 0
-8 -132 0
-8 -133 0
-8 -134 0
-8 -135 0
-8 -256 0
-8 -257 0
-8 -258 0
-8 -259 0
-8 -260 0
-8 -381 0
-8 -382 0
-8 -383 0
-8 -384 0
-8 -385 0
-8 -506 0
-8 -507 0
-8 -508 0
-8 -509 0
-8 -510 0
-9 -10 0
-9 -131 0
-9 -132 0
-9 -133 0
-9 -134 0
-9 -135 0
-9 -256 0
-9 -257 0
-9 -258 0
-9 -259 0
-9 -260 0
-9 -381 0
-9 -382 0
-9 -383 0
-9 -384 0
-9 -385 0
-9 -506 0
-9 -507 0
-9 -508 0
-9 -509 0
-9 -510 0
-10 -131 0
-10 -132 0
-10 -133 0
-10 -134 0
-10 -135 0
-10 -256 0
-10 -257 0
-10 -258 0
-10 -259 0
-10 -260 0
-10 -381 0
-10 -382 0
-10 -383 0
-10 -384 0
-10 -385 0
-10 -506 0
-10 -507 0
-10 -508 0
-10 -509 0
-10 -510 0
-131 -132 0
-131 -133 0
-131 -134 0
-131 -135 0
-131 -256 0
-131 -257 0
-131 -258 0
-131 -259 0
-131 -260 0
-131 -381 0
-131 -382 0
-131 -383 0
-131 -384 0
-131 -385 0
-131 -506 0
-131 -507 0
-131 -508 0
-131 -509 0
-131 -510 0
-132 -133 0
-132 -134 0
-132 -135 0
-132 -256 0
-132 -257 0
-132 -258 0
-132 -259 0
-132 -260 0
-132 -381 0
-132 -382 0
-132 -383 0
-132 -384 0
-132 -385 0
-132 -506 0
-132 -507 0
-132 -508 0
-132 -509 0
-132 -510 0
-133 -134 0
-133 -135 0
-133 -256 0
-133 -257 0
-133 -258 0
-133 -259 0
-133 -260 0
-133 -381 0
-133 -382 0
-133 -383 0
-133 -384 0
-133 -385 0
-133 -506 0
-133 -507 0
-133 -508 0
-133 -509 0
-133 -510 0
-134 -135 0
-134 -256 0
-134 -257 0
-134 -258 0
-134 -259 0
-134 -260 0
-134 -381 0
-134 -382 0
-134 -383 0
-134 -384 0
-134 -385 0
-134 -506 0
-134 -507 0
-134 -508 0
-134 -509 0
-134 -510 0
-135 -256 0
-135 -257 0
-135 -258 0
-135 -259 0
-135 -260 0
-135 -381 0
-135 -382 0
-135 -383 0
-135 -384 0
-135 -385 0
-135 -506 0
-135 -507 0
-135 -508 0
-135 -509 0
-135 -510 0
-256 -257 0
-256 -258 0
-256 -259 0
-256 -260 0
-256 -381 0
-256 -382 0
-256 -383 0
-256 -384 0
-256 -385 0
-256 -506 0
-256 -507 0
-256 -508 0
-256 -509 0
-256 -510 0
-257 -258 0
-257 -259 0
-257 -260 0
-257 -381 0
-257 -382 0
-257 -383 0
-257 -384 0
-257 -385 0
-257 -506 0
-257 -507 0
-257 -508 0
-257 -509 0
-257 -510 0
-258 -259 0
-258 -260 0
-258 -381 0
-258 -382 0
-258 -383 0
-258 -384 0
-258 -385 0
-258 -506 0
-258 -507 0
-258 -508 0
-258 -509 0
-258 -510 0
-259 -260 0
-259 -381 0
-259 -382 0
-259 -383 0
-259 -384 0
-259 -385 0
-259 -506 0
-259 -507 0
-259 -508 0
-259 -509 0
-259 -510 0
-260 -381 0
-260 -382 0
-260 -383 0
-260 -384 0
-260 -385 0
-260 -506 0
-260 -507 0
-260 -508 0
-260 -509 0
-260 -510 0
-381 -382 0
-381 -383 0
-381 -384 0
-381 -385 0
-381 -506 0
-381 -507 0
-381 -508 0
-381 -509 0
-381 -510 0
-382 -383 0
-382 -384 0
-382 -385 0
-382 -506 0
-382 -507 0
-382 -508 0
-382 -509 0
-382 -510 0
-383 -384 0
-383 -385 0
-383 -506 0
-383 -507 0
-383 -508 0
-383 -509 0
-383 -510 0
-384 -385 0
-384 -506 0
-384 -507 0
-384 -508 0
-384 -509 0
-384 -510 0
-385 -506 0
-385 -507 0
-385 -508 0
-385 -509 0
-385 -510 0
-506 -507 0
-506 -508 0
-506 -509 0
-506 -510 0
-507 -508 0
-507 -509 0
-507 -510 0
-508 -509 0
-508 -510 0
-509 -510 0
11 12 13 14 15 136 137 138 139 140 261 262 263 264 265 386 387 388 389 390 511 512 513 514 515 0
-11 -12 0
-11 -13 0
-11 -14 0
-11 -15 0
-11 -136 0
-11 -137 0
-11 -138 0
-11 -139 0
-11 -140 0
-11 -261 0
-11 -262 0
-11 -263 0
-11 -264 0
-11 -265 0
-11 -386 0
-11 -387 0
-11 -388 0
-11 -389 0
-11 -390 0
-11 -511 0
-11 -512 0
-11 -513 0
-11 -514 0
-11 -515 0
-12 -13 0
-12 -14 0
-12 -15 0
-12 -136 0
-12 -137 0
-12 -138 0
-12 -139 0
-12 -140 0
-12 -261 0
-12 -262 0
-12 -263 0
-12 -264 0
-12 -265 0
-12 -386 0
-12 -387 0
-12 -388 0
-12 -389 0
-12 -390 0
-12 -511 0
-12 -512 0
-12 -513 0
-12 -514 0
-12 -515 0
-13 -14 0
-13 -15 0
-13 -136 0
-13 -137 0
-13 -138 0
-13 -139 0
-13 -140 0
-13 -261 0
-13 -262 0
-13 -263 0
-13 -264 0
-13 -265 0
-13 -386 0
-13 -387 0
-13 -388 0
-13 -389 0
-13 -390 0
-13 -511 0
-13 -512 0
-13 -513 0
-13 -514 0
-13 -515 0
-14 -15 0
-14 -136 0
-14 -137 0
-14 -138 0
-14 -139 0
-14 -140 0
-14 -261 0
-14 -262 0
-14 -263 0
-14 -264 0
-14 -265 0
-14 -386 0
-14 -387 0
-14 -388 0
-14 -389 0
-14 -390 0
-14 -511 0
-14 -512 0
-14 -513 0
-14 -514 0
-14 -515 0
-15 -136 0
-15 -137 0
-15 -138 0
-15 -139 0
-15 -140 0
-15 -261 0
-15 -262 0
-15 -263 0
-15 -264 0
-15 -265 0
-15 -386 0
-15 -387 0
-15 -388 0
-15 -389 0
-15 -390 0
-15 -511 0
-15 -512 0
-15 -513 0
-15 -514 0
-15 -515 0
-136 -137 0
-136 -138 0
-136 -139 0
-136 -140 0
-136 -261 0
-136 -262 0
-136 -263 0
-136 -264 0
-136 -265 0
-136 -386 0
-136 -387 0
-136 -388 0
-136 -389 0
-136 -390 0
-136 -511 0
-136 -512 0
-136 -513 0
-136 -514 0
-136 -515 0
-137 -138 0
-137 -139 0
-137 -140 0
-137 -261 0
-137 -262 0
-137 -263 0
-137 -264 0
-137 -265 0
-137 -386 0
-137 -387 0
-137 -388 0
-137 -389 0
-137 -390 0
-137 -511 0
-137 -512 0
-137 -513 0
-137 -514 0
-137 -515 0
-138 -139 0
-138 -140 0
-138 -261 0
-138 -262 0
-138 -263 0
-138 -264 0
-138 -265 0
-138 -386 0
-138 -387 0
-138 -388 0
-138 -389 0
-138 -390 0
-138 -511 0
-138 -512 0
-138 -513 0
-138 -514 0
-138 -515 0
-139 -140 0
-139 -261 0
-139 -262 0
-139 -263 0
-139 -264 0
-139 -265 0
-139 -386 0
-139 -387 0
-139 -388 0
-139 -389 0
-139 -390 0
-139 -511 0
-139 -512 0
-139 -513 0
-139 -514 0
-139 -515 0
-140 -261 0
-140 -262 0
-140 -263 0
-140 -264 0
-140 -265 0
-140 -386 0
-140 -387 0
-140 -388 0
-140 -389 0
-140 -390 0
-140 -511 0
-140 -512 0
-140 -513 0
-140 -514 0
-140 -515 0
-261 -262 0
-261 -263 0
-261 -264 0
-261 -265 0
-261 -386 0
-261 -387 0
-261 -388 0
-261 -389 0
-261 -390 0
-261 -511 0
-261 -512 0
-261 -513 0
-261 -514 0
-261 -515 0
-262 -263 0
-262 -264 0
-262 -265 0
-262 -386 0
-262 -387 0
-262 -388 0
-262 -389 0
-262 -390 0
-262 -511 0
-262 -512 0
-262 -513 0
-262 -514 0
-262 -515 0
-263 -264 0
-263 -265 0
-263 -386 0
-263 -387 0
-263 -388 0
-263 -389 0
-263 -390 0
-263 -511 0
-263 -512 0
-263 -513 0
-263 -514 0
-263 -515 0
-264 -265 0
-264 -386 0
-264 -387 0
-264 -388 0
-264 -389 0
-264 -390 0
-264 -511 0
-264 -512 0
-264 -513 0
-264 -514 0
-264 -515 0
-265 -386 0
-265 -387 0
-265 -388 0
-265 -389 0
-265 -390 0
-265 -511 0
-265 -512 0
-265 -513 0
-265 -514 0
-265 -515 0
-386 -387 0
-386 -388 0
-386 -389 0
-386 -390 0
-386 -511 0
-386 -512 0
-386 -513 0
-386 -514 0
-386 -515 0
-387 -388 0
-387 -389 0
-387 -390 0
-387 -511 0
-387 -512 0
-387 -513 0
-387 -514 0
-387 -515 0
-388 -389 0
-388 -390 0
-388 -511 0
-388 -512 0
-388 -513 0
-388 -514 0
-388 -515 0
-389 -390 0
-389 -511 0
-389 -512 0
-389 -513 0
-389 -514 0
-389 -515 0
-390 -511 0
-390 -512 0
-390 -513 0
-390 -514 0
-390 -515 0
-511 -512 0
-511 -513 0
-511 -514 0
-511 -515 0
-512 -513 0
-512 -514 0
-512 -515 0
-513 -514 0
-513 -515 0
-514 -515 0
16 17 18 19 20 141 142 143 144 145 266 267 268 269 270 391 392 393 394 395 516 517 518 519 520 0
-16 -17 0
-16 -18 0
-16 -19 0
-16 -20 0
-16 -141 0
-16 -142 0
-16 -143 0
-16 -144 0
-16 -145 0
-16 -266 0
-16 -267 0
-16 -268 0
-16 -269 0
-16 -270 0
-16 -391 0
-16 -392 0
-16 -393 0
-16 -394 0
-16 -395 0
-16 -516 0
-16 -517 0
-16 -518 0
-16 -519 0
-16 -520 0
-17 -18 0
-17 -19 0
-17 -20 0
-17 -141 0
-17 -142 0
-17 -143 0
-17 -144 0
-17 -145 0
-17 -266 0
-17 -267 0
-17 -268 0
-17 -269 0
-17 -270 0
-17 -391 0
-17 -392 0
-17 -393 0
-17 -394 0
-17 -395 0
-17 -516 0
-17 -517 0
-17 -518 0
-17 -519 0
-17 -520 0
-18 -19 0
-18 -20 0
-18 -141 0
-18 -142 0
-18 -143 0
-18 -144 0
-18 -145 0
-18 -266 0
-18 -267 0
-18 -268 0
-18 -269 0
-18 -270 0
-18 -391 0
-18 -392 0
-18 -393 0
-18 -394 0
-18 -395 0
-18 -516 0
-18 -517 0
-18 -518 0
-18 -519 0
-18 -520 0
-19 -20 0
-19 -141 0
-19 -142 0
-19 -143 0
-19 -144 0
-19 -145 0
-19 -266 0
-19 -267 0
-19 -268 0
-19 -269 0
-19 -270 0
-19 -391 0
-19 -392 0
-19 -393 0
-19 -394 0
-19 -395 0
-19 -516 0
-19 -517 0
-19 -518 0
-19 -519 0
-19 -520 0
-20 -141 0
-20 -142 0
-20 -143 0
-20 -144 0
-20 -145 0
-20 -266 0
-20 -267 0
-20 -268 0
-20 -269 0
-20 -270 0
-20 -391 0
-20 -392 0
-20 -393 0
-20 -394 0
-20 -395 0
-20 -516 0
-20 -517 0
-20 -518 0
-20 -519 0
-20 -520 0
-141 -142 0
-141 -143 0
-141 -144 0
-141 -145 0
-141 -266 0
-141 -267 0
-141 -268 0
-141 -269 0
-141 -270 0
-141 -391 0
-141 -392 0
-141 -393 0
-141 -394 0
-141 -395 0
-141 -516 0
-141 -517 0
-141 -518 0
-141 -519 0
-141 -520 0
-142 -143 0
-142 -144 0
-142 -145 0
-142 -266 0
-142 -267 0
-142 -268 0
-142 -269 0
-142 -270 0
-142 -391 0
-142 -392 0
-142 -393 0
-142 -394 0
-142 -395 0
-142 -516 0
-142 -517 0
-142 -518 0
-142 -519 0
-142 -520 0
-143 -144 0
-143 -145 0
-143 -266 0
-143 -267 0
-143 -268 0
-143 -269 0
-143 -270 0
-143 -391 0
-143 -392 0
-143 -393 0
-143 -394 0
-143 -395 0
-143 -516 0
-143 -517 0
-143 -518 0
-143 -519 0
-143 -520 0
-144 -145 0
-144 -266 0
-144 -267 0
-144 -268 0
-144 -269 0
-144 -270 0
-144 -391 0
-144 -392 0
-144 -393 0
-144 -394 0
-144 -395 0
-144 -516 0
-144 -517 0
-144 -518 0
-144 -519 0
-144 -520 0
-145 -266 0
-145 -267 0
-145 -268 0
-145 -269 0
-145 -270 0
-145 -391 0
-145 -392 0
-145 -393 0
-145 -394 0
-145 -395 0
-145 -516 0
-145 -517 0
-145 -518 0
-145 -519 0
-145 -520 0
-266 -267 0
-266 -268 0
-266 -269 0
-266 -270 0
-266 -391 0
-266 -392 0
-266 -393 0
-266 -394 0
-266 -395 0
-266 -516 0
-266 -517 0
-266 -518 0
-266 -519 0
-266 -520 0
-267 -268 0
-267 -269 0
-267 -270 0
-267 -391 0
-267 -392 0
-267 -393 0
-267 -394 0
-267 -395 0
-267 -516 0
-267 -517 0
-267 -518 0
-267 -519 0
-267 -520 0
-268 -269 0
-268 -270 0
-268 -391 0
-268 -392 0
-268 -393 0
-268 -394 0
-268 -395 0
-268 -516 0
-268 -517 0
-268 -518 0
-268 -519 0
-268 -520 0
-269 -270 0
-269 -391 0
-269 -392 0
-269 -393 0
-269 -394 0
-269 -395 0
-269 -516 0
-269 -517 0
-269 -518 0
-269 -519 0
-269 -520 0
-270 -391 0
-270 -392 0
-270 -393 0
-270 -394 0
-270 -395 0
-270 -516 0
-270 -517 0
-270 -518 0
-270 -519 0
-270 -520 0
-391 -392 0
-391 -393 0
-391 -394 0
-391 -395 0
-391 -516 0
-391 -517 0
-391 -518 0
-391 -519 0
-391 -520 0
-392 -393 0
-392 -394 0
-392 -395 0
-392 -516 0
-392 -517 0
-392 -518 0
-392 -519 0
-392 -520 0
-393 -394 0
-393 -395 0
-393 -516 0
-393 -517 0
-393 -518 0
-393 -519 0
-393 -520 0
-394 -395 0
-394 -516 0
-394 -517 0
-394 -518 0
-394 -519 0
-394 -520 0
-395 -516 0
-395 -517 0
-395 -518 0
-395 -519 0
-395 -520 0
-516 -517 0
-516 -518 0
-516 -519 0
-516 -520 0
-517 -518 0
-517 -519 0
-517 -520 0
-518 -519 0
-518 -520 0
-519 -520 0
21 22 23 24 25 146 147 148 149 150 271 272 273 274 275 396 397 398 399 400 521 522 523 524 525 0
-21 -22 0
-21 -23 0
-21 -24 0
-21 -25 0
-21 -146 0
-21 -147 0
-21 -148 0
-21 -149 0
-21 -150 0
-21 -271 0
-21 -272 0
-21 -273 0
-21 -274 0
-21 -275 0
-21 -396 0
-21 -397 0
-21 -398 0
-21 -399 0
-21 -400 0
-21 -521 0
-21 -522 0
-21 -523 0
-21 -524 0
-21 -525 0
-22 -23 0
-22 -24 0
-22 -25 0
-22 -146 0
-22 -147 0
-22 -148 0
-22 -149 0
-22 -150 0
-22 -271 0
-22 -272 0
-22 -273 0
-22 -274 0
-22 -275 0
-22 -396 0
-22 -397 0
-22 -398 0
-22 -399 0
-22 -400 0
-22 -521 0
-22 -522 0
-22 -523 0
-22 -524 0
-22 -525 0
-23 -24 0
-23 -25 0
-23 -146 0
-23 -147 0
-23 -148 0
-23 -149 0
-23 -150 0
-23 -271 0
-23 -272 0
-23 -273 0
-23 -274 0
-23 -275 0
-23 -396 0
-23 -397 0
-23 -398 0
-23 -399 0
-23 -400 0
-23 -521 0
-23 -522 0
-23 -523 0
-23 -524 0
-23 -525 0
-24 -25 0
-24 -146 0
-24 -147 0
-24 -148 0
-24 -149 0
-24 -150 0
-24 -271 0
-24 -272 0
-24 -273 0
-24 -274 0
-24 -275 0
-24 -396 0
-24 -397 0
-24 -398 0
-24 -399 0
-24 -400 0
-24 -521 0
-24 -522 0
-24 -523 0
-24 -524 0
-24 -525 0
-25 -146 0
-25 -147 0
-25 -148 0
-25 -149 0
-25 -150 0
-25 -271 0
-25 -272 0
-25 -273 0
-25 -274 0
-25 -275 0
-25 -396 0
-25 -397 0
-25 -398 0
-25 -399 0
-25 -400 0
-25 -521 0
-25 -522 0
-25 -523 0
-25 -524 0
-25 -525 0
-146 -147 0
-146 -148 0
-146 -149 0
-146 -150 0
-146 -271 0
-146 -272 0
-146 -273 0
-146 -274 0
-146 -275 0
-146 -396 0
-146 -397 0
-146 -398 0
-146 -399 0
-146 -400 0
-146 -521 0
-146 -522 0
-146 -523 0
-146 -524 0
-146 -525 0
-147 -148 0
-147 -149 0
-147 -150 0
-147 -271 0
-147 -272 0
-147 -273 0
-147 -274 0
-147 -275 0
-147 -396 0
-147 -397 0
-147 -398 0
-147 -399 0
-147 -400 0
-147 -521 0
-147 -522 0
-147 -523 0
-147 -524 0
-147 -525 0
-148 -149 0
-148 -150 0
-148 -271 0
-148 -272 0
-148 -273 0
-148 -274 0
-148 -275 0
-148 -396 0
-148 -397 0
-148 -398 0
-148 -399 0
-148 -400 0
-148 -521 0
-148 -522 0
-148 -523 0
-148 -524 0
-148 -525 0
-149 -150 0
-149 -271 0
-149 -272 0
-149 -273 0
-149 -274 0
-149 -275 0
-149 -396 0
-149 -397 0
-149 -398 0
-149 -399 0
-149 -400 0
-149 -521 0
-149 -522 0
-149 -523 0
-149 -524 0
-149 -525 0
-150 -271 0
-150 -272 0
-150 -273 0
-150 -274 0
-150 -275 0
-150 -396 0
-150 -397 0
-150 -398 0
-150 -399 0
-150 -400 0
-150 -521 0
-150 -522 0
-150 -523 0
-150 -524 0
-150 -525 0
-271 -272 0
-271 -273 0
-271 -274 0
-271 -275 0
-271 -396 0
-271 -397 0
-271 -398 0
-271 -399 0
-271 -400 0
-271 -521 0
-271 -522 0
-271 -523 0
-271 -524 0
-271 -525 0
-272 -273 0
-272 -274 0
-272 -275 0
-272 -396 0
-272 -397 0
-272 -398 0
-272 -399 0
-272 -400 0
-272 -521 0
-272 -522 0
-272 -523 0
-272 -524 0
-272 -525 0
-273 -274 0
-273 -275 0
-273 -396 0
-273 -397 0
-273 -398 0
-273 -399 0
-273 -400 0
-273 -521 0
-273 -522 0
-273 -523 0
-273 -524 0
-273 -525 0
-274 -275 0
-274 -396 0
-274 -397 0
-274 -398 0
-274 -399 0
-274 -400 0
-274 -521 0
-274 -522 0
-274 -523 0
-274 -524 0
-274 -525 0
-275 -396 0
-275 -397 0
-275 -398 0
-275 -399 0
-275 -400 0
-275 -521 0
-275 -522 0
-275 -523 0
-275 -524 0
-275 -525 0
-396 -397 0
-396 -398 0
-396 -399 0
-396 -400 0
-396 -521 0
-396 -522 0
-396 -523 0
-396 -524 0
-396 -525 0
-397 -398 0
-397 -399 0
-397 -400 0
-397 -521 0
-397 -522 0
-397 -523 0
-397 -524 0
-397 -525 0
-398 -399 0
-398 -400 0
-398 -521 0
-398 -522 0
-398 -523 0
-398 -524 0
-398 -525 0
-399 -400 0
-399 -521 0
-399 -522 0
-399 -523 0
-399 -524 0
-399 -525 0
-400 -521 0
-400 -522 0
-400 -523 0
-400 -524 0
-400 -525 0
-521 -522 0
-521 -523 0
-521 -524 0
-521 -525 0
-522 -523 0
-522 -524 0
-522 -525 0
-523 -524 0
-523 -525 0
-524 -525 0
26 27 28 29 30 151 152 153 154 155 276 277 278 279 280 401 402 403 404 405 526 527 528 529 530 0
-26 -27 0
-26 -28 0
-26 -29 0
-26 -30 0
-26 -151 0
-26 -152 0
-26 -153 0
-26 -154 0
-26 -155 0
-26 -276 0
-26 -277 0
-26 -278 0
-26 -279 0
-26 -280 0
-26 -401 0
-26 -402 0
-26 -403 0
-26 -404 0
-26 -405 0
-26 -526 0
-26 -527 0
-26 -528 0
-26 -529 0
-26 -530 0
-27 -28 0
-27 -29 0
-27 -30 0
-27 -151 0
-27 -152 0
-27 -153 0
-27 -154 0
-27 -155 0
-27 -276 0
-27 -277 0
-27 -278 0
-27 -279 0
-27 -280 0
-27 -401 0
-27 -402 0
-27 -403 0
-27 -404 0
-27 -405 0
-27 -526 0
-27 -527 0
-27 -528 0
-27 -529 0
-27 -530 0
-28 -29 0
-28 -30 0
-28 -151 0
-28 -152 0
-28 -153 0
-28 -154 0
-28 -155 0
-28 -276 0
-28 -277 0
-28 -278 0
-28 -279 0
-28 -280 0
-28 -401 0
-28 -402 0
-28 -403 0
-28 -404 0
-28 -405 0
-28 -526 0
-28 -527 0
-28 -528 0
-28 -529 0
-28 -530 0
-29 -30 0
-29 -151 0
-29 -152 0
-29 -153 0
-29 -154 0
-29 -155 0
-29 -276 0
-29 -277 0
-29 -278 0
-29 -279 0
-29 -280 0
-29 -401 0
-29 -402 0
-29 -403 0
-29 -404 0
-29 -405 0
-29 -526 0
-29 -527 0
-29 -528 0
-29 -529 0
-29 -530 0
-30 -151 0
-30 -152 0
-30 -153 0
-30 -154 0
-30 -155 0
-30 -276 0
-30 -277 0
-30 -278 0
-30 -279 0
-30 -280 0
-30 -401 0
-30 -402 0
-30 -403 0
-30 -404 0
-30 -405 0
-30 -526 0
-30 -527 0
-30 -528 0
-30 -529 0
-30 -530 0
-151 -152 0
-151 -153 0
-151 -154 0
-151 -155 0
-151 -276 0
-151 -277 0
-151 -278 0
-151 -279 0
-151 -280 0
-151 -401 0
-151 -402 0
-151 -403 0
-151 -404 0
-151 -405 0
-151 -526 0
-151 -527 0
-151 -528 0
-151 -529 0
-151 -530 0
-152 -153 0
-152 -154 0
-152 -155 0
-152 -276 0
-152 -277 0
-152 -278 0
-152 -279 0
-152 -280 0
-152 -401 0
-152 -402 0
-152 -403 0
-152 -404 0
-152 -405 0
-152 -526 0
-152 -527 0
-152 -528 0
-152 -529 0
-152 -530 0
-153 -154 0
-153 -155 0
-153 -276 0
-153 -277 0
-153 -278 0
-153 -279 0
-153 -280 0
-153 -401 0
-153 -402 0
-153 -403 0
-153 -404 0
-153 -405 0
-153 -526 0
-153 -527 0
-153 -528 0
-153 -529 0
-153 -530 0
-154 -155 0
-154 -276 0
-154 -277 0
-154 -278 0
-154 -279 0
-154 -280 0
-154 -401 0
-154 -402 0
-154 -403 0
-154 -404 0
-154 -405 0
-154 -526 0
-154 -527 0
-154 -528 0
-154 -529 0
-154 -530 0
-155 -276 0
-155 -277 0
-155 -278 0
-155 -279 0
-155 -280 0
-155 -401 0
-155 -402 0
-155 -403 0
-155 -404 0
-155 -405 0
-155 -526 0
-155 -527 0
-155 -528 0
-155 -529 0
-155 -530 0
-276 -277 0
-276 -278 0
-276 -279 0
-276 -280 0
-276 -401 0
-276 -402 0
-276 -403 0
-276 -404 0
-276 -405 0
-276 -526 0
-276 -527 0
-276 -528 0
-276 -529 0
-276 -530 0
-277 -278 0
-277 -279 0
-277 -280 0
-277 -401 0
-277 -402 0
-277 -403 0
-277 -404 0
-277 -405 0
-277 -526 0
-277 -527 0
-277 -528 0
-277 -529 0
-277 -530 0
-278 -279 0
-278 -280 0
-278 -401 0
-278 -402 0
-278 -403 0
-278 -404 0
-278 -405 0
-278 -526 0
-278 -527 0
-278 -528 0
-278 -529 0
-278 -530 0
-279 -280 0
-279 -401 0
-279 -402 0
-279 -403 0
-279 -404 0
-279 -405 0
-279 -526 0
-279 -527 0
-279 -528 0
-279 -529 0
-279 -530 0
-280 -401 0
-280 -402 0
-280 -403 0
-280 -404 0
-280 -405 0
-280 -526 0
-280 -527 0
-280 -528 0
-280 -529 0
-280 -530 0
-401 -402 0
-401 -403 0
-401 -404 0
-401 -405 0
-401 -526 0
-401 -527 0
-401 -528 0
-401 -529 0
-401 -530 0
-402 -403 0
-402 -404 0
-402 -405 0
-402 -526 0
-402 -527 0
-402 -528 0
-402 -529 0
-402 -530 0
-403 -404 0
-403 -405 0
-403 -526 0
-403 -527 0
-403 -528 0
-403 -529 0
-403 -530 0
-404 -405 0
-404 -526 0
-404 -527 0
-404 -528 0
-404 -529 0
-404 -530 0
-405 -526 0
-405 -527 0
-405 -528 0
-405 -529 0
-405 -530 0
-526 -527 0
-526 -528 0
-526 -529 0
-526 -530 0
-527 -528 0
-527 -529 0
-527 -530 0
-528 -529 0
-528 -530 0
-529 -530 0
31 32 33 34 35 156 157 158 159 160 281 282 283 284 285 406 407 408 409 410 531 532 533 534 535 0
-31 -32 0
-31 -33 0
-31 -34 0
-31 -35 0
-31 -156 0
-31 -157 0
-31 -158 0
-31 -159 0
-31 -160 0
-31 -281 0
-31 -282 0
-31 -283 0
-31 -284 0
-31 -285 0
-31 -406 0
-31 -407 0
-31 -408 0
-31 -409 0
-31 -410 0
-31 -531 0
-31 -532 0
-31 -533 0
-31 -534 0
-31 -535 0
-32 -33 0
-32 -34 0
-32 -35 0
-32 -156 0
-32 -157 0
-32 -158 0
-32 -159 0
-32 -160 0
-32 -281 0
-32 -282 0
-32 -283 0
-32 -284 0
-32 -285 0
-32 -406 0
-32 -407 0
-32 -408 0
-32 -409 0
-32 -410 0
-32 -531 0
-32 -532 0
-32 -533 0
-32 -534 0
-32 -535 0
-33 -34 0
-33 -35 0
-33 -156 0
-33 -157 0
-33 -158 0
-33 -159 0
-33 -160 0
-33 -281 0
-33 -282 0
-33 -283 0
-33 -284 0
-33 -285 0
-33 -406 0
-33 -407 0
-33 -408 0
-33 -409 0
-33 -410 0
-33 -531 0
-33 -532 0
-33 -533 0
-33 -534 0
-33 -535 0
-34 -35 0
-34 -156 0
-34 -157 0
-34 -158 0
-34 -159 0
-34 -160 0
-34 -281 0
-34 -282 0
-34 -283 0
-34 -284 0
-34 -285 0
-34 -406 0
-34 -407 0
-34 -408 0
-34 -409 0
-34 -410 0
-34 -531 0
-34 -532 0
-34 -533 0
-34 -534 0
-34 -535 0
-35 -156 0
-35 -157 0
-35 -158 0
-35 -159 0
-35 -160 0
-35 -281 0
-35 -282 0
-35 -283 0
-35 -284 0
-35 -285 0
-35 -406 0
-35 -407 0
-35 -408 0
-35 -409 0
-35 -410 0
-35 -531 0
-35 -532 0
-35 -533 0
-35 -534 0
-35 -535 0
-156 -157 0
-156 -158 0
-156 -159 0
-156 -160 0
-156 -281 0
-156 -282 0
-156 -283 0
-156 -284 0
-156 -285 0
-156 -406 0
-156 -407 0
-156 -408 0
-156 -409 0
-156 -410 0
-156 -531 0
-156 -532 0
-156 -533 0
-156 -534 0
-156 -535 0
-157 -158 0
-157 -159 0
-157 -160 0
-157 -281 0
-157 -282 0
-157 -283 0
-157 -284 0
-157 -285 0
-157 -406 0
-157 -407 0
-157 -408 0
-157 -409 0
-157 -410 0
-157 -531 0
-157 -532 0
-157 -533 0
-157 -534 0
-157 -535 0
-158 -159 0
-158 -160 0
-158 -281 0
-158 -282 0
-158 -283 0
-158 -284 0
-158 -285 0
-158 -406 0
-158 -407 0
-158 -408 0
-158 -409 0
-158 -410 0
-158 -531 0
-158 -532 0
-158 -533 0
-158 -534 0
-158 -535 0
-159 -160 0
-159 -281 0
-159 -282 0
-159 -283 0
-159 -284 0
-159 -285 0
-159 -406 0
-159 -407 0
-159 -408 0
-159 -409 0
-159 -410 0
-159 -531 0
-159 -532 0
-159 -533 0
-159 -534 0
-159 -535 0
-160 -281 0
-160 -282 0
-160 -283 0
-160 -284 0
-160 -285 0
-160 -406 0
-160 -407 0
-160 -408 0
-160 -409 0
-160 -410 0
-160 -531 0
-160 -532 0
-160 -533 0
-160 -534 0
-160 -535 0
-281 -282 0
-281 -283 0
-281 -284 0
-281 -285 0
-281 -406 0
-281 -407 0
-281 -408 0
-281 -409 0
-281 -410 0
-281 -531 0
-281 -532 0
-281 -533 0
-281 -534 0
-281 -535 0
-282 -283 0
-282 -284 0
-282 -285 0
-282 -406 0
-282 -407 0
-282 -408 0
-282 -409 0
-282 -410 0
-282 -531 0
-282 -532 0
-282 -533 0
-282 -534 0
-282 -535 0
-283 -284 0
-283 -285 0
-283 -406 0
-283 -407 0
-283 -408 0
-283 -409 0
-283 -410 0
-283 -531 0
-283 -532 0
-283 -533 0
-283 -534 0
-283 -535 0
-284 -285 0
-284 -406 0
-284 -407 0
-284 -408 0
-284 -409 0
-284 -410 0
-284 -531 0
-284 -532 0
-284 -533 0
-284 -534 0
-284 -535 0
-285 -406 0
-285 -407 0
-285 -408 0
-285 -409 0
-285 -410 0
-285 -531 0
-285 -532 0
-285 -533 0
-285 -534 0
-285 -535 0
-406 -407 0
-406 -408 0
-406 -409 0
-406 -410 0
-406 -531 0
-406 -532 0
-406 -533 0
-406 -534 0
-406 -535 0
-407 -408 0
-407 -409 0
-407 -410 0
-407 -531 0
-407 -532 0
-407 -533 0
-407 -534 0
-407 -535 0
-408 -409 0
-408 -410 0
-408 -531 0
-408 -532 0
-408 -533 0
-408 -534 0
-408 -535 0
-409 -410 0
-409 -531 0
-409 -532 0
-409 -533 0
-409 -534 0
-409 -535 0
-410 -531 0
-410 -532 0
-410 -533 0
-410 -534 0
-410 -535 0
-531 -532 0
-531 -533 0
-531 -534 0
-531 -535 0
-532 -533 0
-532 -534 0
-532 -535 0
-533 -534 0
-533 -535 0
-534 -535 0
36 37 38 39 40 161 162 163 164 165 286 287 288 289 290 411 412 413 414 415 536 537 538 539 540 0
-36 -37 0
-36 -38 0
-36 -39 0
-36 -40 0
-36 -161 0
-36 -162 0
-36 -163 0
-36 -164 0
-36 -165 0
-36 -286 0
-36 -287 0
-36 -288 0
-36 -289 0
-36 -290 0
-36 -411 0
-36 -412 0
-36 -413 0
-36 -414 0
-36 -415 0
-36 -536 0
-36 -537 0
-36 -538 0
-36 -539 0
-36 -540 0
-37 -38 0
-37 -39 0
-37 -40 0
-37 -161 0
-37 -162 0
-37 -163 0
-37 -164 0
-37 -165 0
-37 -286 0
-37 -287 0
-37 -288 0
-37 -289 0
-37 -290 0
-37 -411 0
-37 -412 0
-37 -413 0
-37 -414 0
-37 -415 0
-37 -536 0
-37 -537 0
-37 -538 0
-37 -539 0
-37 -540 0
-38 -39 0
-38 -40 0
-38 -161 0
-38 -162 0
-38 -163 0
-38 -164 0
-38 -165 0
-38 -286 0
-38 -287 0
-38 -288 0
-38 -289 0
-38 -290 0
-38 -411 0
-38 -412 0
-38 -413 0
-38 -414 0
-38 -415 0
-38 -536 0
-38 -537 0
-38 -538 0
-38 -539 0
-38 -540 0
-39 -40 0
-39 -161 0
-39 -162 0
-39 -163 0
-39 -164 0
-39 -165 0
-39 -286 0
-39 -287 0
-39 -288 0
-39 -289 0
-39 -290 0
-39 -411 0
-39 -412 0
-39 -413 0
-39 -414 0
-39 -415 0
-39 -536 0
-39 -537 0
-39 -538 0
-39 -539 0
-39 -540 0
-40 -161 0
-40 -162 0
-40 -163 0
-40 -164 0
-40 -165 0
-40 -286 0
-40 -287 0
-40 -288 0
-40 -289 0
-40 -290 0
-40 -411 0
-40 -412 0
-40 -413 0
-40 -414 0
-40 -415 0
-40 -536 0
-40 -537 0
-40 -538 0
-40 -539 0
-40 -540 0
-161 -162 0
-161 -163 0
-161 -164 0
-161 -165 0
-161 -286 0
-161 -287 0
-161 -288 0
-161 -289 0
-161 -290 0
-161 -411 0
-161 -412 0
-161 -413 0
-161 -414 0
-161 -415 0
-161 -536 0
-161 -537 0
-161 -538 0
-161 -539 0
-161 -540 0
-162 -163 0
-162 -164 0
-162 -165 0
-162 -286 0
-162 -287 0
-162 -288 0
-162 -289 0
-162 -290 0
-162 -411 0
-162 -412 0
-162 -413 0
-162 -414 0
-162 -415 0
-162 -536 0
-162 -537 0
-162 -538 0
-162 -539 0
-162 -540 0
-163 -164 0
-163 -165 0
-163 -286 0
-163 -287 0
-163 -288 0
-163 -289 0
-163 -290 0
-163 -411 0
-163 -412 0
-163 -413 0
-163 -414 0
-163 -415 0
-163 -536 0
-163 -537 0
-163 -538 0
-163 -539 0
-163 -540 0
-164 -165 0
-164 -286 0
-164 -287 0
-164 -288 0
-164 -289 0
-164 -290 0
-164 -411 0
-164 -412 0
-164 -413 0
-164 -414 0
-164 -415 0
-164 -536 0
-164 -537 0
-164 -538 0
-164 -539 0
-164 -540 0
-165 -286 0
-165 -287 0
-165 -288 0
-165 -289 0
-165 -290 0
-165 -411 0
-165 -412 0
-165 -413 0
-165 -414 0
-165 -415 0
-165 -536 0
-165 -537 0
-165 -538 0
-165 -539 0
-165 -540 0
-286 -287 0
-286 -288 0
-286 -289 0
-286 -290 0
-286 -411 0
-286 -412 0
-286 -413 0
-286 -414 0
-286 -415 0
-286 -536 0
-286 -537 0
-286 -538 0
-286 -539 0
-286 -540 0
-287 -288 0
-287 -289 0
-287 -290 0
-287 -411 0
-287 -412 0
-287 -413 0
-287 -414 0
-287 -415 0
-287 -536 0
-287 -537 0
-287 -538 0
-287 -539 0
-287 -540 0
-288 -289 0
-288 -290 0
-288 -411 0
-288 -412 0
-288 -413 0
-288 -414 0
-288 -415 0
-288 -536 0
-288 -537 0
-288 -538 0
-288 -539 0
-288 -540 0
-289 -290 0
-289 -411 0
-289 -412 0
-289 -413 0
-289 -414 0
-289 -415 0
-289 -536 0
-289 -537 0
-289 -538 0
-289 -539 0
-289 -540 0
-290 -411 0
-290 -412 0
-290 -413 0
-290 -414 0
-290 -415 0
-290 -536 0
-290 -537 0
-290 -538 0
-290 -539 0
-290 -540 0
-411 -412 0
-411 -413 0
-411 -414 0
-411 -415 0
-411 -536 0
-411 -537 0
-411 -538 0
-411 -539 0
-411 -540 0
-412 -413 0
-412 -414 0
-412 -415 0
-412 -536 0
-412 -537 0
-412 -538 0
-412 -539 0
-412 -540 0
-413 -414 0
-413 -415 0
-413 -536 0
-413 -537 0
-413 -538 0
-413 -539 0
-413 -540 0
-414 -415 0
-414 -536 0
-414 -537 0
-414 -538 0
-414 -539 0
-414 -540 0
-415 -536 0
-415 -537 0
-415 -538 0
-415 -539 0
-415 -540 0
-536 -537 0
-536 -538 0
-536 -539 0
-536 -540 0
-537 -538 0
-537 -539 0
-537 -540 0
-538 -539 0
-538 -540 0
-539 -540 0
41 42 43 44 45 166 167 168 169 170 291 292 293 294 295 416 417 418 419 420 541 542 543 544 545 0
-41 -42 0
-41 -43 0
-41 -44 0
-41 -45 0
-41 -166 0
-41 -167 0
-41 -168 0
-41 -169 0
-41 -170 0
-41 -291 0
-41 -292 0
-41 -293 0
-41 -294 0
-41 -295 0
-41 -416 0
-41 -417 0
-41 -418 0
-41 -419 0
-41 -420 0
-41 -541 0
-41 -542 0
-41 -543 0
-41 -544 0
-41 -545 0
-42 -43 0
-42 -44 0
-42 -45 0
-42 -166 0
-42 -167 0
-42 -168 0
-42 -169 0
-42 -170 0
-42 -291 0
-42 -292 0
-42 -293 0
-42 -294 0
-42 -295 0
-42 -416 0
-42 -417 0
-42 -418 0
-42 -419 0
-42 -420 0
-42 -541 0
-42 -542 0
-42 -543 0
-42 -544 0
-42 -545 0
-43 -44 0
-43 -45 0
-43 -166 0
-43 -167 0
-43 -168 0
-43 -169 0
-43 -170 0
-43 -291 0
-43 -292 0
-43 -293 0
-43 -294 0
-43 -295 0
-43 -416 0
-43 -417 0
-43 -418 0
-43 -419 0
-43 -420 0
-43 -541 0
-43 -542 0
-43 -543 0
-43 -544 0
-43 -545 0
-44 -45 0
-44 -166 0
-44 -167 0
-44 -168 0
-44 -169 0
-44 -170 0
-44 -291 0
-44 -292 0
-44 -293 0
-44 -294 0
-44 -295 0
-44 -416 0
-44 -417 0
-44 -418 0
-44 -419 0
-44 -420 0
-44 -541 0
-44 -542 0
-44 -543 0
-44 -544 0
-44 -545 0
-45 -166 0
-45 -167 0
-45 -168 0
-45 -169 0
-45 -170 0
-45 -291 0
-45 -292 0
-45 -293 0
-45 -294 0
-45 -295 0
-45 -416 0
-45 -417 0
-45 -418 0
-45 -419 0
-45 -420 0
-45 -541 0
-45 -542 0
-45 -543 0
-45 -544 0
-45 -545 0
-166 -167 0
-166 -168 0
-166 -169 0
-166 -170 0
-166 -291 0
-166 -292 0
-166 -293 0
-166 -294 0
-166 -295 0
-166 -416 0
-166 -417 0
-166 -418 0
-166 -419 0
-166 -420 0
-166 -541 0
-166 -542 0
-166 -543 0
-166 -544 0
-166 -545 0
-167 -168 0
-167 -169 0
-167 -170 0
-167 -291 0
-167 -292 0
-167 -293 0
-167 -294 0
-167 -295 0
-167 -416 0
-167 -417 0
-167 -418 0
-167 -419 0
-167 -420 0
-167 -541 0
-167 -542 0
-167 -543 0
-167 -544 0
-167 -545 0
-168 -169 0
-168 -170 0
-168 -291 0
-168 -292 0
-168 -293 0
-168 -294 0
-168 -295 0
-168 -416 0
-168 -417 0
-168 -418 0
-168 -419 0
-168 -420 0
-168 -541 0
-168 -542 0
-168 -543 0
-168 -544 0
-168 -545 0
-169 -170 0
-169 -291 0
-169 -292 0
-169 -293 0
-169 -294 0
-169 -295 0
-169 -416 0
-169 -417 0
-169 -418 0
-169 -419 0
-169 -420 0
-169 -541 0
-169 -542 0
-169 -543 0
-169 -544 0
-169 -545 0
-170 -291 0
-170 -292 0
-170 -293 0
-170 -294 0
-170 -295 0
-170 -416 0
-170 -417 0
-170 -418 0
-170 -419 0
-170 -420 0
-170 -541 0
-170 -542 0
-170 -543 0
-170 -544 0
-170 -545 0
-291 -292 0
-291 -293 0
-291 -294 0
-291 -295 0
-291 -416 0
-291 -417 0
-291 -418 0
-291 -419 0
-291 -420 0
-291 -541 0
-291 -542 0
-291 -543 0
-291 -544 0
-291 -545 0
-292 -293 0
-292 -294 0
-292 -295 0
-292 -416 0
-292 -417 0
-292 -418 0
-292 -419 0
-292 -420 0
-292 -541 0
-292 -542 0
-292 -543 0
-292 -544 0
-292 -545 0
-293 -294 0
-293 -295 0
-293 -416 0
-293 -417 0
-293 -418 0
-293 -419 0
-293 -420 0
-293 -541 0
-293 -542 0
-293 -543 0
-293 -544 0
-293 -545 0
-294 -295 0
-294 -416 0
-294 -417 0
-294 -418 0
-294 -419 0
-294 -420 0
-294 -541 0
-294 -542 0
-294 -543 0
-294 -544 0
-294 -545 0
-295 -416 0
-295 -417 0
-295 -418 0
-295 -419 0
-295 -420 0
-295 -541 0
-295 -542 0
-295 -543 0
-295 -544 0
-295 -545 0
-416 -417 0
-416 -418 0
-416 -419 0
-416 -420 0
-416 -541 0
-416 -542 0
-416 -543 0
-416 -544 0
-416 -545 0
-417 -418 0
-417 -419 0
-417 -420 0
-417 -541 0
-417 -542 0
-417 -543 0
-417 -544 0
-417 -545 0
-418 -419 0
-418 -420 0
-418 -541 0
-418 -542 0
-418 -543 0
-418 -544 0
-418 -545 0
-419 -420 0
-419 -541 0
-419 -542 0
-419 -543 0
-419 -544 0
-419 -545 0
-420 -541 0
-420 -542 0
-420 -543 0
-420 -544 0
-420 -545 0
-541 -542 0
-541 -543 0
-541 -544 0
-541 -545 0
-542 -543 0
-542 -544 0
-542 -545 0
-543 -544 0
-543 -545 0
-544 -545 0
46 47 48 49 50 171 172 173 174 175 296 297 298 299 300 421 422 423 424 425 546 547 548 549 550 0
-46 -47 0
-46 -48 0
-46 -49 0
-46 -50 0
-46 -171 0
-46 -172 0
-46 -173 0
-46 -174 0
-46 -175 0
-46 -296 0
-46 -297 0
-46 -298 0
-46 -299 0
-46 -300 0
-46 -421 0
-46 -422 0
-46 -423 0
-46 -424 0
-46 -425 0
-46 -546 0
-46 -547 0
-46 -548 0
-46 -549 0
-46 -550 0
-47 -48 0
-47 -49 0
-47 -50 0
-47 -171 0
-47 -172 0
-47 -173 0
-47 -174 0
-47 -175 0
-47 -296 0
-47 -297 0
-47 -298 0
-47 -299 0
-47 -300 0
-47 -421 0
-47 -422 0
-47 -423 0
-47 -424 0
-47 -425 0
-47 -546 0
-47 -547 0
-47 -548 0
-47 -549 0
-47 -550 0
-48 -49 0
-48 -50 0
-48 -171 0
-48 -172 0
-48 -173 0
-48 -174 0
-48 -175 0
-48 -296 0
-48 -297 0
-48 -298 0
-48 -299 0
-48 -300 0
-48 -421 0
-48 -422 0
-48 -423 0
-48 -424 0
-48 -425 0
-48 -546 0
-48 -547 0
-48 -548 0
-48 -549 0
-48 -550 0
-49 -50 0
-49 -171 0
-49 -172 0
-49 -173 0
-49 -174 0
-49 -175 0
-49 -296 0
-49 -297 0
-49 -298 0
-49 -299 0
-49 -300 0
-49 -421 0
-49 -422 0
-49 -423 0
-49 -424 0
-49 -425 0
-49 -546 0
-49 -547 0
-49 -548 0
-49 -549 0
-49 -550 0
-50 -171 0
-50 -172 0
-50 -173 0
-50 -174 0
-50 -175 0
-50 -296 0
-50 -297 0
-50 -298 0
-50 -299 0
-50 -300 0
-50 -421 0
-50 -422 0
-50 -423 0
-50 -424 0
-50 -425 0
-50 -546 0
-50 -547 0
-50 -548 0
-50 -549 0
-50 -550 0
-171 -172 0
-171 -173 0
-171 -174 0
-171 -175 0
-171 -296 0
-171 -297 0
-171 -298 0
-171 -299 0
-171 -300 0
-171 -421 0
-171 -422 0
-171 -423 0
-171 -424 0
-171 -425 0
-171 -546 0
-171 -547 0
-171 -548 0
-171 -549 0
-171 -550 0
-172 -173 0
-172 -174 0
-172 -175 0
-172 -296 0
-172 -297 0
-172 -298 0
-172 -299 0
-172 -300 0
-172 -421 0
-172 -422 0
-172 -423 0
-172 -424 0
-172 -425 0
-172 -546 0
-172 -547 0
-172 -548 0
-172 -549 0
-172 -550 0
-173 -174 0
-173 -175 0
-173 -296 0
-173 -297 0
-173 -298 0
-173 -299 0
-173 -300 0
-173 -421 0
-173 -422 0
-173 -423 0
-173 -424 0
-173 -425 0
-173 -546 0
-173 -547 0
-173 -548 0
-173 -549 0
-173 -550 0
-174 -175 0
-174 -296 0
-174 -297 0
-174 -298 0
-174 -299 0
-174 -300 0
-174 -421 0
-174 -422 0
-174 -423 0
-174 -424 0
-174 -425 0
-174 -546 0
-174 -547 0
-174 -548 0
-174 -549 0
-174 -550 0
-175 -296 0
-175 -297 0
-175 -298 0
-175 -299 0
-175 -300 0
-175 -421 0
-175 -422 0
-175 -423 0
-175 -424 0
-175 -425 0
-175 -546 0
-175 -547 0
-175 -548 0
-175 -549 0
-175 -550 0
-296 -297 0
-296 -298 0
-296 -299 0
-296 -300 0
-296 -421 0
-296 -422 0
-296 -423 0
-296 -424 0
-296 -425 0
-296 -546 0
-296 -547 0
-296 -548 0
-296 -549 0
-296 -550 0
-297 -298 0
-297 -299 0
-297 -300 0
-297 -421 0
-297 -422 0
-297 -423 0
-297 -424 0
-297 -425 0
-297 -546 0
-297 -547 0
-297 -548 0
-297 -549 0
-297 -550 0
-298 -299 0
-298 -300 0
-298 -421 0
-298 -422 0
-298 -423 0
-298 -424 0
-298 -425 0
-298 -546 0
-298 -547 0
-298 -548 0
-298 -549 0
-298 -550 0
-299 -300 0
-299 -421 0
-299 -422 0
-299 -423 0
-299 -424 0
-299 -425 0
-299 -546 0
-299 -547 0
-299 -548 0
-299 -549 0
-299 -550 0
-300 -421 0
-300 -422 0
-300 -423 0
-300 -424 0
-300 -425 0
-300 -546 0
-300 -547 0
-300 -548 0
-300 -549 0
-300 -550 0
-421 -422 0
-421 -423 0
-421 -424 0
-421 -425 0
-421 -546 0
-421 -547 0
-421 -548 0
-421 -549 0
-421 -550 0
-422 -423 0
-422 -424 0
-422 -425 0
-422 -546 0
-422 -547 0
-422 -548 0
-422 -549 0
-422 -550 0
-423 -424 0
-423 -425 0
-423 -546 0
-423 -547 0
-423 -548 0
-423 -549 0
-423 -550 0
-424 -425 0
-424 -546 0
-424 -547 0
-424 -548 0
-424 -549 0
-424 -550 0
-425 -546 0
-425 -547 0
-425 -548 0
-425 -549 0
-425 -550 0
-546 -547 0
-546 -548 0
-546 -549 0
-546 -550 0
-547 -548 0
-547 -549 0
-547 -550 0
-548 -549 0
-548 -550 0
-549 -550 0
51 52 53 54 55 176 177 178 179 180 301 302 303 304 305 426 427 428 429 430 551 552 553 554 555 0
-51 -52 0
-51 -53 0
-51 -54 0
-51 -55 0
-51 -176 0
-51 -177 0
-51 -178 0
-51 -179 0
-51 -180 0
-51 -301 0
-51 -302 0
-51 -303 0
-51 -304 0
-51 -305 0
-51 -426 0
-51 -427 0
-51 -428 0
-51 -429 0
-51 -430 0
-51 -551 0
-51 -552 0
-51 -553 0
-51 -554 0
-51 -555 0
-52 -53 0
-52 -54 0
-52 -55 0
-52 -176 0
-52 -177 0
-52 -178 0
-52 -179 0
-52 -180 0
-52 -301 0
-52 -302 0
-52 -303 0
-52 -304 0
-52 -305 0
-52 -426 0
-52 -427 0
-52 -428 0
-52 -429 0
-52 -430 0
-52 -551 0
-52 -552 0
-52 -553 0
-52 -554 0
-52 -555 0
-53 -54 0
-53 -55 0
-53 -176 0
-53 -177 0
-53 -178 0
-53 -179 0
-53 -180 0
-53 -301 0
-53 -302 0
-53 -303 0
-53 -304 0
-53 -305 0
-53 -426 0
-53 -427 0
-53 -428 0
-53 -429 0
-53 -430 0
-53 -551 0
-53 -552 0
-53 -553 0
-53 -554 0
-53 -555 0
-54 -55 0
-54 -176 0
-54 -177 0
-54 -178 0
-54 -179 0
-54 -180 0
-54 -301 0
-54 -302 0
-54 -303 0
-54 -304 0
-54 -305 0
-54 -426 0
-54 -427 0
-54 -428 0
-54 -429 0
-54 -430 0
-54 -551 0
-54 -552 0
-54 -553 0
-54 -554 0
-54 -555 0
-55 -176 0
-55 -177 0
-55 -178 0
-55 -179 0
-55 -180 0
-55 -301 0
-55 -302 0
-55 -303 0
-55 -304 0
-55 -305 0
-55 -426 0
-55 -427 0
-55 -428 0
-55 -429 0
-55 -430 0
-55 -551 0
-55 -552 0
-55 -553 0
-55 -554 0
-55 -555 0
-176 -177 0
-176 -178 0
-176 -179 0
-176 -180 0
-176 -301 0
-176 -302 0
-176 -303 0
-176 -304 0
-176 -305 0
-176 -426 0
-176 -427 0
-176 -428 0
-176 -429 0
-176 -430 0
-176 -551 0
-176 -552 0
-176 -553 0
-176 -554 0
-176 -555 0
-177 -178 0
-177 -179 0
-177 -180 0
-177 -301 0
-177 -302 0
-177 -303 0
-177 -304 0
-177 -305 0
-177 -426 0
-177 -427 0
-177 -428 0
-177 -429 0
-177 -430 0
-177 -551 0
-177 -552 0
-177 -553 0
-177 -554 0
-177 -555 0
-178 -179 0
-178 -180 0
-178 -301 0
-178 -302 0
-178 -303 0
-178 -304 0
-178 -305 0
-178 -426 0
-178 -427 0
-178 -428 0
-178 -429 0
-178 -430 0
-178 -551 0
-178 -552 0
-178 -553 0
-178 -554 0
-178 -555 0
-179 -180 0
-179 -301 0
-179 -302 0
-179 -303 0
-179 -304 0
-179 -305 0
-179 -426 0
-179 -427 0
-179 -428 0
-179 -429 0
-179 -430 0
-179 -551 0
-179 -552 0
-179 -553 0
-179 -554 0
-179 -555 0
-180 -301 0
-180 -302 0
-180 -303 0
-180 -304 0
-180 -305 0
-180 -426 0
-180 -427 0
-180 -428 0
-180 -429 0
-180 -430 0
-180 -551 0
-180 -552 0
-180 -553 0
-180 -554 0
-180 -555 0
-301 -302 0
-301 -303 0
-301 -304 0
-301 -305 0
-301 -426 0
-301 -427 0
-301 -428 0
-301 -429 0
-301 -430 0
-301 -551 0
-301 -552 0
-301 -553 0
-301 -554 0
-301 -555 0
-302 -303 0
-302 -304 0
-302 -305 0
-302 -426 0
-302 -427 0
-302 -428 0
-302 -429 0
-302 -430 0
-302 -551 0
-302 -552 0
-302 -553 0
-302 -554 0
-302 -555 0
-303 -304 0
-303 -305 0
-303 -426 0
-303 -427 0
-303 -428 0
-303 -429 0
-303 -430 0
-303 -551 0
-303 -552 0
-303 -553 0
-303 -554 0
-303 -555 0
-304 -305 0
-304 -426 0
-304 -427 0
-304 -428 0
-304 -429 0
-304 -430 0
-304 -551 0
-304 -552 0
-304 -553 0
-304 -554 0
-304 -555 0
-305 -426 0
-305 -427 0
-305 -428 0
-305 -429 0
-305 -430 0
-305 -551 0
-305 -552 0
-305 -553 0
-305 -554 0
-305 -555 0
-426 -427 0
-426 -428 0
-426 -429 0
-426 -430 0
-426 -551 0
-426 -552 0
-426 -553 0
-426 -554 0
-426 -555 0
-427 -428 0
-427 -429 0
-427 -430 0
-427 -551 0
-427 -552 0
-427 -553 0
-427 -554 0
-427 -555 0
-428 -429 0
-428 -430 0
-428 -551 0
-428 -552 0
-428 -553 0
-428 -554 0
-428 -555 0
-429 -430 0
-429 -551 0
-429 -552 0
-429 -553 0
-429 -554 0
-429 -555 0
-430 -551 0
-430 -552 0
-430 -553 0
-430 -554 0
-430 -555 0
-551 -552 0
-551 -553 0
-551 -554 0
-551 -555 0
-552 -553 0
-552 -554 0
-552 -555 0
-553 -554 0
-553 -555 0
-554 -555 0
56 57 58 59 60 181 182 183 184 185 306 307 308 309 310 431 432 433 434 435 556 557 558 559 560 0
-56 -57 0
-56 -58 0
-56 -59 0
-56 -60 0
-56 -181 0
-56 -182 0
-56 -183 0
-56 -184 0
-56 -185 0
-56 -306 0
-56 -307 0
-56 -308 0
-56 -309 0
-56 -310 0
-56 -431 0
-56 -432 0
-56 -433 0
-56 -434 0
-56 -435 0
-56 -556 0
-56 -557 0
-56 -558 0
-56 -559 0
-56 -560 0
-57 -58 0
-57 -59 0
-57 -60 0
-57 -181 0
-57 -182 0
-57 -183 0
-57 -184 0
-57 -185 0
-57 -306 0
-57 -307 0
-57 -308 0
-57 -309 0
-57 -310 0
-57 -431 0
-57 -432 0
-57 -433 0
-57 -434 0
-57 -435 0
-57 -556 0
-57 -557 0
-57 -558 0
-57 -559 0
-57 -560 0
-58 -59 0
-58 -60 0
-58 -181 0
-58 -182 0
-58 -183 0
-58 -184 0
-58 -185 0
-58 -306 0
-58 -307 0
-58 -308 0
-58 -309 0
-58 -310 0
-58 -431 0
-58 -432 0
-58 -433 0
-58 -434 0
-58 -435 0
-58 -556 0
-58 -557 0
-58 -558 0
-58 -559 0
-58 -560 0
-59 -60 0
-59 -181 0
-59 -182 0
-59 -183 0
-59 -184 0
-59 -185 0
-59 -306 0
-59 -307 0
-59 -308 0
-59 -309 0
-59 -310 0
-59 -431 0
-59 -432 0
-59 -433 0
-59 -434 0
-59 -435 0
-59 -556 0
-59 -557 0
-59 -558 0
-59 -559 0
-59 -560 0
-60 -181 0
-60 -182 0
-60 -183 0
-60 -184 0
-60 -185 0
-60 -306 0
-60 -307 0
-60 -308 0
-60 -309 0
-60 -310 0
-60 -431 0
-60 -432 0
-60 -433 0
-60 -434 0
-60 -435 0
-60 -556 0
-60 -557 0
-60 -558 0
-60 -559 0
-60 -560 0
-181 -182 0
-181 -183 0
-181 -184 0
-181 -185 0
-181 -306 0
-181 -307 0
-181 -308 0
-181 -309 0
-181 -310 0
-181 -431 0
-181 -432 0
-181 -433 0
-181 -434 0
-181 -435 0
-181 -556 0
-181 -557 0
-181 -558 0
-181 -559 0
-181 -560 0
-182 -183 0
-182 -184 0
-182 -185 0
-182 -306 0
-182 -307 0
-182 -308 0
-182 -309 0
-182 -310 0
-182 -431 0
-182 -432 0
-182 -433 0
-182 -434 0
-182 -435 0
-182 -556 0
-182 -557 0
-182 -558 0
-182 -559 0
-182 -560 0
-183 -184 0
-183 -185 0
-183 -306 0
-183 -307 0
-183 -308 0
-183 -309 0
-183 -310 0
-183 -431 0
-183 -432 0
-183 -433 0
-183 -434 0
-183 -435 0
-183 -556 0
-183 -557 0
-183 -558 0
-183 -559 0
-183 -560 0
-184 -185 0
-184 -306 0
-184 -307 0
-184 -308 0
-184 -309 0
-184 -310 0
-184 -431 0
-184 -432 0
-184 -433 0
-184 -434 0
-184 -435 0
-184 -556 0
-184 -557 0
-184 -558 0
-184 -559 0
-184 -560 0
-185 -306 0
-185 -307 0
-185 -308 0
-185 -309 0
-185 -310 0
-185 -431 0
-185 -432 0
-185 -433 0
-185 -434 0
-185 -435 0
-185 -556 0
-185 -557 0
-185 -558 0
-185 -559 0
-185 -560 0
-306 -307 0
-306 -308 0
-306 -309 0
-306 -310 0
-306 -431 0
-306 -432 0
-306 -433 0
-306 -434 0
-306 -435 0
-306 -556 0
-306 -557 0
-306 -558 0
-306 -559 0
-306 -560 0
-307 -308 0
-307 -309 0
-307 -310 0
-307 -431 0
-307 -432 0
-307 -433 0
-307 -434 0
-307 -435 0
-307 -556 0
-307 -557 0
-307 -558 0
-307 -559 0
-307 -560 0
-308 -309 0
-308 -310 0
-308 -431 0
-308 -432 0
-308 -433 0
-308 -434 0
-308 -435 0
-308 -556 0
-308 -557 0
-308 -558 0
-308 -559 0
-308 -560 0
-309 -310 0
-309 -431 0
-309 -432 0
-309 -433 0
-309 -434 0
-309 -435 0
-309 -556 0
-309 -557 0
-309 -558 0
-309 -559 0
-309 -560 0
-310 -431 0
-310 -432 0
-310 -433 0
-310 -434 0
-310 -435 0
-310 -556 0
-310 -557 0
-310 -558 0
-310 -559 0
-310 -560 0
-431 -432 0
-431 -433 0
-431 -434 0
-431 -435 0
-431 -556 0
-431 -557 0
-431 -558 0
-431 -559 0
-431 -560 0
-432 -433 0
-432 -434 0
-432 -435 0
-432 -556 0
-432 -557 0
-432 -558 0
-432 -559 0
-432 -560 0
-433 -434 0
-433 -435 0
-433 -556 0
-433 -557 0
-433 -558 0
-433 -559 0
-433 -560 0
-434 -435 0
-434 -556 0
-434 -557 0
-434 -558 0
-434 -559 0
-434 -560 0
-435 -556 0
-435 -557 0
-435 -558 0
-435 -559 0
-435 -560 0
-556 -557 0
-556 -558 0
-556 -559 0
-556 -560 0
-557 -558 0
-557 -559 0
-557 -560 0
-558 -559 0
-558 -560 0
-559 -560 0
61 62 63 64 65 186 187 188 189 190 311 312 313 314 315 436 437 438 439 440 561 562 563 564 565 0
-61 -62 0
-61 -63 0
-61 -64 0
-61 -65 0
-61 -186 0
-61 -187 0
-61 -188 0
-61 -189 0
-61 -190 0
-61 -311 0
-61 -312 0
-61 -313 0
-61 -314 0
-61 -315 0
-61 -436 0
-61 -437 0
-61 -438 0
-61 -439 0
-61 -440 0
-61 -561 0
-61 -562 0
-61 -563 0
-61 -564 0
-61 -565 0
-62 -63 0
-62 -64 0
-62 -65 0
-62 -186 0
-62 -187 0
-62 -188 0
-62 -189 0
-62 -190 0
-62 -311 0
-62 -312 0
-62 -313 0
-62 -314 0
-62 -315 0
-62 -436 0
-62 -437 0
-62 -438 0
-62 -439 0
-62 -440 0
-62 -561 0
-62 -562 0
-62 -563 0
-62 -564 0
-62 -565 0
-63 -64 0
-63 -65 0
-63 -186 0
-63 -187 0
-63 -188 0
-63 -189 0
-63 -190 0
-63 -311 0
-63 -312 0
-63 -313 0
-63 -314 0
-63 -315 0
-63 -436 0
-63 -437 0
-63 -438 0
-63 -439 0
-63 -440 0
-63 -561 0
-63 -562 0
-63 -563 0
-63 -564 0
-63 -565 0
-64 -65 0
-64 -186 0
-64 -187 0
-64 -188 0
-64 -189 0
-64 -190 0
-64 -311 0
-64 -312 0
-64 -313 0
-64 -314 0
-64 -315 0
-64 -436 0
-64 -437 0
-64 -438 0
-64 -439 0
-64 -440 0
-64 -561 0
-64 -562 0
-64 -563 0
-64 -564 0
-64 -565 0
-65 -186 0
-65 -187 0
-65 -188 0
-65 -189 0
-65 -190 0
-65 -311 0
-65 -312 0
-65 -313 0
-65 -314 0
-65 -315 0
-65 -436 0
-65 -437 0
-65 -438 0
-65 -439 0
-65 -440 0
-65 -561 0
-65 -562 0
-65 -563 0
-65 -564 0
-65 -565 0
-186 -187 0
-186 -188 0
-186 -189 0
-186 -190 0
-186 -311 0
-186 -312 0
-186 -313 0
-186 -314 0
-186 -315 0
-186 -436 0
-186 -437 0
-186 -438 0
-186 -439 0
-186 -440 0
-186 -561 0
-186 -562 0
-186 -563 0
-186 -564 0
-186 -565 0
-187 -188 0
-187 -189 0
-187 -190 0
-187 -311 0
-187 -312 0
-187 -313 0
-187 -314 0
-187 -315 0
-187 -436 0
-187 -437 0
-187 -438 0
-187 -439 0
-187 -440 0
-187 -561 0
-187 -562 0
-187 -563 0
-187 -564 0
-187 -565 0
-188 -189 0
-188 -190 0
-188 -311 0
-188 -312 0
-188 -313 0
-188 -314 0
-188 -315 0
-188 -436 0
-188 -437 0
-188 -438 0
-188 -439 0
-188 -440 0
-188 -561 0
-188 -562 0
-188 -563 0
-188 -564 0
-188 -565 0
-189 -190 0
-189 -311 0
-189 -312 0
-189 -313 0
-189 -314 0
-189 -315 0
-189 -436 0
-189 -437 0
-189 -438 0
-189 -439 0
-189 -440 0
-189 -561 0
-189 -562 0
-189 -563 0
-189 -564 0
-189 -565 0
-190 -311 0
-190 -312 0
-190 -313 0
-190 -314 0
-190 -315 0
-190 -436 0
-190 -437 0
-190 -438 0
-190 -439 0
-190 -440 0
-190 -561 0
-190 -562 0
-190 -563 0
-190 -564 0
-190 -565 0
-311 -312 0
-311 -313 0
-311 -314 0
-311 -315 0
-311 -436 0
-311 -437 0
-311 -438 0
-311 -439 0
-311 -440 0
-311 -561 0
-311 -562 0
-311 -563 0
-311 -564 0
-311 -565 0
-312 -313 0
-312 -314 0
-312 -315 0
-312 -436 0
-312 -437 0
-312 -438 0
-312 -439 0
-312 -440 0
-312 -561 0
-312 -562 0
-312 -563 0
-312 -564 0
-312 -565 0
-313 -314 0
-313 -315 0
-313 -436 0
-313 -437 0
-313 -438 0
-313 -439 0
-313 -440 0
-313 -561 0
-313 -562 0
-313 -563 0
-313 -564 0
-313 -565 0
-314 -315 0
-314 -436 0
-314 -437 0
-314 -438 0
-314 -439 0
-314 -440 0
-314 -561 0
-314 -562 0
-314 -563 0
-314 -564 0
-314 -565 0
-315 -436 0
-315 -437 0
-315 -438 0
-315 -439 0
-315 -440 0
-315 -561 0
-315 -562 0
-315 -563 0
-315 -564 0
-315 -565 0
-436 -437 0
-436 -438 0
-436 -439 0
-436 -440 0
-436 -561 0
-436 -562 0
-436 -563 0
-436 -564 0
-436 -565 0
-437 -438 0
-437 -439 0
-437 -440 0
-437 -561 0
-437 -562 0
-437 -563 0
-437 -564 0
-437 -565 0
-438 -439 0
-438 -440 0
-438 -561 0
-438 -562 0
-438 -563 0
-438 -564 0
-438 -565 0
-439 -440 0
-439 -561 0
-439 -562 0
-439 -563 0
-439 -564 0
-439 -565 0
-440 -561 0
-440 -562 0
-440 -563 0
-440 -564 0
-440 -565 0
-561 -562 0
-561 -563 0
-561 -564 0
-561 -565 0
-562 -563 0
-562 -564 0
-562 -565 0
-563 -564 0
-563 -565 0
-564 -565 0
66 67 68 69 70 191 192 193 194 195 316 317 318 319 320 441 442 443 444 445 566 567 568 569 570 0
-66 -67 0
-66 -68 0
-66 -69 0
-66 -70 0
-66 -191 0
-66 -192 0
-66 -193 0
-66 -194 0
-66 -195 0
-66 -316 0
-66 -317 0
-66 -318 0
-66 -319 0
-66 -320 0
-66 -441 0
-66 -442 0
-66 -443 0
-66 -444 0
-66 -445 0
-66 -566 0
-66 -567 0
-66 -568 0
-66 -569 0
-66 -570 0
-67 -68 0
-67 -69 0
-67 -70 0
-67 -191 0
-67 -192 0
-67 -193 0
-67 -194 0
-67 -195 0
-67 -316 0
-67 -317 0
-67 -318 0
-67 -319 0
-67 -320 0
-67 -441 0
-67 -442 0
-67 -443 0
-67 -444 0
-67 -445 0
-67 -566 0
-67 -567 0
-67 -568 0
-67 -569 0
-67 -570 0
-68 -69 0
-68 -70 0
-68 -191 0
-68 -192 0
-68 -193 0
-68 -194 0
-68 -195 0
-68 -316 0
-68 -317 0
-68 -318 0
-68 -319 0
-68 -320 0
-68 -441 0
-68 -442 0
-68 -443 0
-68 -444 0
-68 -445 0
-68 -566 0
-68 -567 0
-68 -568 0
-68 -569 0
-68 -570 0
-69 -70 0
-69 -191 0
-69 -192 0
-69 -193 0
-69 -194 0
-69 -195 0
-69 -316 0
-69 -317 0
-69 -318 0
-69 -319 0
-69 -320 0
-69 -441 0
-69 -442 0
-69 -443 0
-69 -444 0
-69 -445 0
-69 -566 0
-69 -567 0
-69 -568 0
-69 -569 0
-69 -570 0
-70 -191 0
-70 -192 0
-70 -193 0
-70 -194 0
-70 -195 0
-70 -316 0
-70 -317 0
-70 -318 0
-70 -319 0
-70 -320 0
-70 -441 0
-70 -442 0
-70 -443 0
-70 -444 0
-70 -445 0
-70 -566 0
-70 -567 0
-70 -568 0
-70 -569 0
-70 -570 0
-191 -192 0
-191 -193 0
-191 -194 0
-191 -195 0
-191 -316 0
-191 -317 0
-191 -318 0
-191 -319 0
-191 -320 0
-191 -441 0
-191 -442 0
-191 -443 0
-191 -444 0
-191 -445 0
-191 -566 0
-191 -567 0
-191 -568 0
-191 -569 0
-191 -570 0
-192 -193 0
-192 -194 0
-192 -195 0
-192 -316 0
-192 -317 0
-192 -318 0
-192 -319 0
-192 -320 0
-192 -441 0
-192 -442 0
-192 -443 0
-192 -444 0
-192 -445 0
-192 -566 0
-192 -567 0
-192 -568 0
-192 -569 0
-192 -570 0
-193 -194 0
-193 -195 0
-193 -316 0
-193 -317 0
-193 -318 0
-193 -319 0
-193 -320 0
-193 -441 0
-193 -442 0
-193 -443 0
-193 -444 0
-193 -445 0
-193 -566 0
-193 -567 0
-193 -568 0
-193 -569 0
-193 -570 0
-194 -195 0
-194 -316 0
-194 -317 0
-194 -318 0
-194 -319 0
-194 -320 0
-194 -441 0
-194 -442 0
-194 -443 0
-194 -444 0
-194 -445 0
-194 -566 0
-194 -567 0
-194 -568 0
-194 -569 0
-194 -570 0
-195 -316 0
-195 -317 0
-195 -318 0
-195 -319 0
-195 -320 0
-195 -441 0
-195 -442 0
-195 -443 0
-195 -444 0
-195 -445 0
-195 -566 0
-195 -567 0
-195 -568 0
-195 -569 0
-195 -570 0
-316 -317 0
-316 -318 0
-316 -319 0
-316 -320 0
-316 -441 0
-316 -442 0
-316 -443 0
-316 -444 0
-316 -445 0
-316 -566 0
-316 -567 0
-316 -568 0
-316 -569 0
-316 -570 0
-317 -318 0
-317 -319 0
-317 -320 0
-317 -441 0
-317 -442 0
-317 -443 0
-317 -444 0
-317 -445 0
-317 -566 0
-317 -567 0
-317 -568 0
-317 -569 0
-317 -570 0
-318 -319 0
-318 -320 0
-318 -441 0
-318 -442 0
-318 -443 0
-318 -444 0
-318 -445 0
-318 -566 0
-318 -567 0
-318 -568 0
-318 -569 0
-318 -570 0
-319 -320 0
-319 -441 0
-319 -442 0
-319 -443 0
-319 -444 0
-319 -445 0
-319 -566 0
-319 -567 0
-319 -568 0
-319 -569 0
-319 -570 0
-320 -441 0
-320 -442 0
-320 -443 0
-320 -444 0
-320 -445 0
-320 -566 0
-320 -567 0
-320 -568 0
-320 -569 0
-320 -570 0
-441 -442 0
-441 -443 0
-441 -444 0
-441 -445 0
-441 -566 0
-441 -567 0
-441 -568 0
-441 -569 0
-441 -570 0
-442 -443 0
-442 -444 0
-442 -445 0
-442 -566 0
-442 -567 0
-442 -568 0
-442 -569 0
-442 -570 0
-443 -444 0
-443 -445 0
-443 -566 0
-443 -567 0
-443 -568 0
-443 -569 0
-443 -570 0
-444 -445 0
-444 -566 0
-444 -567 0
-444 -568 0
-444 -569 0
-444 -570 0
-445 -566 0
-445 -567 0
-445 -568 0
-445 -569 0
-445 -570 0
-566 -567 0
-566 -568 0
-566 -569 0
-566 -570 0
-567 -568 0
-567 -569 0
-567 -570 0
-568 -569 0
-568 -570 0
-569 -570 0
71 72 73 74 75 196 197 198 199 200 321 322 323 324 325 446 447 448 449 450 571 572 573 574 575 0
-71 -72 0
-71 -73 0
-71 -74 0
-71 -75 0
-71 -196 0
-71 -197 0
-71 -198 0
-71 -199 0
-71 -200 0
-71 -321 0
-71 -322 0
-71 -323 0
-71 -324 0
-71 -325 0
-71 -446 0
-71 -447 0
-71 -448 0
-71 -449 0
-71 -450 0
-71 -571 0
-71 -572 0
-71 -573 0
-71 -574 0
-71 -575 0
-72 -73 0
-72 -74 0
-72 -75 0
-72 -196 0
-72 -197 0
-72 -198 0
-72 -199 0
-72 -200 0
-72 -321 0
-72 -322 0
-72 -323 0
-72 -324 0
-72 -325 0
-72 -446 0
-72 -447 0
-72 -448 0
-72 -449 0
-72 -450 0
-72 -571 0
-72 -572 0
-72 -573 0
-72 -574 0
-72 -575 0
-73 -74 0
-73 -75 0
-73 -196 0
-73 -197 0
-73 -198 0
-73 -199 0
-73 -200 0
-73 -321 0
-73 -322 0
-73 -323 0
-73 -324 0
-73 -325 0
-73 -446 0
-73 -447 0
-73 -448 0
-73 -449 0
-73 -450 0
-73 -571 0
-73 -572 0
-73 -573 0
-73 -574 0
-73 -575 0
-74 -75 0
-74 -196 0
-74 -197 0
-74 -198 0
-74 -199 0
-74 -200 0
-74 -321 0
-74 -322 0
-74 -323 0
-74 -324 0
-74 -325 0
-74 -446 0
-74 -447 0
-74 -448 0
-74 -449 0
-74 -450 0
-74 -571 0
-74 -572 0
-74 -573 0
-74 -574 0
-74 -575 0
-75 -196 0
-75 -197 0
-75 -198 0
-75 -199 0
-75 -200 0
-75 -321 0
-75 -322 0
-75 -323 0
-75 -324 0
-75 -325 0
-75 -446 0
-75 -447 0
-75 -448 0
-75 -449 0
-75 -450 0
-75 -571 0
-75 -572 0
-75 -573 0
-75 -574 0
-75 -575 0
-196 -197 0
-196 -198 0
-196 -199 0
-196 -200 0
-196 -321 0
-196 -322 0
-196 -323 0
-196 -324 0
-196 -325 0
-196 -446 0
-196 -447 0
-196 -448 0
-196 -449 0
-196 -450 0
-196 -571 0
-196 -572 0
-196 -573 0
-196 -574 0
-196 -575 0
-197 -198 0
-197 -199 0
-197 -200 0
-197 -321 0
-197 -322 0
-197 -323 0
-197 -324 0
-197 -325 0
-197 -446 0
-197 -447 0
-197 -448 0
-197 -449 0
-197 -450 0
-197 -571 0
-197 -572 0
-197 -573 0
-197 -574 0
-197 -575 0
-198 -199 0
-198 -200 0
-198 -321 0
-198 -322 0
-198 -323 0
-198 -324 0
-198 -325 0
-198 -446 0
-198 -447 0
-198 -448 0
-198 -449 0
-198 -450 0
-198 -571 0
-198 -572 0
-198 -573 0
-198 -574 0
-198 -575 0
-199 -200 0
-199 -321 0
-199 -322 0
-199 -323 0
-199 -324 0
-199 -325 0
-199 -446 0
-199 -447 0
-199 -448 0
-199 -449 0
-199 -450 0
-199 -571 0
-199 -572 0
-199 -573 0
-199 -574 0
-199 -575 0
-200 -321 0
-200 -322 0
-200 -323 0
-200 -324 0
-200 -325 0
-200 -446 0
-200 -447 0
-200 -448 0
-200 -449 0
-200 -450 0
-200 -571 0
-200 -572 0
-200 -573 0
-200 -574 0
-200 -575 0
-321 -322 0
-321 -323 0
-321 -324 0
-321 -325 0
-321 -446 0
-321 -447 0
-321 -448 0
-321 -449 0
-321 -450 0
-321 -571 0
-321 -572 0
-321 -573 0
-321 -574 0
-321 -575 0
-322 -323 0
-322 -324 0
-322 -325 0
-322 -446 0
-322 -447 0
-322 -448 0
-322 -449 0
-322 -450 0
-322 -571 0
-322 -572 0
-322 -573 0
-322 -574 0
-322 -575 0
-323 -324 0
-323 -325 0
-323 -446 0
-323 -447 0
-323 -448 0
-323 -449 0
-323 -450 0
-323 -571 0
-323 -572 0
-323 -573 0
-323 -574 0
-323 -575 0
-324 -325 0
-324 -446 0
-324 -447 0
-324 -448 0
-324 -449 0
-324 -450 0
-324 -571 0
-324 -572 0
-324 -573 0
-324 -574 0
-324 -575 0
-325 -446 0
-325 -447 0
-325 -448 0
-325 -449 0
-325 -450 0
-325 -571 0
-325 -572 0
-325 -573 0
-325 -574 0
-325 -575 0
-446 -447 0
-446 -448 0
-446 -449 0
-446 -450 0
-446 -571 0
-446 -572 0
-446 -573 0
-446 -574 0
-446 -575 0
-447 -448 0
-447 -449 0
-447 -450 0
-447 -571 0
-447 -572 0
-447 -573 0
-447 -574 0
-447 -575 0
-448 -449 0
-448 -450 0
-448 -571 0
-448 -572 0
-448 -573 0
-448 -574 0
-448 -575 0
-449 -450 0
-449 -571 0
-449 -572 0
-449 -573 0
-449 -574 0
-449 -575 0
-450 -571 0
-450 -572 0
-450 -573 0
-450 -574 0
-450 -575 0
-571 -572 0
-571 -573 0
-571 -574 0
-571 -575 0
-572 -573 0
-572 -574 0
-572 -575 0
-573 -574 0
-573 -575 0
-574 -575 0
76 77 78 79 80 201 202 203 204 205 326 327 328 329 330 451 452 453 454 455 576 577 578 579 580 0
-76 -77 0
-76 -78 0
-76 -79 0
-76 -80 0
-76 -201 0
-76 -202 0
-76 -203 0
-76 -204 0
-76 -205 0
-76 -326 0
-76 -327 0
-76 -328 0
-76 -329 0
-76 -330 0
-76 -451 0
-76 -452 0
-76 -453 0
-76 -454 0
-76 -455 0
-76 -576 0
-76 -577 0
-76 -578 0
-76 -579 0
-76 -580 0
-77 -78 0
-77 -79 0
-77 -80 0
-77 -201 0
-77 -202 0
-77 -203 0
-77 -204 0
-77 -205 0
-77 -326 0
-77 -327 0
-77 -328 0
-77 -329 0
-77 -330 0
-77 -451 0
-77 -452 0
-77 -453 0
-77 -454 0
-77 -455 0
-77 -576 0
-77 -577 0
-77 -578 0
-77 -579 0
-77 -580 0
-78 -79 0
-78 -80 0
-78 -201 0
-78 -202 0
-78 -203 0
-78 -204 0
-78 -205 0
-78 -326 0
-78 -327 0
-78 -328 0
-78 -329 0
-78 -330 0
-78 -451 0
-78 -452 0
-78 -453 0
-78 -454 0
-78 -455 0
-78 -576 0
-78 -577 0
-78 -578 0
-78 -579 0
-78 -580 0
-79 -80 0
-79 -201 0
-79 -202 0
-79 -203 0
-79 -204 0
-79 -205 0
-79 -326 0
-79 -327 0
-79 -328 0
-79 -329 0
-79 -330 0
-79 -451 0
-79 -452 0
-79 -453 0
-79 -454 0
-79 -455 0
-79 -576 0
-79 -577 0
-79 -578 0
-79 -579 0
-79 -580 0
-80 -201 0
-80 -202 0
-80 -203 0
-80 -204 0
-80 -205 0
-80 -326 0
-80 -327 0
-80 -328 0
-80 -329 0
-80 -330 0
-80 -451 0
-80 -452 0
-80 -453 0
-80 -454 0
-80 -455 0
-80 -576 0
-80 -577 0
-80 -578 0
-80 -579 0
-80 -580 0
-201 -202 0
-201 -203 0
-201 -204 0
-201 -205 0
-201 -326 0
-201 -327 0
-201 -328 0
-201 -329 0
-201 -330 0
-201 -451 0
-201 -452 0
-201 -453 0
-201 -454 0
-201 -455 0
-201 -576 0
-201 -577 0
-201 -578 0
-201 -579 0
-201 -580 0
-202 -203 0
-202 -204 0
-202 -205 0
-202 -326 0
-202 -327 0
-202 -328 0
-202 -329 0
-202 -330 0
-202 -451 0
-202 -452 0
-202 -453 0
-202 -454 0
-202 -455 0
-202 -576 0
-202 -577 0
-202 -578 0
-202 -579 0
-202 -580 0
-203 -204 0
-203 -205 0
-203 -326 0
-203 -327 0
-203 -328 0
-203 -329 0
-203 -330 0
-203 -451 0
-203 -452 0
-203 -453 0
-203 -454 0
-203 -455 0
-203 -576 0
-203 -577 0
-203 -578 0
-203 -579 0
-203 -580 0
-204 -205 0
-204 -326 0
-204 -327 0
-204 -328 0
-204 -329 0
-204 -330 0
-204 -451 0
-204 -452 0
-204 -453 0
-204 -454 0
-204 -455 0
-204 -576 0
-204 -577 0
-204 -578 0
-204 -579 0
-204 -580 0
-205 -326 0
-205 -327 0
-205 -328 0
-205 -329 0
-205 -330 0
-205 -451 0
-205 -452 0
-205 -453 0
-205 -454 0
-205 -455 0
-205 -576 0
-205 -577 0
-205 -578 0
-205 -579 0
-205 -580 0
-326 -327 0
-326 -328 0
-326 -329 0
-326 -330 0
-326 -451 0
-326 -452 0
-326 -453 0
-326 -454 0
-326 -455 0
-326 -576 0
-326 -577 0
-326 -578 0
-326 -579 0
-326 -580 0
-327 -328 0
-327 -329 0
-327 -330 0
-327 -451 0
-327 -452 0
-327 -453 0
-327 -454 0
-327 -455 0
-327 -576 0
-327 -577 0
-327 -578 0
-327 -579 0
-327 -580 0
-328 -329 0
-328 -330 0
-328 -451 0
-328 -452 0
-328 -453 0
-328 -454 0
-328 -455 0
-328 -576 0
-328 -577 0
-328 -578 0
-328 -579 0
-328 -580 0
-329 -330 0
-329 -451 0
-329 -452 0
-329 -453 0
-329 -454 0
-329 -455 0
-329 -576 0
-329 -577 0
-329 -578 0
-329 -579 0
-329 -580 0
-330 -451 0
-330 -452 0
-330 -453 0
-330 -454 0
-330 -455 0
-330 -576 0
-330 -577 0
-330 -578 0
-330 -579 0
-330 -580 0
-451 -452 0
-451 -453 0
-451 -454 0
-451 -455 0
-451 -576 0
-451 -577 0
-451 -578 0
-451 -579 0
-451 -580 0
-452 -453 0
-452 -454 0
-452 -455 0
-452 -576 0
-452 -577 0
-452 -578 0
-452 -579 0
-452 -580 0
-453 -454 0
-453 -455 0
-453 -576 0
-453 -577 0
-453 -578 0
-453 -579 0
-453 -580 0
-454 -455 0
-454 -576 0
-454 -577 0
-454 -578 0
-454 -579 0
-454 -580 0
-455 -576 0
-455 -577 0
-455 -578 0
-455 -579 0
-455 -580 0
-576 -577 0
-576 -578 0
-576 -579 0
-576 -580 0
-577 -578 0
-577 -579 0
-577 -580 0
-578 -579 0
-578 -580 0
-579 -580 0
81 82 83 84 85 206 207 208 209 210 331 332 333 334 335 456 457 458 459 460 581 582 583 584 585 0
-81 -82 0
-81 -83 0
-81 -84 0
-81 -85 0
-81 -206 0
-81 -207 0
-81 -208 0
-81 -209 0
-81 -210 0
-81 -331 0
-81 -332 0
-81 -333 0
-81 -334 0
-81 -335 0
-81 -456 0
-81 -457 0
-81 -458 0
-81 -459 0
-81 -460 0
-81 -581 0
-81 -582 0
-81 -583 0
-81 -584 0
-81 -585 0
-82 -83 0
-82 -84 0
-82 -85 0
-82 -206 0
-82 -207 0
-82 -208 0
-82 -209 0
-82 -210 0
-82 -331 0
-82 -332 0
-82 -333 0
-82 -334 0
-82 -335 0
-82 -456 0
-82 -457 0
-82 -458 0
-82 -459 0
-82 -460 0
-82 -581 0
-82 -582 0
-82 -583 0
-82 -584 0
-82 -585 0
-83 -84 0
-83 -85 0
-83 -206 0
-83 -207 0
-83 -208 0
-83 -209 0
-83 -210 0
-83 -331 0
-83 -332 0
-83 -333 0
-83 -334 0
-83 -335 0
-83 -456 0
-83 -457 0
-83 -458 0
-83 -459 0
-83 -460 0
-83 -581 0
-83 -582 0
-83 -583 0
-83 -584 0
-83 -585 0
-84 -85 0
-84 -206 0
-84 -207 0
-84 -208 0
-84 -209 0
-84 -210 0
-84 -331 0
-84 -332 0
-84 -333 0
-84 -334 0
-84 -335 0
-84 -456 0
-84 -457 0
-84 -458 0
-84 -459 0
-84 -460 0
-84 -581 0
-84 -582 0
-84 -583 0
-84 -584 0
-84 -585 0
-85 -206 0
-85 -207 0
-85 -208 0
-85 -209 0
-85 -210 0
-85 -331 0
-85 -332 0
-85 -333 0
-85 -334 0
-85 -335 0
-85 -456 0
-85 -457 0
-85 -458 0
-85 -459 0
-85 -460 0
-85 -581 0
-85 -582 0
-85 -583 0
-85 -584 0
-85 -585 0
-206 -207 0
-206 -208 0
-206 -209 0
-206 -210 0
-206 -331 0
-206 -332 0
-206 -333 0
-206 -334 0
-206 -335 0
-206 -456 0
-206 -457 0
-206 -458 0
-206 -459 0
-206 -460 0
-206 -581 0
-206 -582 0
-206 -583 0
-206 -584 0
-206 -585 0
-207 -208 0
-207 -209 0
-207 -210 0
-207 -331 0
-207 -332 0
-207 -333 0
-207 -334 0
-207 -335 0
-207 -456 0
-207 -457 0
-207 -458 0
-207 -459 0
-207 -460 0
-207 -581 0
-207 -582 0
-207 -583 0
-207 -584 0
-207 -585 0
-208 -209 0
-208 -210 0
-208 -331 0
-208 -332 0
-208 -333 0
-208 -334 0
-208 -335 0
-208 -456 0
-208 -457 0
-208 -458 0
-208 -459 0
-208 -460 0
-208 -581 0
-208 -582 0
-208 -583 0
-208 -584 0
-208 -585 0
-209 -210 0
-209 -331 0
-209 -332 0
-209 -333 0
-209 -334 0
-209 -335 0
-209 -456 0
-209 -457 0
-209 -458 0
-209 -459 0
-209 -460 0
-209 -581 0
-209 -582 0
-209 -583 0
-209 -584 0
-209 -585 0
-210 -331 0
-210 -332 0
-210 -333 0
-210 -334 0
-210 -335 0
-210 -456 0
-210 -457 0
-210 -458 0
-210 -459 0
-210 -460 0
-210 -581 0
-210 -582 0
-210 -583 0
-210 -584 0
-210 -585 0
-331 -332 0
-331 -333 0
-331 -334 0
-331 -335 0
-331 -456 0
-331 -457 0
-331 -458 0
-331 -459 0
-331 -460 0
-331 -581 0
-331 -582 0
-331 -583 0
-331 -584 0
-331 -585 0
-332 -333 0
-332 -334 0
-332 -335 0
-332 -456 0
-332 -457 0
-332 -458 0
-332 -459 0
-332 -460 0
-332 -581 0
-332 -582 0
-332 -583 0
-332 -584 0
-332 -585 0
-333 -334 0
-333 -335 0
-333 -456 0
-333 -457 0
-333 -458 0
-333 -459 0
-333 -460 0
-333 -581 0
-333 -582 0
-333 -583 0
-333 -584 0
-333 -585 0
-334 -335 0
-334 -456 0
-334 -457 0
-334 -458 0
-334 -459 0
-334 -460 0
-334 -581 0
-334 -582 0
-334 -583 0
-334 -584 0
-334 -585 0
-335 -456 0
-335 -457 0
-335 -458 0
-335 -459 0
-335 -460 0
-335 -581 0
-335 -582 0
-335 -583 0
-335 -584 0
-335 -585 0
-456 -457 0
-456 -458 0
-456 -459 0
-456 -460 0
-456 -581 0
-456 -582 0
-456 -583 0
-456 -584 0
-456 -585 0
-457 -458 0
-457 -459 0
-457 -460 0
-457 -581 0
-457 -582 0
-457 -583 0
-457 -584 0
-457 -585 0
-458 -459 0
-458 -460 0
-458 -581 0
-458 -582 0
-458 -583 0
-458 -584 0
-458 -585 0
-459 -460 0
-459 -581 0
-459 -582 0
-459 -583 0
-459 -584 0
-459 -585 0
-460 -581 0
-460 -582 0
-460 -583 0
-460 -584 0
-460 -585 0
-581 -582 0
-581 -583 0
-581 -584 0
-581 -585 0
-582 -583 0
-582 -584 0
-582 -585 0
-583 -584 0
-583 -585 0
-584 -585 0
86 87 88 89 90 211 212 213 214 215 336 337 338 339 340 461 462 463 464 465 586 587 588 589 590 0
-86 -87 0
-86 -88 0
-86 -89 0
-86 -90 0
-86 -211 0
-86 -212 0
-86 -213 0
-86 -214 0
-86 -215 0
-86 -336 0
-86 -337 0
-86 -338 0
-86 -339 0
-86 -340 0
-86 -461 0
-86 -462 0
-86 -463 0
-86 -464 0
-86 -465 0
-86 -586 0
-86 -587 0
-86 -588 0
-86 -589 0
-86 -590 0
-87 -88 0
-87 -89 0
-87 -90 0
-87 -211 0
-87 -212 0
-87 -213 0
-87 -214 0
-87 -215 0
-87 -336 0
-87 -337 0
-87 -338 0
-87 -339 0
-87 -340 0
-87 -461 0
-87 -462 0
-87 -463 0
-87 -464 0
-87 -465 0
-87 -586 0
-87 -587 0
-87 -588 0
-87 -589 0
-87 -590 0
-88 -89 0
-88 -90 0
-88 -211 0
-88 -212 0
-88 -213 0
-88 -214 0
-88 -215 0
-88 -336 0
-88 -337 0
-88 -338 0
-88 -339 0
-88 -340 0
-88 -461 0
-88 -462 0
-88 -463 0
-88 -464 0
-88 -465 0
-88 -586 0
-88 -587 0
-88 -588 0
-88 -589 0
-88 -590 0
-89 -90 0
-89 -211 0
-89 -212 0
-89 -213 0
-89 -214 0
-89 -215 0
-89 -336 0
-89 -337 0
-89 -338 0
-89 -339 0
-89 -340 0
-89 -461 0
-89 -462 0
-89 -463 0
-89 -464 0
-89 -465 0
-89 -586 0
-89 -587 0
-89 -588 0
-89 -589 0
-89 -590 0
-90 -211 0
-90 -212 0
-90 -213 0
-90 -214 0
-90 -215 0
-90 -336 0
-90 -337 0
-90 -338 0
-90 -339 0
-90 -340 0
-90 -461 0
-90 -462 0
-90 -463 0
-90 -464 0
-90 -465 0
-90 -586 0
-90 -587 0
-90 -588 0
-90 -589 0
-90 -590 0
-211 -212 0
-211 -213 0
-211 -214 0
-211 -215 0
-211 -336 0
-211 -337 0
-211 -338 0
-211 -339 0
-211 -340 0
-211 -461 0
-211 -462 0
-211 -463 0
-211 -464 0
-211 -465 0
-211 -586 0
-211 -587 0
-211 -588 0
-211 -589 0
-211 -590 0
-212 -213 0
-212 -214 0
-212 -215 0
-212 -336 0
-212 -337 0
-212 -338 0
-212 -339 0
-212 -340 0
-212 -461 0
-212 -462 0
-212 -463 0
-212 -464 0
-212 -465 0
-212 -586 0
-212 -587 0
-212 -588 0
-212 -589 0
-212 -590 0
-213 -214 0
-213 -215 0
-213 -336 0
-213 -337 0
-213 -338 0
-213 -339 0
-213 -340 0
-213 -461 0
-213 -462 0
-213 -463 0
-213 -464 0
-213 -465 0
-213 -586 0
-213 -587 0
-213 -588 0
-213 -589 0
-213 -590 0
-214 -215 0
-214 -336 0
-214 -337 0
-214 -338 0
-214 -339 0
-214 -340 0
-214 -461 0
-214 -462 0
-214 -463 0
-214 -464 0
-214 -465 0
-214 -586 0
-214 -587 0
-214 -588 0
-214 -589 0
-214 -590 0
-215 -336 0
-215 -337 0
-215 -338 0
-215 -339 0
-215 -340 0
-215 -461 0
-215 -462 0
-215 -463 0
-215 -464 0
-215 -465 0
-215 -586 0
-215 -587 0
-215 -588 0
-215 -589 0
-215 -590 0
-336 -337 0
-336 -338 0
-336 -339 0
-336 -340 0
-336 -461 0
-336 -462 0
-336 -463 0
-336 -464 0
-336 -465 0
-336 -586 0
-336 -587 0
-336 -588 0
-336 -589 0
-336 -590 0
-337 -338 0
-337 -339 0
-337 -340 0
-337 -461 0
-337 -462 0
-337 -463 0
-337 -464 0
-337 -465 0
-337 -586 0
-337 -587 0
-337 -588 0
-337 -589 0
-337 -590 0
-338 -339 0
-338 -340 0
-338 -461 0
-338 -462 0
-338 -463 0
-338 -464 0
-338 -465 0
-338 -586 0
-338 -587 0
-338 -588 0
-338 -589 0
-338 -590 0
-339 -340 0
-339 -461 0
-339 -462 0
-339 -463 0
-339 -464 0
-339 -465 0
-339 -586 0
-339 -587 0
-339 -588 0
-339 -589 0
-339 -590 0
-340 -461 0
-340 -462 0
-340 -463 0
-340 -464 0
-340 -465 0
-340 -586 0
-340 -587 0
-340 -588 0
-340 -589 0
-340 -590 0
-461 -462 0
-461 -463 0
-461 -464 0
-461 -465 0
-461 -586 0
-461 -587 0
-461 -588 0
-461 -589 0
-461 -590 0
-462 -463 0
-462 -464 0
-462 -465 0
-462 -586 0
-462 -587 0
-462 -588 0
-462 -589 0
-462 -590 0
-463 -464 0
-463 -465 0
-463 -586 0
-463 -587 0
-463 -588 0
-463 -589 0
-463 -590 0
-464 -465 0
-464 -586 0
-464 -587 0
-464 -588 0
-464 -589 0
-464 -590 0
-465 -586 0
-465 -587 0
-465 -588 0
-465 -589 0
-465 -590 0
-586 -587 0
-586 -588 0
-586 -589 0
-586 -590 0
-587 -588 0
-587 -589 0
-587 -590 0
-588 -589 0
-588 -590 0
-589 -590 0
91 92 93 94 95 216 217 218 219 220 341 342 343 344 345 466 467 468 469 470 591 592 593 594 595 0
-91 -92 0
-91 -93 0
-91 -94 0
-91 -95 0
-91 -216 0
-91 -217 0
-91 -218 0
-91 -219 0
-91 -220 0
-91 -341 0
-91 -342 0
-91 -343 0
-91 -344 0
-91 -345 0
-91 -466 0
-91 -467 0
-91 -468 0
-91 -469 0
-91 -470 0
-91 -591 0
-91 -592 0
-91 -593 0
-91 -594 0
-91 -595 0
-92 -93 0
-92 -94 0
-92 -95 0
-92 -216 0
-92 -217 0
-92 -218 0
-92 -219 0
-92 -220 0
-92 -341 0
-92 -342 0
-92 -343 0
-92 -344 0
-92 -345 0
-92 -466 0
-92 -467 0
-92 -468 0
-92 -469 0
-92 -470 0
-92 -591 0
-92 -592 0
-92 -593 0
-92 -594 0
-92 -595 0
-93 -94 0
-93 -95 0
-93 -216 0
-93 -217 0
-93 -218 0
-93 -219 0
-93 -220 0
-93 -341 0
-93 -342 0
-93 -343 0
-93 -344 0
-93 -345 0
-93 -466 0
-93 -467 0
-93 -468 0
-93 -469 0
-93 -470 0
-93 -591 0
-93 -592 0
-93 -593 0
-93 -594 0
-93 -595 0
-94 -95 0
-94 -216 0
-94 -217 0
-94 -218 0
-94 -219 0
-94 -220 0
-94 -341 0
-94 -342 0
-94 -343 0
-94 -344 0
-94 -345 0
-94 -466 0
-94 -467 0
-94 -468 0
-94 -469 0
-94 -470 0
-94 -591 0
-94 -592 0
-94 -593 0
-94 -594 0
-94 -595 0
-95 -216 0
-95 -217 0
-95 -218 0
-95 -219 0
-95 -220 0
-95 -341 0
-95 -342 0
-95 -343 0
-95 -344 0
-95 -345 0
-95 -466 0
-95 -467 0
-95 -468 0
-95 -469 0
-95 -470 0
-95 -591 0
-95 -592 0
-95 -593 0
-95 -594 0
-95 -595 0
-216 -217 0
-216 -218 0
-216 -219 0
-216 -220 0
-216 -341 0
-216 -342 0
-216 -343 0
-216 -344 0
-216 -345 0
-216 -466 0
-216 -467 0
-216 -468 0
-216 -469 0
-216 -470 0
-216 -591 0
-216 -592 0
-216 -593 0
-216 -594 0
-216 -595 0
-217 -218 0
-217 -219 0
-217 -220 0
-217 -341 0
-217 -342 0
-217 -343 0
-217 -344 0
-217 -345 0
-217 -466 0
-217 -467 0
-217 -468 0
-217 -469 0
-217 -470 0
-217 -591 0
-217 -592 0
-217 -593 0
-217 -594 0
-217 -595 0
-218 -219 0
-218 -220 0
-218 -341 0
-218 -342 0
-218 -343 0
-218 -344 0
-218 -345 0
-218 -466 0
-218 -467 0
-218 -468 0
-218 -469 0
-218 -470 0
-218 -591 0
-218 -592 0
-218 -593 0
-218 -594 0
-218 -595 0
-219 -220 0
-219 -341 0
-219 -342 0
-219 -343 0
-219 -344 0
-219 -345 0
-219 -466 0
-219 -467 0
-219 -468 0
-219 -469 0
-219 -470 0
-219 -591 0
-219 -592 0
-219 -593 0
-219 -594 0
-219 -595 0
-220 -341 0
-220 -342 0
-220 -343 0
-220 -344 0
-220 -345 0
-220 -466 0
-220 -467 0
-220 -468 0
-220 -469 0
-220 -470 0
-220 -591 0
-220 -592 0
-220 -593 0
-220 -594 0
-220 -595 0
-341 -342 0
-341 -343 0
-341 -344 0
-341 -345 0
-341 -466 0
-341 -467 0
-341 -468 0
-341 -469 0
-341 -470 0
-341 -591 0
-341 -592 0
-341 -593 0
-341 -594 0
-341 -595 0
-342 -343 0
-342 -344 0
-342 -345 0
-342 -466 0
-342 -467 0
-342 -468 0
-342 -469 0
-342 -470 0
-342 -591 0
-342 -592 0
-342 -593 0
-342 -594 0
-342 -595 0
-343 -344 0
-343 -345 0
-343 -466 0
-343 -467 0
-343 -468 0
-343 -469 0
-343 -470 0
-343 -591 0
-343 -592 0
-343 -593 0
-343 -594 0
-343 -595 0
-344 -345 0
-344 -466 0
-344 -467 0
-344 -468 0
-344 -469 0
-344 -470 0
-344 -591 0
-344 -592 0
-344 -593 0
-344 -594 0
-344 -595 0
-345 -466 0
-345 -467 0
-345 -468 0
-345 -469 0
-345 -470 0
-345 -591 0
-345 -592 0
-345 -593 0
-345 -594 0
-345 -595 0
-466 -467 0
-466 -468 0
-466 -469 0
-466 -470 0
-466 -591 0
-466 -592 0
-466 -593 0
-466 -594 0
-466 -595 0
-467 -468 0
-467 -469 0
-467 -470 0
-467 -591 0
-467 -592 0
-467 -593 0
-467 -594 0
-467 -595 0
-468 -469 0
-468 -470 0
-468 -591 0
-468 -592 0
-468 -593 0
-468 -594 0
-468 -595 0
-469 -470 0
-469 -591 0
-469 -592 0
-469 -593 0
-469 -594 0
-469 -595 0
-470 -591 0
-470 -592 0
-470 -593 0
-470 -594 0
-470 -595 0
-591 -592 0
-591 -593 0
-591 -594 0
-591 -595 0
-592 -593 0
-592 -594 0
-592 -595 0
-593 -594 0
-593 -595 0
-594 -595 0
96 97 98 99 100 221 222 223 224 225 346 347 348 349 350 471 472 473 474 475 596 597 598 599 600 0
-96 -97 0
-96 -98 0
-96 -99 0
-96 -100 0
-96 -221 0
-96 -222 0
-96 -223 0
-96 -224 0
-96 -225 0
-96 -346 0
-96 -347 0
-96 -348 0
-96 -349 0
-96 -350 0
-96 -471 0
-96 -472 0
-96 -473 0
-96 -474 0
-96 -475 0
-96 -596 0
-96 -597 0
-96 -598 0
-96 -599 0
-96 -600 0
-97 -98 0
-97 -99 0
-97 -100 0
-97 -221 0
-97 -222 0
-97 -223 0
-97 -224 0
-97 -225 0
-97 -346 0
-97 -347 0
-97 -348 0
-97 -349 0
-97 -350 0
-97 -471 0
-97 -472 0
-97 -473 0
-97 -474 0
-97 -475 0
-97 -596 0
-97 -597 0
-97 -598 0
-97 -599 0
-97 -600 0
-98 -99 0
-98 -100 0
-98 -221 0
-98 -222 0
-98 -223 0
-98 -224 0
-98 -225 0
-98 -346 0
-98 -347 0
-98 -348 0
-98 -349 0
-98 -350 0
-98 -471 0
-98 -472 0
-98 -473 0
-98 -474 0
-98 -475 0
-98 -596 0
-98 -597 0
-98 -598 0
-98 -599 0
-98 -600 0
-99 -100 0
-99 -221 0
-99 -222 0
-99 -223 0
-99 -224 0
-99 -225 0
-99 -346 0
-99 -347 0
-99 -348 0
-99 -349 0
-99 -350 0
-99 -471 0
-99 -472 0
-99 -473 0
-99 -474 0
-99 -475 0
-99 -596 0
-99 -597 0
-99 -598 0
-99 -599 0
-99 -600 0
-100 -221 0
-100 -222 0
-100 -223 0
-100 -224 0
-100 -225 0
-100 -346 0
-100 -347 0
-100 -348 0
-100 -349 0
-100 -350 0
-100 -471 0
-100 -472 0
-100 -473 0
-100 -474 0
-100 -475 0
-100 -596 0
-100 -597 0
-100 -598 0
-100 -599 0
-100 -600 0
-221 -222 0
-221 -223 0
-221 -224 0
-221 -225 0
-221 -346 0
-221 -347 0
-221 -348 0
-221 -349 0
-221 -350 0
-221 -471 0
-221 -472 0
-221 -473 0
-221 -474 0
-221 -475 0
-221 -596 0
-221 -597 0
-221 -598 0
-221 -599 0
-221 -600 0
-222 -223 0
-222 -224 0
-222 -225 0
-222 -346 0
-222 -347 0
-222 -348 0
-222 -349 0
-222 -350 0
-222 -471 0
-222 -472 0
-222 -473 0
-222 -474 0
-222 -475 0
-222 -596 0
-222 -597 0
-222 -598 0
-222 -599 0
-222 -600 0
-223 -224 0
-223 -225 0
-223 -346 0
-223 -347 0
-223 -348 0
-223 -349 0
-223 -350 0
-223 -471 0
-223 -472 0
-223 -473 0
-223 -474 0
-223 -475 0
-223 -596 0
-223 -597 0
-223 -598 0
-223 -599 0
-223 -600 0
-224 -225 0
-224 -346 0
-224 -347 0
-224 -348 0
-224 -349 0
-224 -350 0
-224 -471 0
-224 -472 0
-224 -473 0
-224 -474 0
-224 -475 0
-224 -596 0
-224 -597 0
-224 -598 0
-224 -599 0
-224 -600 0
-225 -346 0
-225 -347 0
-225 -348 0
-225 -349 0
-225 -350 0
-225 -471 0
-225 -472 0
-225 -473 0
-225 -474 0
-225 -475 0
-225 -596 0
-225 -597 0
-225 -598 0
-225 -599 0
-225 -600 0
-346 -347 0
-346 -348 0
-346 -349 0
-346 -350 0
-346 -471 0
-346 -472 0
-346 -473 0
-346 -474 0
-346 -475 0
-346 -596 0
-346 -597 0
-346 -598 0
-346 -599 0
-346 -600 0
-347 -348 0
-347 -349 0
-347 -350 0
-347 -471 0
-347 -472 0
-347 -473 0
-347 -474 0
-347 -475 0
-347 -596 0
-347 -597 0
-347 -598 0
-347 -599 0
-347 -600 0
-348 -349 0
-348 -350 0
-348 -471 0
-348 -472 0
-348 -473 0
-348 -474 0
-348 -475 0
-348 -596 0
-348 -597 0
-348 -598 0
-348 -599 0
-348 -600 0
-349 -350 0
-349 -471 0
-349 -472 0
-349 -473 0
-349 -474 0
-349 -475 0
-349 -596 0
-349 -597 0
-349 -598 0
-349 -599 0
-349 -600 0
-350 -471 0
-350 -472 0
-350 -473 0
-350 -474 0
-350 -475 0
-350 -596 0
-350 -597 0
-350 -598 0
-350 -599 0
-350 -600 0
-471 -472 0
-471 -473 0
-471 -474 0
-471 -475 0
-471 -596 0
-471 -597 0
-471 -598 0
-471 -599 0
-471 -600 0
-472 -473 0
-472 -474 0
-472 -475 0
-472 -596 0
-472 -597 0
-472 -598 0
-472 -599 0
-472 -600 0
-473 -474 0
-473 -475 0
-473 -596 0
-473 -597 0
-473 -598 0
-473 -599 0
-473 -600 0
-474 -475 0
-474 -596 0
-474 -597 0
-474 -598 0
-474 -599 0
-474 -600 0
-475 -596 0
-475 -597 0
-475 -598 0
-475 -599 0
-475 -600 0
-596 -597 0
-596 -598 0
-596 -599 0
-596 -600 0
-597 -598 0
-597 -599 0
-597 -600 0
-598 -599 0
-598 -600 0
-599 -600 0
101 102 103 104 105 226 227 228 229 230 351 352 353 354 355 476 477 478 479 480 601 602 603 604 605 0
-101 -102 0
-101 -103 0
-101 -104 0
-101 -105 0
-101 -226 0
-101 -227 0
-101 -228 0
-101 -229 0
-101 -230 0
-101 -351 0
-101 -352 0
-101 -353 0
-101 -354 0
-101 -355 0
-101 -476 0
-101 -477 0
-101 -478 0
-101 -479 0
-101 -480 0
-101 -601 0
-101 -602 0
-101 -603 0
-101 -604 0
-101 -605 0
-102 -103 0
-102 -104 0
-102 -105 0
-102 -226 0
-102 -227 0
-102 -228 0
-102 -229 0
-102 -230 0
-102 -351 0
-102 -352 0
-102 -353 0
-102 -354 0
-102 -355 0
-102 -476 0
-102 -477 0
-102 -478 0
-102 -479 0
-102 -480 0
-102 -601 0
-102 -602 0
-102 -603 0
-102 -604 0
-102 -605 0
-103 -104 0
-103 -105 0
-103 -226 0
-103 -227 0
-103 -228 0
-103 -229 0
-103 -230 0
-103 -351 0
-103 -352 0
-103 -353 0
-103 -354 0
-103 -355 0
-103 -476 0
-103 -477 0
-103 -478 0
-103 -479 0
-103 -480 0
-103 -601 0
-103 -602 0
-103 -603 0
-103 -604 0
-103 -605 0
-104 -105 0
-104 -226 0
-104 -227 0
-104 -228 0
-104 -229 0
-104 -230 0
-104 -351 0
-104 -352 0
-104 -353 0
-104 -354 0
-104 -355 0
-104 -476 0
-104 -477 0
-104 -478 0
-104 -479 0
-104 -480 0
-104 -601 0
-104 -602 0
-104 -603 0
-104 -604 0
-104 -605 0
-105 -226 0
-105 -227 0
-105 -228 0
-105 -229 0
-105 -230 0
-105 -351 0
-105 -352 0
-105 -353 0
-105 -354 0
-105 -355 0
-105 -476 0
-105 -477 0
-105 -478 0
-105 -479 0
-105 -480 0
-105 -601 0
-105 -602 0
-105 -603 0
-105 -604 0
-105 -605 0
-226 -227 0
-226 -228 0
-226 -229 0
-226 -230 0
-226 -351 0
-226 -352 0
-226 -353 0
-226 -354 0
-226 -355 0
-226 -476 0
-226 -477 0
-226 -478 0
-226 -479 0
-226 -480 0
-226 -601 0
-226 -602 0
-226 -603 0
-226 -604 0
-226 -605 0
-227 -228 0
-227 -229 0
-227 -230 0
-227 -351 0
-227 -352 0
-227 -353 0
-227 -354 0
-227 -355 0
-227 -476 0
-227 -477 0
-227 -478 0
-227 -479 0
-227 -480 0
-227 -601 0
-227 -602 0
-227 -603 0
-227 -604 0
-227 -605 0
-228 -229 0
-228 -230 0
-228 -351 0
-228 -352 0
-228 -353 0
-228 -354 0
-228 -355 0
-228 -476 0
-228 -477 0
-228 -478 0
-228 -479 0
-228 -480 0
-228 -601 0
-228 -602 0
-228 -603 0
-228 -604 0
-228 -605 0
-229 -230 0
-229 -351 0
-229 -352 0
-229 -353 0
-229 -354 0
-229 -355 0
-229 -476 0
-229 -477 0
-229 -478 0
-229 -479 0
-229 -480 0
-229 -601 0
-229 -602 0
-229 -603 0
-229 -604 0
-229 -605 0
-230 -351 0
-230 -352 0
-230 -353 0
-230 -354 0
-230 -355 0
-230 -476 0
-230 -477 0
-230 -478 0
-230 -479 0
-230 -480 0
-230 -601 0
-230 -602 0
-230 -603 0
-230 -604 0
-230 -605 0
-351 -352 0
-351 -353 0
-351 -354 0
-351 -355 0
-351 -476 0
-351 -477 0
-351 -478 0
-351 -479 0
-351 -480 0
-351 -601 0
-351 -602 0
-351 -603 0
-351 -604 0
-351 -605 0
-352 -353 0
-352 -354 0
-352 -355 0
-352 -476 0
-352 -477 0
-352 -478 0
-352 -479 0
-352 -480 0
-352 -601 0
-352 -602 0
-352 -603 0
-352 -604 0
-352 -605 0
-353 -354 0
-353 -355 0
-353 -476 0
-353 -477 0
-353 -478 0
-353 -479 0
-353 -480 0
-353 -601 0
-353 -602 0
-353 -603 0
-353 -604 0
-353 -605 0
-354 -355 0
-354 -476 0
-354 -477 0
-354 -478 0
-354 -479 0
-354 -480 0
-354 -601 0
-354 -602 0
-354 -603 0
-354 -604 0
-354 -605 0
-355 -476 0
-355 -477 0
-355 -478 0
-355 -479 0
-355 -480 0
-355 -601 0
-355 -602 0
-355 -603 0
-355 -604 0
-355 -605 0
-476 -477 0
-476 -478 0
-476 -479 0
-476 -480 0
-476 -601 0
-476 -602 0
-476 -603 0
-476 -604 0
-476 -605 0
-477 -478 0
-477 -479 0
-477 -480 0
-477 -601 0
-477 -602 0
-477 -603 0
-477 -604 0
-477 -605 0
-478 -479 0
-478 -480 0
-478 -601 0
-478 -602 0
-478 -603 0
-478 -604 0
-478 -605 0
-479 -480 0
-479 -601 0
-479 -602 0
-479 -603 0
-479 -604 0
-479 -605 0
-480 -601 0
-480 -602 0
-480 -603 0
-480 -604 0
-480 -605 0
-601 -602 0
-601 -603 0
-601 -604 0
-601 -605 0
-602 -603 0
-602 -604 0
-602 -605 0
-603 -604 0
-603 -605 0
-604 -605 0
106 107 108 109 110 231 232 233 234 235 356 357 358 359 360 481 482 483 484 485 606 607 608 609 610 0
-106 -107 0
-106 -108 0
-106 -109 0
-106 -110 0
-106 -231 0
-106 -232 0
-106 -233 0
-106 -234 0
-106 -235 0
-106 -356 0
-106 -357 0
-106 -358 0
-106 -359 0
-106 -360 0
-106 -481 0
-106 -482 0
-106 -483 0
-106 -484 0
-106 -485 0
-106 -606 0
-106 -607 0
-106 -608 0
-106 -609 0
-106 -610 0
-107 -108 0
-107 -109 0
-107 -110 0
-107 -231 0
-107 -232 0
-107 -233 0
-107 -234 0
-107 -235 0
-107 -356 0
-107 -357 0
-107 -358 0
-107 -359 0
-107 -360 0
-107 -481 0
-107 -482 0
-107 -483 0
-107 -484 0
-107 -485 0
-107 -606 0
-107 -607 0
-107 -608 0
-107 -609 0
-107 -610 0
-108 -109 0
-108 -110 0
-108 -231 0
-108 -232 0
-108 -233 0
-108 -234 0
-108 -235 0
-108 -356 0
-108 -357 0
-108 -358 0
-108 -359 0
-108 -360 0
-108 -481 0
-108 -482 0
-108 -483 0
-108 -484 0
-108 -485 0
-108 -606 0
-108 -607 0
-108 -608 0
-108 -609 0
-108 -610 0
-109 -110 0
-109 -231 0
-109 -232 0
-109 -233 0
-109 -234 0
-109 -235 0
-109 -356 0
-109 -357 0
-109 -358 0
-109 -359 0
-109 -360 0
-109 -481 0
-109 -482 0
-109 -483 0
-109 -484 0
-109 -485 0
-109 -606 0
-109 -607 0
-109 -608 0
-109 -609 0
-109 -610 0
-110 -231 0
-110 -232 0
-110 -233 0
-110 -234 0
-110 -235 0
-110 -356 0
-110 -357 0
-110 -358 0
-110 -359 0
-110 -360 0
-110 -481 0
-110 -482 0
-110 -483 0
-110 -484 0
-110 -485 0
-110 -606 0
-110 -607 0
-110 -608 0
-110 -609 0
-110 -610 0
-231 -232 0
-231 -233 0
-231 -234 0
-231 -235 0
-231 -356 0
-231 -357 0
-231 -358 0
-231 -359 0
-231 -360 0
-231 -481 0
-231 -482 0
-231 -483 0
-231 -484 0
-231 -485 0
-231 -606 0
-231 -607 0
-231 -608 0
-231 -609 0
-231 -610 0
-232 -233 0
-232 -234 0
-232 -235 0
-232 -356 0
-232 -357 0
-232 -358 0
-232 -359 0
-232 -360 0
-232 -481 0
-232 -482 0
-232 -483 0
-232 -484 0
-232 -485 0
-232 -606 0
-232 -607 0
-232 -608 0
-232 -609 0
-232 -610 0
-233 -234 0
-233 -235 0
-233 -356 0
-233 -357 0
-233 -358 0
-233 -359 0
-233 -360 0
-233 -481 0
-233 -482 0
-233 -483 0
-233 -484 0
-233 -485 0
-233 -606 0
-233 -607 0
-233 -608 0
-233 -609 0
-233 -610 0
-234 -235 0
-234 -356 0
-234 -357 0
-234 -358 0
-234 -359 0
-234 -360 0
-234 -481 0
-234 -482 0
-234 -483 0
-234 -484 0
-234 -485 0
-234 -606 0
-234 -607 0
-234 -608 0
-234 -609 0
-234 -610 0
-235 -356 0
-235 -357 0
-235 -358 0
-235 -359 0
-235 -360 0
-235 -481 0
-235 -482 0
-235 -483 0
-235 -484 0
-235 -485 0
-235 -606 0
-235 -607 0
-235 -608 0
-235 -609 0
-235 -610 0
-356 -357 0
-356 -358 0
-356 -359 0
-356 -360 0
-356 -481 0
-356 -482 0
-356 -483 0
-356 -484 0
-356 -485 0
-356 -606 0
-356 -607 0
-356 -608 0
-356 -609 0
-356 -610 0
-357 -358 0
-357 -359 0
-357 -360 0
-357 -481 0
-357 -482 0
-357 -483 0
-357 -484 0
-357 -485 0
-357 -606 0
-357 -607 0
-357 -608 0
-357 -609 0
-357 -610 0
-358 -359 0
-358 -360 0
-358 -481 0
-358 -482 0
-358 -483 0
-358 -484 0
-358 -485 0
-358 -606 0
-358 -607 0
-358 -608 0
-358 -609 0
-358 -610 0
-359 -360 0
-359 -481 0
-359 -482 0
-359 -483 0
-359 -484 0
-359 -485 0
-359 -606 0
-359 -607 0
-359 -608 0
-359 -609 0
-359 -610 0
-360 -481 0
-360 -482 0
-360 -483 0
-360 -484 0
-360 -485 0
-360 -606 0
-360 -607 0
-360 -608 0
-360 -609 0
-360 -610 0
-481 -482 0
-481 -483 0
-481 -484 0
-481 -485 0
-481 -606 0
-481 -607 0
-481 -608 0
-481 -609 0
-481 -610 0
-482 -483 0
-482 -484 0
-482 -485 0
-482 -606 0
-482 -607 0
-482 -608 0
-482 -609 0
-482 -610 0
-483 -484 0
-483 -485 0
-483 -606 0
-483 -607 0
-483 -608 0
-483 -609 0
-483 -610 0
-484 -485 0
-484 -606 0
-484 -607 0
-484 -608 0
-484 -609 0
-484 -610 0
-485 -606 0
-485 -607 0
-485 -608 0
-485 -609 0
-485 -610 0
-606 -607 0
-606 -608 0
-606 -609 0
-606 -610 0
-607 -608 0
-607 -609 0
-607 -610 0
-608 -609 0
-608 -610 0
-609 -610 0
111 112 113 114 115 236 237 238 239 240 361 362 363 364 365 486 487 488 489 490 611 612 613 614 615 0
-111 -112 0
-111 -113 0
-111 -114 0
-111 -115 0
-111 -236 0
-111 -237 0
-111 -238 0
-111 -239 0
-111 -240 0
-111 -361 0
-111 -362 0
-111 -363 0
-111 -364 0
-111 -365 0
-111 -486 0
-111 -487 0
-111 -488 0
-111 -489 0
-111 -490 0
-111 -611 0
-111 -612 0
-111 -613 0
-111 -614 0
-111 -615 0
-112 -113 0
-112 -114 0
-112 -115 0
-112 -236 0
-112 -237 0
-112 -238 0
-112 -239 0
-112 -240 0
-112 -361 0
-112 -362 0
-112 -363 0
-112 -364 0
-112 -365 0
-112 -486 0
-112 -487 0
-112 -488 0
-112 -489 0
-112 -490 0
-112 -611 0
-112 -612 0
-112 -613 0
-112 -614 0
-112 -615 0
-113 -114 0
-113 -115 0
-113 -236 0
-113 -237 0
-113 -238 0
-113 -239 0
-113 -240 0
-113 -361 0
-113 -362 0
-113 -363 0
-113 -364 0
-113 -365 0
-113 -486 0
-113 -487 0
-113 -488 0
-113 -489 0
-113 -490 0
-113 -611 0
-113 -612 0
-113 -613 0
-113 -614 0
-113 -615 0
-114 -115 0
-114 -236 0
-114 -237 0
-114 -238 0
-114 -239 0
-114 -240 0
-114 -361 0
-114 -362 0
-114 -363 0
-114 -364 0
-114 -365 0
-114 -486 0
-114 -487 0
-114 -488 0
-114 -489 0
-114 -490 0
-114 -611 0
-114 -612 0
-114 -613 0
-114 -614 0
-114 -615 0
-115 -236 0
-115 -237 0
-115 -238 0
-115 -239 0
-115 -240 0
-115 -361 0
-115 -362 0
-115 -363 0
-115 -364 0
-115 -365 0
-115 -486 0
-115 -487 0
-115 -488 0
-115 -489 0
-115 -490 0
-115 -611 0
-115 -612 0
-115 -613 0
-115 -614 0
-115 -615 0
-236 -237 0
-236 -238 0
-236 -239 0
-236 -240 0
-236 -361 0
-236 -362 0
-236 -363 0
-236 -364 0
-236 -365 0
-236 -486 0
-236 -487 0
-236 -488 0
-236 -489 0
-236 -490 0
-236 -611 0
-236 -612 0
-236 -613 0
-236 -614 0
-236 -615 0
-237 -238 0
-237 -239 0
-237 -240 0
-237 -361 0
-237 -362 0
-237 -363 0
-237 -364 0
-237 -365 0
-237 -486 0
-237 -487 0
-237 -488 0
-237 -489 0
-237 -490 0
-237 -611 0
-237 -612 0
-237 -613 0
-237 -614 0
-237 -615 0
-238 -239 0
-238 -240 0
-238 -361 0
-238 -362 0
-238 -363 0
-238 -364 0
-238 -365 0
-238 -486 0
-238 -487 0
-238 -488 0
-238 -489 0
-238 -490 0
-238 -611 0
-238 -612 0
-238 -613 0
-238 -614 0
-238 -615 0
-239 -240 0
-239 -361 0
-239 -362 0
-239 -363 0
-239 -364 0
-239 -365 0
-239 -486 0
-239 -487 0
-239 -488 0
-239 -489 0
-239 -490 0
-239 -611 0
-239 -612 0
-239 -613 0
-239 -614 0
-239 -615 0
-240 -361 0
-240 -362 0
-240 -363 0
-240 -364 0
-240 -365 0
-240 -486 0
-240 -487 0
-240 -488 0
-240 -489 0
-240 -490 0
-240 -611 0
-240 -612 0
-240 -613 0
-240 -614 0
-240 -615 0
-361 -362 0
-361 -363 0
-361 -364 0
-361 -365 0
-361 -486 0
-361 -487 0
-361 -488 0
-361 -489 0
-361 -490 0
-361 -611 0
-361 -612 0
-361 -613 0
-361 -614 0
-361 -615 0
-362 -363 0
-362 -364 0
-362 -365 0
-362 -486 0
-362 -487 0
-362 -488 0
-362 -489 0
-362 -490 0
-362 -611 0
-362 -612 0
-362 -613 0
-362 -614 0
-362 -615 0
-363 -364 0
-363 -365 0
-363 -486 0
-363 -487 0
-363 -488 0
-363 -489 0
-363 -490 0
-363 -611 0
-363 -612 0
-363 -613 0
-363 -614 0
-363 -615 0
-364 -365 0
-364 -486 0
-364 -487 0
-364 -488 0
-364 -489 0
-364 -490 0
-364 -611 0
-364 -612 0
-364 -613 0
-364 -614 0
-364 -615 0
-365 -486 0
-365 -487 0
-365 -488 0
-365 -489 0
-365 -490 0
-365 -611 0
-365 -612 0
-365 -613 0
-365 -614 0
-365 -615 0
-486 -487 0
-486 -488 0
-486 -489 0
-486 -490 0
-486 -611 0
-486 -612 0
-486 -613 0
-486 -614 0
-486 -615 0
-487 -488 0
-487 -489 0
-487 -490 0
-487 -611 0
-487 -612 0
-487 -613 0
-487 -614 0
-487 -615 0
-488 -489 0
-488 -490 0
-488 -611 0
-488 -612 0
-488 -613 0
-488 -614 0
-488 -615 0
-489 -490 0
-489 -611 0
-489 -612 0
-489 -613 0
-489 -614 0
-489 -615 0
-490 -611 0
-490 -612 0
-490 -613 0
-490 -614 0
-490 -615 0
-611 -612 0
-611 -613 0
-611 -614 0
-611 -615 0
-612 -613 0
-612 -614 0
-612 -615 0
-613 -614 0
-613 -615 0
-614 -615 0
116 117 118 119 120 241 242 243 244 245 366 367 368 369 370 491 492 493 494 495 616 617 618 619 620 0
-116 -117 0
-116 -118 0
-116 -119 0
-116 -120 0
-116 -241 0
-116 -242 0
-116 -243 0
-116 -244 0
-116 -245 0
-116 -366 0
-116 -367 0
-116 -368 0
-116 -369 0
-116 -370 0
-116 -491 0
-116 -492 0
-116 -493 0
-116 -494 0
-116 -495 0
-116 -616 0
-116 -617 0
-116 -618 0
-116 -619 0
-116 -620 0
-117 -118 0
-117 -119 0
-117 -120 0
-117 -241 0
-117 -242 0
-117 -243 0
-117 -244 0
-117 -245 0
-117 -366 0
-117 -367 0
-117 -368 0
-117 -369 0
-117 -370 0
-117 -491 0
-117 -492 0
-117 -493 0
-117 -494 0
-117 -495 0
-117 -616 0
-117 -617 0
-117 -618 0
-117 -619 0
-117 -620 0
-118 -119 0
-118 -120 0
-118 -241 0
-118 -242 0
-118 -243 0
-118 -244 0
-118 -245 0
-118 -366 0
-118 -367 0
-118 -368 0
-118 -369 0
-118 -370 0
-118 -491 0
-118 -492 0
-118 -493 0
-118 -494 0
-118 -495 0
-118 -616 0
-118 -617 0
-118 -618 0
-118 -619 0
-118 -620 0
-119 -120 0
-119 -241 0
-119 -242 0
-119 -243 0
-119 -244 0
-119 -245 0
-119 -366 0
-119 -367 0
-119 -368 0
-119 -369 0
-119 -370 0
-119 -491 0
-119 -492 0
-119 -493 0
-119 -494 0
-119 -495 0
-119 -616 0
-119 -617 0
-119 -618 0
-119 -619 0
-119 -620 0
-120 -241 0
-120 -242 0
-120 -243 0
-120 -244 0
-120 -245 0
-120 -366 0
-120 -367 0
-120 -368 0
-120 -369 0
-120 -370 0
-120 -491 0
-120 -492 0
-120 -493 0
-120 -494 0
-120 -495 0
-120 -616 0
-120 -617 0
-120 -618 0
-120 -619 0
-120 -620 0
-241 -242 0
-241 -243 0
-241 -244 0
-241 -245 0
-241 -366 0
-241 -367 0
-241 -368 0
-241 -369 0
-241 -370 0
-241 -491 0
-241 -492 0
-241 -493 0
-241 -494 0
-241 -495 0
-241 -616 0
-241 -617 0
-241 -618 0
-241 -619 0
-241 -620 0
-242 -243 0
-242 -244 0
-242 -245 0
-242 -366 0
-242 -367 0
-242 -368 0
-242 -369 0
-242 -370 0
-242 -491 0
-242 -492 0
-242 -493 0
-242 -494 0
-242 -495 0
-242 -616 0
-242 -617 0
-242 -618 0
-242 -619 0
-242 -620 0
-243 -244 0
-243 -245 0
-243 -366 0
-243 -367 0
-243 -368 0
-243 -369 0
-243 -370 0
-243 -491 0
-243 -492 0
-243 -493 0
-243 -494 0
-243 -495 0
-243 -616 0
-243 -617 0
-243 -618 0
-243 -619 0
-243 -620 0
-244 -245 0
-244 -366 0
-244 -367 0
-244 -368 0
-244 -369 0
-244 -370 0
-244 -491 0
-244 -492 0
-244 -493 0
-244 -494 0
-244 -495 0
-244 -616 0
-244 -617 0
-244 -618 0
-244 -619 0
-244 -620 0
-245 -366 0
-245 -367 0
-245 -368 0
-245 -369 0
-245 -370 0
-245 -491 0
-245 -492 0
-245 -493 0
-245 -494 0
-245 -495 0
-245 -616 0
-245 -617 0
-245 -618 0
-245 -619 0
-245 -620 0
-366 -367 0
-366 -368 0
-366 -369 0
-366 -370 0
-366 -491 0
-366 -492 0
-366 -493 0
-366 -494 0
-366 -495 0
-366 -616 0
-366 -617 0
-366 -618 0
-366 -619 0
-366 -620 0
-367 -368 0
-367 -369 0
-367 -370 0
-367 -491 0
-367 -492 0
-367 -493 0
-367 -494 0
-367 -495 0
-367 -616 0
-367 -617 0
-367 -618 0
-367 -619 0
-367 -620 0
-368 -369 0
-368 -370 0
-368 -491 0
-368 -492 0
-368 -493 0
-368 -494 0
-368 -495 0
-368 -616 0
-368 -617 0
-368 -618 0
-368 -619 0
-368 -620 0
-369 -370 0
-369 -491 0
-369 -492 0
-369 -493 0
-369 -494 0
-369 -495 0
-369 -616 0
-369 -617 0
-369 -618 0
-369 -619 0
-369 -620 0
-370 -491 0
-370 -492 0
-370 -493 0
-370 -494 0
-370 -495 0
-370 -616 0
-370 -617 0
-370 -618 0
-370 -619 0
-370 -620 0
-491 -492 0
-491 -493 0
-491 -494 0
-491 -495 0
-491 -616 0
-491 -617 0
-491 -618 0
-491 -619 0
-491 -620 0
-492 -493 0
-492 -494 0
-492 -495 0
-492 -616 0
-492 -617 0
-492 -618 0
-492 -619 0
-492 -620 0
-493 -494 0
-493 -495 0
-493 -616 0
-493 -617 0
-493 -618 0
-493 -619 0
-493 -620 0
-494 -495 0
-494 -616 0
-494 -617 0
-494 -618 0
-494 -619 0
-494 -620 0
-495 -616 0
-495 -617 0
-495 -618 0
-495 -619 0
-495 -620 0
-616 -617 0
-616 -618 0
-616 -619 0
-616 -620 0
-617 -618 0
-617 -619 0
-617 -620 0
-618 -619 0
-618 -620 0
-619 -620 0
121 122 123 124 125 246 247 248 249 250 371 372 373 374 375 496 497 498 499 500 621 622 623 624 625 0
-121 -122 0
-121 -123 0
-121 -124 0
-121 -125 0
-121 -246 0
-121 -247 0
-121 -248 0
-121 -249 0
-121 -250 0
-121 -371 0
-121 -372 0
-121 -373 0
-121 -374 0
-121 -375 0
-121 -496 0
-121 -497 0
-121 -498 0
-121 -499 0
-121 -500 0
-121 -621 0
-121 -622 0
-121 -623 0
-121 -624 0
-121 -625 0
-122 -123 0
-122 -124 0
-122 -125 0
-122 -246 0
-122 -247 0
-122 -248 0
-122 -249 0
-122 -250 0
-122 -371 0
-122 -372 0
-122 -373 0
-122 -374 0
-122 -375 0
-122 -496 0
-122 -497 0
-122 -498 0
-122 -499 0
-122 -500 0
-122 -621 0
-122 -622 0
-122 -623 0
-122 -624 0
-122 -625 0
-123 -124 0
-123 -125 0
-123 -246 0
-123 -247 0
-123 -248 0
-123 -249 0
-123 -250 0
-123 -371 0
-123 -372 0
-123 -373 0
-123 -374 0
-123 -375 0
-123 -496 0
-123 -497 0
-123 -498 0
-123 -499 0
-123 -500 0
-123 -621 0
-123 -622 0
-123 -623 0
-123 -624 0
-123 -625 0
-124 -125 0
-124 -246 0
-124 -247 0
-124 -248 0
-124 -249 0
-124 -250 0
-124 -371 0
-124 -372 0
-124 -373 0
-124 -374 0
-124 -375 0
-124 -496 0
-124 -497 0
-124 -498 0
-124 -499 0
-124 -500 0
-124 -621 0
-124 -622 0
-124 -623 0
-124 -624 0
-124 -625 0
-125 -246 0
-125 -247 0
-125 -248 0
-125 -249 0
-125 -250 0
-125 -371 0
-125 -372 0
-125 -373 0
-125 -374 0
-125 -375 0
-125 -496 0
-125 -497 0
-125 -498 0
-125 -499 0
-125 -500 0
-125 -621 0
-125 -622 0
-125 -623 0
-125 -624 0
-125 -625 0
-246 -247 0
-246 -248 0
-246 -249 0
-246 -250 0
-246 -371 0
-246 -372 0
-246 -373 0
-246 -374 0
-246 -375 0
-246 -496 0
-246 -497 0
-246 -498 0
-246 -499 0
-246 -500 0
-246 -621 0
-246 -622 0
-246 -623 0
-246 -624 0
-246 -625 0
-247 -248 0
-247 -249 0
-247 -250 0
-247 -371 0
-247 -372 0
-247 -373 0
-247 -374 0
-247 -375 0
-247 -496 0
-247 -497 0
-247 -498 0
-247 -499 0
-247 -500 0
-247 -621 0
-247 -622 0
-247 -623 0
-247 -624 0
-247 -625 0
-248 -249 0
-248 -250 0
-248 -371 0
-248 -372 0
-248 -373 0
-248 -374 0
-248 -375 0
-248 -496 0
-248 -497 0
-248 -498 0
-248 -499 0
-248 -500 0
-248 -621 0
-248 -622 0
-248 -623 0
-248 -624 0
-248 -625 0
-249 -250 0
-249 -371 0
-249 -372 0
-249 -373 0
-249 -374 0
-249 -375 0
-249 -496 0
-249 -497 0
-249 -498 0
-249 -499 0
-249 -500 0
-249 -621 0
-249 -622 0
-249 -623 0
-249 -624 0
-249 -625 0
-250 -371 0
-250 -372 0
-250 -373 0
-250 -374 0
-250 -375 0
-250 -496 0
-250 -497 0
-250 -498 0
-250 -499 0
-250 -500 0
-250 -621 0
-250 -622 0
-250 -623 0
-250 -624 0
-250 -625 0
-371 -372 0
-371 -373 0
-371 -374 0
-371 -375 0
-371 -496 0
-371 -497 0
-371 -498 0
-371 -499 0
-371 -500 0
-371 -621 0
-371 -622 0
-371 -623 0
-371 -624 0
-371 -625 0
-372 -373 0
-372 -374 0
-372 -375 0
-372 -496 0
-372 -497 0
-372 -498 0
-372 -499 0
-372 -500 0
-372 -621 0
-372 -622 0
-372 -623 0
-372 -624 0
-372 -625 0
-373 -374 0
-373 -375 0
-373 -496 0
-373 -497 0
-373 -498 0
-373 -499 0
-373 -500 0
-373 -621 0
-373 -622 0
-373 -623 0
-373 -624 0
-373 -625 0
-374 -375 0
-374 -496 0
-374 -497 0
-374 -498 0
-374 -499 0
-374 -500 0
-374 -621 0
-374 -622 0
-374 -623 0
-374 -624 0
-374 -625 0
-375 -496 0
-375 -497 0
-375 -498 0
-375 -499 0
-375 -500 0
-375 -621 0
-375 -622 0
-375 -623 0
-375 -624 0
-375 -625 0
-496 -497 0
-496 -498 0
-496 -499 0
-496 -500 0
-496 -621 0
-496 -622 0
-496 -623 0
-496 -624 0
-496 -625 0
-497 -498 0
-497 -499 0
-497 -500 0
-497 -621 0
-497 -622 0
-497 -623 0
-497 -624 0
-497 -625 0
-498 -499 0
-498 -500 0
-498 -621 0
-498 -622 0
-498 -623 0
-498 -624 0
-498 -625 0
-499 -500 0
-499 -621 0
-499 -622 0
-499 -623 0
-499 -624 0
-499 -625 0
-500 -621 0
-500 -622 0
-500 -623 0
-500 -624 0
-500 -625 0
-621 -622 0
-621 -623 0
-621 -624 0
-621 -625 0
-622 -623 0
-622 -624 0
-622 -625 0
-623 -624 0
-623 -625 0
-624 -625 0
1 6 11 16 21 26 31 36 41 46 51 56 61 66 71 76 81 86 91 96 101 106 111 116 121 0
-1 -6 0
-1 -11 0
-1 -16 0
-1 -21 0
-1 -26 0
-1 -31 0
-1 -36 0
-1 -41 0
-1 -46 0
-1 -51 0
-1 -56 0
-1 -61 0
-1 -66 0
-1 -71 0
-1 -76 0
-1 -81 0
-1 -86 0
-1 -91 0
-1 -96 0
-1 -101 0
-1 -106 0
-1 -111 0
-1 -116 0
-1 -121 0
-6 -11 0
-6 -16 0
-6 -21 0
-6 -26 0
-6 -31 0
-6 -36 0
-6 -41 0
-6 -46 0
-6 -51 0
-6 -56 0
-6 -61 0
-6 -66 0
-6 -71 0
-6 -76 0
-6 -81 0
-6 -86 0
-6 -91 0
-6 -96 0
-6 -101 0
-6 -106 0
-6 -111 0
-6 -116 0
-6 -121 0
-11 -16 0
-11 -21 0
-11 -26 0
-11 -31 0
-11 -36 0
-11 -41 0
-11 -46 0
-11 -51 0
-11 -56 0
-11 -61 0
-11 -66 0
-11 -71 0
-11 -76 0
-11 -81 0
-11 -86 0
-11 -91 0
-11 -96 0
-11 -101 0
-11 -106 0
-11 -111 0
-11 -116 0
-11 -121 0
-16 -21 0
-16 -26 0
-16 -31 0
-16 -36 0
-16 -41 0
-16 -46 0
-16 -51 0
-16 -56 0
-16 -61 0
-16 -66 0
-16 -71 0
-16 -76 0
-16 -81 0
-16 -86 0
-16 -91 0
-16 -96 0
-16 -101 0
-16 -106 0
-16 -111 0
-16 -116 0
-16 -121 0
-21 -26 0
-21 -31 0
-21 -36 0
-21 -41 0
-21 -46 0
-21 -51 0
-21 -56 0
-21 -61 0
-21 -66 0
-21 -71 0
-21 -76 0
-21 -81 0
-21 -86 0
-21 -91 0
-21 -96 0
-21 -101 0
-21 -106 0
-21 -111 0
-21 -116 0
-21 -121 0
-26 -31 0
-26 -36 0
-26 -41 0
-26 -46 0
-26 -51 0
-26 -56 0
-26 -61 0
-26 -66 0
-26 -71 0
-26 -76 0
-26 -81 0
-26 -86 0
-26 -91 0
-26 -96 0
-26 -101 0
-26 -106 0
-26 -111 0
-26 -116 0
-26 -121 0
-31 -36 0
-31 -41 0
-31 -46 0
-31 -51 0
-31 -56 0
-31 -61 0
-31 -66 0
-31 -71 0
-31 -76 0
-31 -81 0
-31 -86 0
-31 -91 0
-31 -96 0
-31 -101 0
-31 -106 0
-31 -111 0
-31 -116 0
-31 -121 0
-36 -41 0
-36 -46 0
-36 -51 0
-36 -56 0
-36 -61 0
-36 -66 0
-36 -71 0
-36 -76 0
-36 -81 0
-36 -86 0
-36 -91 0
-36 -96 0
-36 -101 0
-36 -106 0
-36 -111 0
-36 -116 0
-36 -121 0
-41 -46 0
-41 -51 0
-41 -56 0
-41 -61 0
-41 -66 0
-41 -71 0
-41 -76 0
-41 -81 0
-41 -86 0
-41 -91 0
-41 -96 0
-41 -101 0
-41 -106 0
-41 -111 0
-41 -116 0
-41 -121 0
-46 -51 0
-46 -56 0
-46 -61 0
-46 -66 0
-46 -71 0
-46 -76 0
-46 -81 0
-46 -86 0
-46 -91 0
-46 -96 0
-46 -101 0
-46 -106 0
-46 -111 0
-46 -116 0
-46 -121 0
-51 -56 0
-51 -61 0
-51 -66 0
-51 -71 0
-51 -76 0
-51 -81 0
-51 -86 0
-51 -91 0
-51 -96 0
-51 -101 0
-51 -106 0
-51 -111 0
-51 -116 0
-51 -121 0
-56 -61 0
-56 -66 0
-56 -71 0
-56 -76 0
-56 -81 0
-56 -86 0
-56 -91 0
-56 -96 0
-56 -101 0
-56 -106 0
-56 -111 0
-56 -116 0
-56 -121 0
-61 -66 0
-61 -71 0
-61 -76 0
-61 -81 0
-61 -86 0
-61 -91 0
-61 -96 0
-61 -101 0
-61 -106 0
-61 -111 0
-61 -116 0
-61 -121 0
-66 -71 0
-66 -76 0
-66 -81 0
-66 -86 0
-66 -91 0
-66 -96 0
-66 -101 0
-66 -106 0
-66 -111 0
-66 -116 0
-66 -121 0
-71 -76 0
-71 -81 0
-71 -86 0
-71 -91 0
-71 -96 0
-71 -101 0
-71 -106 0
-71 -111 0
-71 -116 0
-71 -121 0
-76 -81 0
-76 -86 0
-76 -91 0
-76 -96 0
-76 -101 0
-76 -106 0
-76 -111 0
-76 -116 0
-76 -121 0
-81 -86 0
-81 -91 0
-81 -96 0
-81 -101 0
-81 -106 0
-81 -111 0
-81 -116 0
-81 -121 0
-86 -91 0
-86 -96 0
-86 -101 0
-86 -106 0
-86 -111 0
-86 -116 0
-86 -121 0
-91 -96 0
-91 -101 0
-91 -106 0
-91 -111 0
-91 -116 0
-91 -121 0
-96 -101 0
-96 -106 0
-96 -111 0
-96 -116 0
-96 -121 0
-101 -106 0
-101 -111 0
-101 -116 0
-101 -121 0
-106 -111 0
-106 -116 0
-106 -121 0
-111 -116 0
-111 -121 0
-116 -121 0
2 7 12 17 22 27 32 37 42 47 52 57 62 67 72 77 82 87 92 97 102 107 112 117 122 0
-2 -7 0
-2 -12 0
-2 -17 0
-2 -22 0
-2 -27 0
-2 -32 0
-2 -37 0
-2 -42 0
-2 -47 0
-2 -52 0
-2 -57 0
-2 -62 0
-2 -67 0
-2 -72 0
-2 -77 0
-2 -82 0
-2 -87 0
-2 -92 0
-2 -97 0
-2 -102 0
-2 -107 0
-2 -112 0
-2 -117 0
-2 -122 0
-7 -12 0
-7 -17 0
-7 -22 0
-7 -27 0
-7 -32 0
-7 -37 0
-7 -42 0
-7 -47 0
-7 -52 0
-7 -57 0
-7 -62 0
-7 -67 0
-7 -72 0
-7 -77 0
-7 -82 0
-7 -87 0
-7 -92 0
-7 -97 0
-7 -102 0
-7 -107 0
-7 -112 0
-7 -117 0
-7 -122 0
-12 -17 0
-12 -22 0
-12 -27 0
-12 -32 0
-12 -37 0
-12 -42 0
-12 -47 0
-12 -52 0
-12 -57 0
-12 -62 0
-12 -67 0
-12 -72 0
-12 -77 0
-12 -82 0
-12 -87 0
-12 -92 0
-12 -97 0
-12 -102 0
-12 -107 0
-12 -112 0
-12 -117 0
-12 -122 0
-17 -22 0
-17 -27 0
-17 -32 0
-17 -37 0
-17 -42 0
-17 -47 0
-17 -52 0
-17 -57 0
-17 -62 0
-17 -67 0
-17 -72 0
-17 -77 0
-17 -82 0
-17 -87 0
-17 -92 0
-17 -97 0
-17 -102 0
-17 -107 0
-17 -112 0
-17 -117 0
-17 -122 0
-22 -27 0
-22 -32 0
-22 -37 0
-22 -42 0
-22 -47 0
-22 -52 0
-22 -57 0
-22 -62 0
-22 -67 0
-22 -72 0
-22 -77 0
-22 -82 0
-22 -87 0
-22 -92 0
-22 -97 0
-22 -102 0
-22 -107 0
-22 -112 0
-22 -117 0
-22 -122 0
-27 -32 0
-27 -37 0
-27 -42 0
-27 -47 0
-27 -52 0
-27 -57 0
-27 -62 0
-27 -67 0
-27 -72 0
-27 -77 0
-27 -82 0
-27 -87 0
-27 -92 0
-27 -97 0
-27 -102 0
-27 -107 0
-27 -112 0
-27 -117 0
-27 -122 0
-32 -37 0
-32 -42 0
-32 -47 0
-32 -52 0
-32 -57 0
-32 -62 0
-32 -67 0
-32 -72 0
-32 -77 0
-32 -82 0
-32 -87 0
-32 -92 0
-32 -97 0
-32 -102 0
-32 -107 0
-32 -112 0
-32 -117 0
-32 -122 0
-37 -42 0
-37 -47 0
-37 -52 0
-37 -57 0
-37 -62 0
-37 -67 0
-37 -72 0
-37 -77 0
-37 -82 0
-37 -87 0
-37 -92 0
-37 -97 0
-37 -102 0
-37 -107 0
-37 -112 0
-37 -117 0
-37 -122 0
-42 -47 0
-42 -52 0
-42 -57 0
-42 -62 0
-42 -67 0
-42 -72 0
-42 -77 0
-42 -82 0
-42 -87 0
-42 -92 0
-42 -97 0
-42 -102 0
-42 -107 0
-42 -112 0
-42 -117 0
-42 -122 0
-47 -52 0
-47 -57 0
-47 -62 0
-47 -67 0
-47 -72 0
-47 -77 0
-47 -82 0
-47 -87 0
-47 -92 0
-47 -97 0
-47 -102 0
-47 -107 0
-47 -112 0
-47 -117 0
-47 -122 0
-52 -57 0
-52 -62 0
-52 -67 0
-52 -72 0
-52 -77 0
-52 -82 0
-52 -87 0
-52 -92 0
-52 -97 0
-52 -102 0
-52 -107 0
-52 -112 0
-52 -117 0
-52 -122 0
-57 -62 0
-57 -67 0
-57 -72 0
-57 -77 0
-57 -82 0
-57 -87 0
-57 -92 0
-57 -97 0
-57 -102 0
-57 -107 0
-57 -112 0
-57 -117 0
-57 -122 0
-62 -67 0
-62 -72 0
-62 -77 0
-62 -82 0
-62 -87 0
-62 -92 0
-62 -97 0
-62 -102 0
-62 -107 0
-62 -112 0
-62 -117 0
-62 -122 0
-67 -72 0
-67 -77 0
-67 -82 0
-67 -87 0
-67 -92 0
-67 -97 0
-67 -102 0
-67 -107 0
-67 -112 0
-67 -117 0
-67 -122 0
-72 -77 0
-72 -82 0
-72 -87 0
-72 -92 0
-72 -97 0
-72 -102 0
-72 -107 0
-72 -112 0
-72 -117 0
-72 -122 0
-77 -82 0
-77 -87 0
-77 -92 0
-77 -97 0
-77 -102 0
-77 -107 0
-77 -112 0
-77 -117 0
-77 -122 0
-82 -87 0
-82 -92 0
-82 -97 0
-82 -102 0
-82 -107 0
-82 -112 0
-82 -117 0
-82 -122 0
-87 -92 0
-87 -97 0
-87 -102 0
-87 -107 0
-87 -112 0
-87 -117 0
-87 -122 0
-92 -97 0
-92 -102 0
-92 -107 0
-92 -112 0
-92 -117 0
-92 -122 0
-97 -102 0
-97 -107 0
-97 -112 0
-97 -117 0
-97 -122 0
-102 -107 0
-102 -112 0
-102 -117 0
-102 -122 0
-107 -112 0
-107 -117 0
-107 -122 0
-112 -117 0
-112 -122 0
-117 -122 0
3 8 13 18 23 28 33 38 43 48 53 58 63 68 73 78 83 88 93 98 103 108 113 118 123 0
-3 -8 0
-3 -13 0
-3 -18 0
-3 -23 0
-3 -28 0
-3 -33 0
-3 -38 0
-3 -43 0
-3 -48 0
-3 -53 0
-3 -58 0
-3 -63 0
-3 -68 0
-3 -73 0
-3 -78 0
-3 -83 0
-3 -88 0
-3 -93 0
-3 -98 0
-3 -103 0
-3 -108 0
-3 -113 0
-3 -118 0
-3 -123 0
-8 -13 0
-8 -18 0
-8 -23 0
-8 -28 0
-8 -33 0
-8 -38 0
-8 -43 0
-8 -48 0
-8 -53 0
-8 -58 0
-8 -63 0
-8 -68 0
-8 -73 0
-8 -78 0
-8 -83 0
-8 -88 0
-8 -93 0
-8 -98 0
-8 -103 0
-8 -108 0
-8 -113 0
-8 -118 0
-8 -123 0
-13 -18 0
-13 -23 0
-13 -28 0
-13 -33 0
-13 -38 0
-13 -43 0
-13 -48 0
-13 -53 0
-13 -58 0
-13 -63 0
-13 -68 0
-13 -73 0
-13 -78 0
-13 -83 0
-13 -88 0
-13 -93 0
-13 -98 0
-13 -103 0
-13 -108 0
-13 -113 0
-13 -118 0
-13 -123 0
-18 -23 0
-18 -28 0
-18 -33 0
-18 -38 0
-18 -43 0
-18 -48 0
-18 -53 0
-18 -58 0
-18 -63 0
-18 -68 0
-18 -73 0
-18 -78 0
-18 -83 0
-18 -88 0
-18 -93 0
-18 -98 0
-18 -103 0
-18 -108 0
-18 -113 0
-18 -118 0
-18 -123 0
-23 -28 0
-23 -33 0
-23 -38 0
-23 -43 0
-23 -48 0
-23 -53 0
-23 -58 0
-23 -63 0
-23 -68 0
-23 -73 0
-23 -78 0
-23 -83 0
-23 -88 0
-23 -93 0
-23 -98 0
-23 -103 0
-23 -108 0
-23 -113 0
-23 -118 0
-23 -123 0
-28 -33 0
-28 -38 0
-28 -43 0
-28 -48 0
-28 -53 0
-28 -58 0
-28 -63 0
-28 -68 0
-28 -73 0
-28 -78 0
-28 -83 0
-28 -88 0
-28 -93 0
-28 -98 0
-28 -103 0
-28 -108 0
-28 -113 0
-28 -118 0
-28 -123 0
-33 -38 0
-33 -43 0
-33 -48 0
-33 -53 0
-33 -58 0
-33 -63 0
-33 -68 0
-33 -73 0
-33 -78 0
-33 -83 0
-33 -88 0
-33 -93 0
-33 -98 0
-33 -103 0
-33 -108 0
-33 -113 0
-33 -118 0
-33 -123 0
-38 -43 0
-38 -48 0
-38 -53 0
-38 -58 0
-38 -63 0
-38 -68 0
-38 -73 0
-38 -78 0
-38 -83 0
-38 -88 0
-38 -93 0
-38 -98 0
-38 -103 0
-38 -108 0
-38 -113 0
-38 -118 0
-38 -123 0
-43 -48 0
-43 -53 0
-43 -58 0
-43 -63 0
-43 -68 0
-43 -73 0
-43 -78 0
-43 -83 0
-43 -88 0
-43 -93 0
-43 -98 0
-43 -103 0
-43 -108 0
-43 -113 0
-43 -118 0
-43 -123 0
-48 -53 0
-48 -58 0
-48 -63 0
-48 -68 0
-48 -73 0
-48 -78 0
-48 -83 0
-48 -88 0
-48 -93 0
-48 -98 0
-48 -103 0
-48 -108 0
-48 -113 0
-48 -118 0
-48 -123 0
-53 -58 0
-53 -63 0
-53 -68 0
-53 -73 0
-53 -78 0
-53 -83 0
-53 -88 0
-53 -93 0
-53 -98 0
-53 -103 0
-53 -108 0
-53 -113 0
-53 -118 0
-53 -123 0
-58 -63 0
-58 -68 0
-58 -73 0
-58 -78 0
-58 -83 0
-58 -88 0
-58 -93 0
-58 -98 0
-58 -103 0
-58 -108 0
-58 -113 0
-58 -118 0
-58 -123 0
-63 -68 0
-63 -73 0
-63 -78 0
-63 -83 0
-63 -88 0
-63 -93 0
-63 -98 0
-63 -103 0
-63 -108 0
-63 -113 0
-63 -118 0
-63 -123 0
-68 -73 0
-68 -78 0
-68 -83 0
-68 -88 0
-68 -93 0
-68 -98 0
-68 -103 0
-68 -108 0
-68 -113 0
-68 -118 0
-68 -123 0
-73 -78 0
-73 -83 0
-73 -88 0
-73 -93 0
-73 -98 0
-73 -103 0
-73 -108 0
-73 -113 0
-73 -118 0
-73 -123 0
-78 -83 0
-78 -88 0
-78 -93 0
-78 -98 0
-78 -103 0
-78 -108 0
-78 -113 0
-78 -118 0
-78 -123 0
-83 -88 0
-83 -93 0
-83 -98 0
-83 -103 0
-83 -108 0
-83 -113 0
-83 -118 0
-83 -123 0
-88 -93 0
-88 -98 0
-88 -103 0
-88 -108 0
-88 -113 0
-88 -118 0
-88 -123 0
-93 -98 0
-93 -103 0
-93 -108 0
-93 -113 0
-93 -118 0
-93 -123 0
-98 -103 0
-98 -108 0
-98 -113 0
-98 -118 0
-98 -123 0
-103 -108 0
-103 -113 0
-103 -118 0
-103 -123 0
-108 -113 0
-108 -118 0
-108 -123 0
-113 -118 0
-113 -123 0
-118 -123 0
4 9 14 19 24 29 34 39 44 49 54 59 64 69 74 79 84 89 94 99 104 109 114 119 124 0
-4 -9 0
-4 -14 0
-4 -19 0
-4 -24 0
-4 -29 0
-4 -34 0
-4 -39 0
-4 -44 0
-4 -49 0
-4 -54 0
-4 -59 0
-4 -64 0
-4 -69 0
-4 -74 0
-4 -79 0
-4 -84 0
-4 -89 0
-4 -94 0
-4 -99 0
-4 -104 0
-4 -109 0
-4 -114 0
-4 -119 0
-4 -124 0
-9 -14 0
-9 -19 0
-9 -24 0
-9 -29 0
-9 -34 0
-9 -39 0
-9 -44 0
-9 -49 0
-9 -54 0
-9 -59 0
-9 -64 0
-9 -69 0
-9 -74 0
-9 -79 0
-9 -84 0
-9 -89 0
-9 -94 0
-9 -99 0
-9 -104 0
-9 -109 0
-9 -114 0
-9 -119 0
-9 -124 0
-14 -19 0
-14 -24 0
-14 -29 0
-14 -34 0
-14 -39 0
-14 -44 0
-14 -49 0
-14 -54 0
-14 -59 0
-14 -64 0
-14 -69 0
-14 -74 0
-14 -79 0
-14 -84 0
-14 -89 0
-14 -94 0
-14 -99 0
-14 -104 0
-14 -109 0
-14 -114 0
-14 -119 0
-14 -124 0
-19 -24 0
-19 -29 0
-19 -34 0
-19 -39 0
-19 -44 0
-19 -49 0
-19 -54 0
-19 -59 0
-19 -64 0
-19 -69 0
-19 -74 0
-19 -79 0
-19 -84 0
-19 -89 0
-19 -94 0
-19 -99 0
-19 -104 0
-19 -109 0
-19 -114 0
-19 -119 0
-19 -124 0
-24 -29 0
-24 -34 0
-24 -39 0
-24 -44 0
-24 -49 0
-24 -54 0
-24 -59 0
-24 -64 0
-24 -69 0
-24 -74 0
-24 -79 0
-24 -84 0
-24 -89 0
-24 -94 0
-24 -99 0
-24 -104 0
-24 -109 0
-24 -114 0
-24 -119 0
-24 -124 0
-29 -34 0
-29 -39 0
-29 -44 0
-29 -49 0
-29 -54 0
-29 -59 0
-29 -64 0
-29 -69 0
-29 -74 0
-29 -79 0
-29 -84 0
-29 -89 0
-29 -94 0
-29 -99 0
-29 -104 0
-29 -109 0
-29 -114 0
-29 -119 0
-29 -124 0
-34 -39 0
-34 -44 0
-34 -49 0
-34 -54 0
-34 -59 0
-34 -64 0
-34 -69 0
-34 -74 0
-34 -79 0
-34 -84 0
-34 -89 0
-34 -94 0
-34 -99 0
-34 -104 0
-34 -109 0
-34 -114 0
-34 -119 0
-34 -124 0
-39 -44 0
-39 -49 0
-39 -54 0
-39 -59 0
-39 -64 0
-39 -69 0
-39 -74 0
-39 -79 0
-39 -84 0
-39 -89 0
-39 -94 0
-39 -99 0
-39 -104 0
-39 -109 0
-39 -114 0
-39 -119 0
-39 -124 0
-44 -49 0
-44 -54 0
-44 -59 0
-44 -64 0
-44 -69 0
-44 -74 0
-44 -79 0
-44 -84 0
-44 -89 0
-44 -94 0
-44 -99 0
-44 -104 0
-44 -109 0
-44 -114 0
-44 -119 0
-44 -124 0
-49 -54 0
-49 -59 0
-49 -64 0
-49 -69 0
-49 -74 0
-49 -79 0
-49 -84 0
-49 -89 0
-49 -94 0
-49 -99 0
-49 -104 0
-49 -109 0
-49 -114 0
-49 -119 0
-49 -124 0
-54 -59 0
-54 -64 0
-54 -69 0
-54 -74 0
-54 -79 0
-54 -84 0
-54 -89 0
-54 -94 0
-54 -99 0
-54 -104 0
-54 -109 0
-54 -114 0
-54 -119 0
-54 -124 0
-59 -64 0
-59 -69 0
-59 -74 0
-59 -79 0
-59 -84 0
-59 -89 0
-59 -94 0
-59 -99 0
-59 -104 0
-59 -109 0
-59 -114 0
-59 -119 0
-59 -124 0
-64 -69 0
-64 -74 0
-64 -79 0
-64 -84 0
-64 -89 0
-64 -94 0
-64 -99 0
-64 -104 0
-64 -109 0
-64 -114 0
-64 -119 0
-64 -124 0
-69 -74 0
-69 -79 0
-69 -84 0
-69 -89 0
-69 -94 0
-69 -99 0
-69 -104 0
-69 -109 0
-69 -114 0
-69 -119 0
-69 -124 0
-74 -79 0
-74 -84 0
-74 -89 0
-74 -94 0
-74 -99 0
-74 -104 0
-74 -109 0
-74 -114 0
-74 -119 0
-74 -124 0
-79 -84 0
-79 -89 0
-79 -94 0
-79 -99 0
-79 -104 0
-79 -109 0
-79 -114 0
-79 -119 0
-79 -124 0
-84 -89 0
-84 -94 0
-84 -99 0
-84 -104 0
-84 -109 0
-84 -114 0
-84 -119 0
-84 -124 0
-89 -94 0
-89 -99 0
-89 -104 0
-89 -109 0
-89 -114 0
-89 -119 0
-89 -124 0
-94 -99 0
-94 -104 0
-94 -109 0
-94 -114 0
-94 -119 0
-94 -124 0
-99 -104 0
-99 -109 0
-99 -114 0
-99 -119 0
-99 -124 0
-104 -109 0
-104 -114 0
-104 -119 0
-104 -124 0
-109 -114 0
-109 -119 0
-109 -124 0
-114 -119 0
-114 -124 0
-119 -124 0
5 10 15 20 25 30 35 40 45 50 55 60 65 70 75 80 85 90 95 100 105 110 115 120 125 0
-5 -10 0
-5 -15 0
-5 -20 0
-5 -25 0
-5 -30 0
-5 -35 0
-5 -40 0
-5 -45 0
-5 -50 0
-5 -55 0
-5 -60 0
-5 -65 0
-5 -70 0
-5 -75 0
-5 -80 0
-5 -85 0
-5 -90 0
-5 -95 0
-5 -100 0
-5 -105 0
-5 -110 0
-5 -115 0
-5 -120 0
-5 -125 0
-10 -15 0
-10 -20 0
-10 -25 0
-10 -30 0
-10 -35 0
-10 -40 0
-10 -45 0
-10 -50 0
-10 -55 0
-10 -60 0
-10 -65 0
-10 -70 0
-10 -75 0
-10 -80 0
-10 -85 0
-10 -90 0
-10 -95 0
-10 -100 0
-10 -105 0
-10 -110 0
-10 -115 0
-10 -120 0
-10 -125 0
-15 -20 0
-15 -25 0
-15 -30 0
-15 -35 0
-15 -40 0
-15 -45 0
-15 -50 0
-15 -55 0
-15 -60 0
-15 -65 0
-15 -70 0
-15 -75 0
-15 -80 0
-15 -85 0
-15 -90 0
-15 -95 0
-15 -100 0
-15 -105 0
-15 -110 0
-15 -115 0
-15 -120 0
-15 -125 0
-20 -25 0
-20 -30 0
-20 -35 0
-20 -40 0
-20 -45 0
-20 -50 0
-20 -55 0
-20 -60 0
-20 -65 0
-20 -70 0
-20 -75 0
-20 -80 0
-20 -85 0
-20 -90 0
-20 -95 0
-20 -100 0
-20 -105 0
-20 -110 0
-20 -115 0
-20 -120 0
-20 -125 0
-25 -30 0
-25 -35 0
-25 -40 0
-25 -45 0
-25 -50 0
-25 -55 0
-25 -60 0
-25 -65 0
-25 -70 0
-25 -75 0
-25 -80 0
-25 -85 0
-25 -90 0
-25 -95 0
-25 -100 0
-25 -105 0
-25 -110 0
-25 -115 0
-25 -120 0
-25 -125 0
-30 -35 0
-30 -40 0
-30 -45 0
-30 -50 0
-30 -55 0
-30 -60 0
-30 -65 0
-30 -70 0
-30 -75 0
-30 -80 0
-30 -85 0
-30 -90 0
-30 -95 0
-30 -100 0
-30 -105 0
-30 -110 0
-30 -115 0
-30 -120 0
-30 -125 0
-35 -40 0
-35 -45 0
-35 -50 0
-35 -55 0
-35 -60 0
-35 -65 0
-35 -70 0
-35 -75 0
-35 -80 0
-35 -85 0
-35 -90 0
-35 -95 0
-35 -100 0
-35 -105 0
-35 -110 0
-35 -115 0
-35 -120 0
-35 -125 0
-40 -45 0
-40 -50 0
-40 -55 0
-40 -60 0
-40 -65 0
-40 -70 0
-40 -75 0
-40 -80 0
-40 -85 0
-40 -90 0
-40 -95 0
-40 -100 0
-40 -105 0
-40 -110 0
-40 -115 0
-40 -120 0
-40 -125 0
-45 -50 0
-45 -55 0
-45 -60 0
-45 -65 0
-45 -70 0
-45 -75 0
-45 -80 0
-45 -85 0
-45 -90 0
-45 -95 0
-45 -100 0
-45 -105 0
-45 -110 0
-45 -115 0
-45 -120 0
-45 -125 0
-50 -55 0
-50 -60 0
-50 -65 0
-50 -70 0
-50 -75 0
-50 -80 0
-50 -85 0
-50 -90 0
-50 -95 0
-50 -100 0
-50 -105 0
-50 -110 0
-50 -115 0
-50 -120 0
-50 -125 0
-55 -60 0
-55 -65 0
-55 -70 0
-55 -75 0
-55 -80 0
-55 -85 0
-55 -90 0
-55 -95 0
-55 -100 0
-55 -105 0
-55 -110 0
-55 -115 0
-55 -120 0
-55 -125 0
-60 -65 0
-60 -70 0
-60 -75 0
-60 -80 0
-60 -85 0
-60 -90 0
-60 -95 0
-60 -100 0
-60 -105 0
-60 -110 0
-60 -115 0
-60 -120 0
-60 -125 0
-65 -70 0
-65 -75 0
-65 -80 0
-65 -85 0
-65 -90 0
-65 -95 0
-65 -100 0
-65 -105 0
-65 -110 0
-65 -115 0
-65 -120 0
-65 -125 0
-70 -75 0
-70 -80 0
-70 -85 0
-70 -90 0
-70 -95 0
-70 -100 0
-70 -105 0
-70 -110 0
-70 -115 0
-70 -120 0
-70 -125 0
-75 -80 0
-75 -85 0
-75 -90 0
-75 -95 0
-75 -100 0
-75 -105 0
-75 -110 0
-75 -115 0
-75 -120 0
-75 -125 0
-80 -85 0
-80 -90 0
-80 -95 0
-80 -100 0
-80 -105 0
-80 -110 0
-80 -115 0
-80 -120 0
-80 -125 0
-85 -90 0
-85 -95 0
-85 -100 0
-85 -105 0
-85 -110 0
-85 -115 0
-85 -120 0
-85 -125 0
-90 -95 0
-90 -100 0
-90 -105 0
-90 -110 0
-90 -115 0
-90 -120 0
-90 -125 0
-95 -100 0
-95 -105 0
-95 -110 0
-95 -115 0
-95 -120 0
-95 -125 0
-100 -105 0
-100 -110 0
-100 -115 0
-100 -120 0
-100 -125 0
-105 -110 0
-105 -115 0
-105 -120 0
-105 -125 0
-110 -115 0
-110 -120 0
-110 -125 0
-115 -120 0
-115 -125 0
-120 -125 0
126 131 136 141 146 151 156 161 166 171 176 181 186 191 196 201 206 211 216 221 226 231 236 241 246 0
-126 -131 0
-126 -136 0
-126 -141 0
-126 -146 0
-126 -151 0
-126 -156 0
-126 -161 0
-126 -166 0
-126 -171 0
-126 -176 0
-126 -181 0
-126 -186 0
-126 -191 0
-126 -196 0
-126 -201 0
-126 -206 0
-126 -211 0
-126 -216 0
-126 -221 0
-126 -226 0
-126 -231 0
-126 -236 0
-126 -241 0
-126 -246 0
-131 -136 0
-131 -141 0
-131 -146 0
-131 -151 0
-131 -156 0
-131 -161 0
-131 -166 0
-131 -171 0
-131 -176 0
-131 -181 0
-131 -186 0
-131 -191 0
-131 -196 0
-131 -201 0
-131 -206 0
-131 -211 0
-131 -216 0
-131 -221 0
-131 -226 0
-131 -231 0
-131 -236 0
-131 -241 0
-131 -246 0
-136 -141 0
-136 -146 0
-136 -151 0
-136 -156 0
-136 -161 0
-136 -166 0
-136 -171 0
-136 -176 0
-136 -181 0
-136 -186 0
-136 -191 0
-136 -196 0
-136 -201 0
-136 -206 0
-136 -211 0
-136 -216 0
-136 -221 0
-136 -226 0
-136 -231 0
-136 -236 0
-136 -241 0
-136 -246 0
-141 -146 0
-141 -151 0
-141 -156 0
-141 -161 0
-141 -166 0
-141 -171 0
-141 -176 0
-141 -181 0
-141 -186 0
-141 -191 0
-141 -196 0
-141 -201 0
-141 -206 0
-141 -211 0
-141 -216 0
-141 -221 0
-141 -226 0
-141 -231 0
-141 -236 0
-141 -241 0
-141 -246 0
-146 -151 0
-146 -156 0
-146 -161 0
-146 -166 0
-146 -171 0
-146 -176 0
-146 -181 0
-146 -186 0
-146 -191 0
-146 -196 0
-146 -201 0
-146 -206 0
-146 -211 0
-146 -216 0
-146 -221 0
-146 -226 0
-146 -231 0
-146 -236 0
-146 -241 0
-146 -246 0
-151 -156 0
-151 -161 0
-151 -166 0
-151 -171 0
-151 -176 0
-151 -181 0
-151 -186 0
-151 -191 0
-151 -196 0
-151 -201 0
-151 -206 0
-151 -211 0
-151 -216 0
-151 -221 0
-151 -226 0
-151 -231 0
-151 -236 0
-151 -241 0
-151 -246 0
-156 -161 0
-156 -166 0
-156 -171 0
-156 -176 0
-156 -181 0
-156 -186 0
-156 -191 0
-156 -196 0
-156 -201 0
-156 -206 0
-156 -211 0
-156 -216 0
-156 -221 0
-156 -226 0
-156 -231 0
-156 -236 0
-156 -241 0
-156 -246 0
-161 -166 0
-161 -171 0
-161 -176 0
-161 -181 0
-161 -186 0
-161 -191 0
-161 -196 0
-161 -201 0
-161 -206 0
-161 -211 0
-161 -216 0
-161 -221 0
-161 -226 0
-161 -231 0
-161 -236 0
-161 -241 0
-161 -246 0
-166 -171 0
-166 -176 0
-166 -181 0
-166 -186 0
-166 -191 0
-166 -196 0
-166 -201 0
-166 -206 0
-166 -211 0
-166 -216 0
-166 -221 0
-166 -226 0
-166 -231 0
-166 -236 0
-166 -241 0
-166 -246 0
-171 -176 0
-171 -181 0
-171 -186 0
-171 -191 0
-171 -196 0
-171 -201 0
-171 -206 0
-171 -211 0
-171 -216 0
-171 -221 0
-171 -226 0
-171 -231 0
-171 -236 0
-171 -241 0
-171 -246 0
-176 -181 0
-176 -186 0
-176 -191 0
-176 -196 0
-176 -201 0
-176 -206 0
-176 -211 0
-176 -216 0
-176 -221 0
-176 -226 0
-176 -231 0
-176 -236 0
-176 -241 0
-176 -246 0
-181 -186 0
-181 -191 0
-181 -196 0
-181 -201 0
-181 -206 0
-181 -211 0
-181 -216 0
-181 -221 0
-181 -226 0
-181 -231 0
-181 -236 0
-181 -241 0
-181 -246 0
-186 -191 0
-186 -196 0
-186 -201 0
-186 -206 0
-186 -211 0
-186 -216 0
-186 -221 0
-186 -226 0
-186 -231 0
-186 -236 0
-186 -241 0
-186 -246 0
-191 -196 0
-191 -201 0
-191 -206 0
-191 -211 0
-191 -216 0
-191 -221 0
-191 -226 0
-191 -231 0
-191 -236 0
-191 -241 0
-191 -246 0
-196 -201 0
-196 -206 0
-196 -211 0
-196 -216 0
-196 -221 0
-196 -226 0
-196 -231 0
-196 -236 0
-196 -241 0
-196 -246 0
-201 -206 0
-201 -211 0
-201 -216 0
-201 -221 0
-201 -226 0
-201 -231 0
-201 -236 0
-201 -241 0
-201 -246 0
-206 -211 0
-206 -216 0
-206 -221 0
-206 -226 0
-206 -231 0
-206 -236 0
-206 -241 0
-206 -246 0
-211 -216 0
-211 -221 0
-211 -226 0
-211 -231 0
-211 -236 0
-211 -241 0
-211 -246 0
-216 -221 0
-216 -226 0
-216 -231 0
-216 -236 0
-216 -241 0
-216 -246 0
-221 -226 0
-221 -231 0
-221 -236 0
-221 -241 0
-221 -246 0
-226 -231 0
-226 -236 0
-226 -241 0
-226 -246 0
-231 -236 0
-231 -241 0
-231 -246 0
-236 -241 0
-236 -246 0
-241 -246 0
127 132 137 142 147 152 157 162 167 172 177 182 187 192 197 202 207 212 217 222 227 232 237 242 247 0
-127 -132 0
-127 -137 0
-127 -142 0
-127 -147 0
-127 -152 0
-127 -157 0
-127 -162 0
-127 -167 0
-127 -172 0
-127 -177 0
-127 -182 0
-127 -187 0
-127 -192 0
-127 -197 0
-127 -202 0
-127 -207 0
-127 -212 0
-127 -217 0
-127 -222 0
-127 -227 0
-127 -232 0
-127 -237 0
-127 -242 0
-127 -247 0
-132 -137 0
-132 -142 0
-132 -147 0
-132 -152 0
-132 -157 0
-132 -162 0
-132 -167 0
-132 -172 0
-132 -177 0
-132 -182 0
-132 -187 0
-132 -192 0
-132 -197 0
-132 -202 0
-132 -207 0
-132 -212 0
-132 -217 0
-132 -222 0
-132 -227 0
-132 -232 0
-132 -237 0
-132 -242 0
-132 -247 0
-137 -142 0
-137 -147 0
-137 -152 0
-137 -157 0
-137 -162 0
-137 -167 0
-137 -172 0
-137 -177 0
-137 -182 0
-137 -187 0
-137 -192 0
-137 -197 0
-137 -202 0
-137 -207 0
-137 -212 0
-137 -217 0
-137 -222 0
-137 -227 0
-137 -232 0
-137 -237 0
-137 -242 0
-137 -247 0
-142 -147 0
-142 -152 0
-142 -157 0
-142 -162 0
-142 -167 0
-142 -172 0
-142 -177 0
-142 -182 0
-142 -187 0
-142 -192 0
-142 -197 0
-142 -202 0
-142 -207 0
-142 -212 0
-142 -217 0
-142 -222 0
-142 -227 0
-142 -232 0
-142 -237 0
-142 -242 0
-142 -247 0
-147 -152 0
-147 -157 0
-147 -162 0
-147 -167 0
-147 -172 0
-147 -177 0
-147 -182 0
-147 -187 0
-147 -192 0
-147 -197 0
-147 -202 0
-147 -207 0
-147 -212 0
-147 -217 0
-147 -222 0
-147 -227 0
-147 -232 0
-147 -237 0
-147 -242 0
-147 -247 0
-152 -157 0
-152 -162 0
-152 -167 0
-152 -172 0
-152 -177 0
-152 -182 0
-152 -187 0
-152 -192 0
-152 -197 0
-152 -202 0
-152 -207 0
-152 -212 0
-152 -217 0
-152 -222 0
-152 -227 0
-152 -232 0
-152 -237 0
-152 -242 0
-152 -247 0
-157 -162 0
-157 -167 0
-157 -172 0
-157 -177 0
-157 -182 0
-157 -187 0
-157 -192 0
-157 -197 0
-157 -202 0
-157 -207 0
-157 -212 0
-157 -217 0
-157 -222 0
-157 -227 0
-157 -232 0
-157 -237 0
-157 -242 0
-157 -247 0
-162 -167 0
-162 -172 0
-162 -177 0
-162 -182 0
-162 -187 0
-162 -192 0
-162 -197 0
-162 -202 0
-162 -207 0
-162 -212 0
-162 -217 0
-162 -222 0
-162 -227 0
-162 -232 0
-162 -237 0
-162 -242 0
-162 -247 0
-167 -172 0
-167 -177 0
-167 -182 0
-167 -187 0
-167 -192 0
-167 -197 0
-167 -202 0
-167 -207 0
-167 -212 0
-167 -217 0
-167 -222 0
-167 -227 0
-167 -232 0
-167 -237 0
-167 -242 0
-167 -247 0
-172 -177 0
-172 -182 0
-172 -187 0
-172 -192 0
-172 -197 0
-172 -202 0
-172 -207 0
-172 -212 0
-172 -217 0
-172 -222 0
-172 -227 0
-172 -232 0
-172 -237 0
-172 -242 0
-172 -247 0
-177 -182 0
-177 -187 0
-177 -192 0
-177 -197 0
-177 -202 0
-177 -207 0
-177 -212 0
-177 -217 0
-177 -222 0
-177 -227 0
-177 -232 0
-177 -237 0
-177 -242 0
-177 -247 0
-182 -187 0
-182 -192 0
-182 -197 0
-182 -202 0
-182 -207 0
-182 -212 0
-182 -217 0
-182 -222 0
-182 -227 0
-182 -232 0
-182 -237 0
-182 -242 0
-182 -247 0
-187 -192 0
-187 -197 0
-187 -202 0
-187 -207 0
-187 -212 0
-187 -217 0
-187 -222 0
-187 -227 0
-187 -232 0
-187 -237 0
-187 -242 0
-187 -247 0
-192 -197 0
-192 -202 0
-192 -207 0
-192 -212 0
-192 -217 0
-192 -222 0
-192 -227 0
-192 -232 0
-192 -237 0
-192 -242 0
-192 -247 0
-197 -202 0
-197 -207 0
-197 -212 0
-197 -217 0
-197 -222 0
-197 -227 0
-197 -232 0
-197 -237 0
-197 -242 0
-197 -247 0
-202 -207 0
-202 -212 0
-202 -217 0
-202 -222 0
-202 -227 0
-202 -232 0
-202 -237 0
-202 -242 0
-202 -247 0
-207 -212 0
-207 -217 0
-207 -222 0
-207 -227 0
-207 -232 0
-207 -237 0
-207 -242 0
-207 -247 0
-212 -217 0
-212 -222 0
-212 -227 0
-212 -232 0
-212 -237 0
-212 -242 0
-212 -247 0
-217 -222 0
-217 -227 0
-217 -232 0
-217 -237 0
-217 -242 0
-217 -247 0
-222 -227 0
-222 -232 0
-222 -237 0
-222 -242 0
-222 -247 0
-227 -232 0
-227 -237 0
-227 -242 0
-227 -247 0
-232 -237 0
-232 -242 0
-232 -247 0
-237 -242 0
-237 -247 0
-242 -247 0
128 133 138 143 148 153 158 163 168 173 178 183 188 193 198 203 208 213 218 223 228 233 238 243 248 0
-128 -133 0
-128 -138 0
-128 -143 0
-128 -148 0
-128 -153 0
-128 -158 0
-128 -163 0
-128 -168 0
-128 -173 0
-128 -178 0
-128 -183 0
-128 -188 0
-128 -193 0
-128 -198 0
-128 -203 0
-128 -208 0
-128 -213 0
-128 -218 0
-128 -223 0
-128 -228 0
-128 -233 0
-128 -238 0
-128 -243 0
-128 -248 0
-133 -138 0
-133 -143 0
-133 -148 0
-133 -153 0
-133 -158 0
-133 -163 0
-133 -168 0
-133 -173 0
-133 -178 0
-133 -183 0
-133 -188 0
-133 -193 0
-133 -198 0
-133 -203 0
-133 -208 0
-133 -213 0
-133 -218 0
-133 -223 0
-133 -228 0
-133 -233 0
-133 -238 0
-133 -243 0
-133 -248 0
-138 -143 0
-138 -148 0
-138 -153 0
-138 -158 0
-138 -163 0
-138 -168 0
-138 -173 0
-138 -178 0
-138 -183 0
-138 -188 0
-138 -193 0
-138 -198 0
-138 -203 0
-138 -208 0
-138 -213 0
-138 -218 0
-138 -223 0
-138 -228 0
-138 -233 0
-138 -238 0
-138 -243 0
-138 -248 0
-143 -148 0
-143 -153 0
-143 -158 0
-143 -163 0
-143 -168 0
-143 -173 0
-143 -178 0
-143 -183 0
-143 -188 0
-143 -193 0
-143 -198 0
-143 -203 0
-143 -208 0
-143 -213 0
-143 -218 0
-143 -223 0
-143 -228 0
-143 -233 0
-143 -238 0
-143 -243 0
-143 -248 0
-148 -153 0
-148 -158 0
-148 -163 0
-148 -168 0
-148 -173 0
-148 -178 0
-148 -183 0
-148 -188 0
-148 -193 0
-148 -198 0
-148 -203 0
-148 -208 0
-148 -213 0
-148 -218 0
-148 -223 0
-148 -228 0
-148 -233 0
-148 -238 0
-148 -243 0
-148 -248 0
-153 -158 0
-153 -163 0
-153 -168 0
-153 -173 0
-153 -178 0
-153 -183 0
-153 -188 0
-153 -193 0
-153 -198 0
-153 -203 0
-153 -208 0
-153 -213 0
-153 -218 0
-153 -223 0
-153 -228 0
-153 -233 0
-153 -238 0
-153 -243 0
-153 -248 0
-158 -163 0
-158 -168 0
-158 -173 0
-158 -178 0
-158 -183 0
-158 -188 0
-158 -193 0
-158 -198 0
-158 -203 0
-158 -208 0
-158 -213 0
-158 -218 0
-158 -223 0
-158 -228 0
-158 -233 0
-158 -238 0
-158 -243 0
-158 -248 0
-163 -168 0
-163 -173 0
-163 -178 0
-163 -183 0
-163 -188 0
-163 -193 0
-163 -198 0
-163 -203 0
-163 -208 0
-163 -213 0
-163 -218 0
-163 -223 0
-163 -228 0
-163 -233 0
-163 -238 0
-163 -243 0
-163 -248 0
-168 -173 0
-168 -178 0
-168 -183 0
-168 -188 0
-168 -193 0
-168 -198 0
-168 -203 0
-168 -208 0
-168 -213 0
-168 -218 0
-168 -223 0
-168 -228 0
-168 -233 0
-168 -238 0
-168 -243 0
-168 -248 0
-173 -178 0
-173 -183 0
-173 -188 0
-173 -193 0
-173 -198 0
-173 -203 0
-173 -208 0
-173 -213 0
-173 -218 0
-173 -223 0
-173 -228 0
-173 -233 0
-173 -238 0
-173 -243 0
-173 -248 0
-178 -183 0
-178 -188 0
-178 -193 0
-178 -198 0
-178 -203 0
-178 -208 0
-178 -213 0
-178 -218 0
-178 -223 0
-178 -228 0
-178 -233 0
-178 -238 0
-178 -243 0
-178 -248 0
-183 -188 0
-183 -193 0
-183 -198 0
-183 -203 0
-183 -208 0
-183 -213 0
-183 -218 0
-183 -223 0
-183 -228 0
-183 -233 0
-183 -238 0
-183 -243 0
-183 -248 0
-188 -193 0
-188 -198 0
-188 -203 0
-188 -208 0
-188 -213 0
-188 -218 0
-188 -223 0
-188 -228 0
-188 -233 0
-188 -238 0
-188 -243 0
-188 -248 0
-193 -198 0
-193 -203 0
-193 -208 0
-193 -213 0
-193 -218 0
-193 -223 0
-193 -228 0
-193 -233 0
-193 -238 0
-193 -243 0
-193 -248 0
-198 -203 0
-198 -208 0
-198 -213 0
-198 -218 0
-198 -223 0
-198 -228 0
-198 -233 0
-198 -238 0
-198 -243 0
-198 -248 0
-203 -208 0
-203 -213 0
-203 -218 0
-203 -223 0
-203 -228 0
-203 -233 0
-203 -238 0
-203 -243 0
-203 -248 0
-208 -213 0
-208 -218 0
-208 -223 0
-208 -228 0
-208 -233 0
-208 -238 0
-208 -243 0
-208 -248 0
-213 -218 0
-213 -223 0
-213 -228 0
-213 -233 0
-213 -238 0
-213 -243 0
-213 -248 0
-218 -223 0
-218 -228 0
-218 -233 0
-218 -238 0
-218 -243 0
-218 -248 0
-223 -228 0
-223 -233 0
-223 -238 0
-223 -243 0
-223 -248 0
-228 -233 0
-228 -238 0
-228 -243 0
-228 -248 0
-233 -238 0
-233 -243 0
-233 -248 0
-238 -243 0
-238 -248 0
-243 -248 0
129 134 139 144 149 154 159 164 169 174 179 184 189 194 199 204 209 214 219 224 229 234 239 244 249 0
-129 -134 0
-129 -139 0
-129 -144 0
-129 -149 0
-129 -154 0
-129 -159 0
-129 -164 0
-129 -169 0
-129 -174 0
-129 -179 0
-129 -184 0
-129 -189 0
-129 -194 0
-129 -199 0
-129 -204 0
-129 -209 0
-129 -214 0
-129 -219 0
-129 -224 0
-129 -229 0
-129 -234 0
-129 -239 0
-129 -244 0
-129 -249 0
-134 -139 0
-134 -144 0
-134 -149 0
-134 -154 0
-134 -159 0
-134 -164 0
-134 -169 0
-134 -174 0
-134 -179 0
-134 -184 0
-134 -189 0
-134 -194 0
-134 -199 0
-134 -204 0
-134 -209 0
-134 -214 0
-134 -219 0
-134 -224 0
-134 -229 0
-134 -234 0
-134 -239 0
-134 -244 0
-134 -249 0
-139 -144 0
-139 -149 0
-139 -154 0
-139 -159 0
-139 -164 0
-139 -169 0
-139 -174 0
-139 -179 0
-139 -184 0
-139 -189 0
-139 -194 0
-139 -199 0
-139 -204 0
-139 -209 0
-139 -214 0
-139 -219 0
-139 -224 0
-139 -229 0
-139 -234 0
-139 -239 0
-139 -244 0
-139 -249 0
-144 -149 0
-144 -154 0
-144 -159 0
-144 -164 0
-144 -169 0
-144 -174 0
-144 -179 0
-144 -184 0
-144 -189 0
-144 -194 0
-144 -199 0
-144 -204 0
-144 -209 0
-144 -214 0
-144 -219 0
-144 -224 0
-144 -229 0
-144 -234 0
-144 -239 0
-144 -244 0
-144 -249 0
-149 -154 0
-149 -159 0
-149 -164 0
-149 -169 0
-149 -174 0
-149 -179 0
-149 -184 0
-149 -189 0
-149 -194 0
-149 -199 0
-149 -204 0
-149 -209 0
-149 -214 0
-149 -219 0
-149 -224 0
-149 -229 0
-149 -234 0
-149 -239 0
-149 -244 0
-149 -249 0
-154 -159 0
-154 -164 0
-154 -169 0
-154 -174 0
-154 -179 0
-154 -184 0
-154 -189 0
-154 -194 0
-154 -199 0
-154 -204 0
-154 -209 0
-154 -214 0
-154 -219 0
-154 -224 0
-154 -229 0
-154 -234 0
-154 -239 0
-154 -244 0
-154 -249 0
-159 -164 0
-159 -169 0
-159 -174 0
-159 -179 0
-159 -184 0
-159 -189 0
-159 -194 0
-159 -199 0
-159 -204 0
-159 -209 0
-159 -214 0
-159 -219 0
-159 -224 0
-159 -229 0
-159 -234 0
-159 -239 0
-159 -244 0
-159 -249 0
-164 -169 0
-164 -174 0
-164 -179 0
-164 -184 0
-164 -189 0
-164 -194 0
-164 -199 0
-164 -204 0
-164 -209 0
-164 -214 0
-164 -219 0
-164 -224 0
-164 -229 0
-164 -234 0
-164 -239 0
-164 -244 0
-164 -249 0
-169 -174 0
-169 -179 0
-169 -184 0
-169 -189 0
-169 -194 0
-169 -199 0
-169 -204 0
-169 -209 0
-169 -214 0
-169 -219 0
-169 -224 0
-169 -229 0
-169 -234 0
-169 -239 0
-169 -244 0
-169 -249 0
-174 -179 0
-174 -184 0
-174 -189 0
-174 -194 0
-174 -199 0
-174 -204 0
-174 -209 0
-174 -214 0
-174 -219 0
-174 -224 0
-174 -229 0
-174 -234 0
-174 -239 0
-174 -244 0
-174 -249 0
-179 -184 0
-179 -189 0
-179 -194 0
-179 -199 0
-179 -204 0
-179 -209 0
-179 -214 0
-179 -219 0
-179 -224 0
-179 -229 0
-179 -234 0
-179 -239 0
-179 -244 0
-179 -249 0
-184 -189 0
-184 -194 0
-184 -199 0
-184 -204 0
-184 -209 0
-184 -214 0
-184 -219 0
-184 -224 0
-184 -229 0
-184 -234 0
-184 -239 0
-184 -244 0
-184 -249 0
-189 -194 0
-189 -199 0
-189 -204 0
-189 -209 0
-189 -214 0
-189 -219 0
-189 -224 0
-189 -229 0
-189 -234 0
-189 -239 0
-189 -244 0
-189 -249 0
-194 -199 0
-194 -204 0
-194 -209 0
-194 -214 0
-194 -219 0
-194 -224 0
-194 -229 0
-194 -234 0
-194 -239 0
-194 -244 0
-194 -249 0
-199 -204 0
-199 -209 0
-199 -214 0
-199 -219 0
-199 -224 0
-199 -229 0
-199 -234 0
-199 -239 0
-199 -244 0
-199 -249 0
-204 -209 0
-204 -214 0
-204 -219 0
-204 -224 0
-204 -229 0
-204 -234 0
-204 -239 0
-204 -244 0
-204 -249 0
-209 -214 0
-209 -219 0
-209 -224 0
-209 -229 0
-209 -234 0
-209 -239 0
-209 -244 0
-209 -249 0
-214 -219 0
-214 -224 0
-214 -229 0
-214 -234 0
-214 -239 0
-214 -244 0
-214 -249 0
-219 -224 0
-219 -229 0
-219 -234 0
-219 -239 0
-219 -244 0
-219 -249 0
-224 -229 0
-224 -234 0
-224 -239 0
-224 -244 0
-224 -249 0
-229 -234 0
-229 -239 0
-229 -244 0
-229 -249 0
-234 -239 0
-234 -244 0
-234 -249 0
-239 -244 0
-239 -249 0
-244 -249 0
130 135 140 145 150 155 160 165 170 175 180 185 190 195 200 205 210 215 220 225 230 235 240 245 250 0
-130 -135 0
-130 -140 0
-130 -145 0
-130 -150 0
-130 -155 0
-130 -160 0
-130 -165 0
-130 -170 0
-130 -175 0
-130 -180 0
-130 -185 0
-130 -190 0
-130 -195 0
-130 -200 0
-130 -205 0
-130 -210 0
-130 -215 0
-130 -220 0
-130 -225 0
-130 -230 0
-130 -235 0
-130 -240 0
-130 -245 0
-130 -250 0
-135 -140 0
-135 -145 0
-135 -150 0
-135 -155 0
-135 -160 0
-135 -165 0
-135 -170 0
-135 -175 0
-135 -180 0
-135 -185 0
-135 -190 0
-135 -195 0
-135 -200 0
-135 -205 0
-135 -210 0
-135 -215 0
-135 -220 0
-135 -225 0
-135 -230 0
-135 -235 0
-135 -240 0
-135 -245 0
-135 -250 0
-140 -145 0
-140 -150 0
-140 -155 0
-140 -160 0
-140 -165 0
-140 -170 0
-140 -175 0
-140 -180 0
-140 -185 0
-140 -190 0
-140 -195 0
-140 -200 0
-140 -205 0
-140 -210 0
-140 -215 0
-140 -220 0
-140 -225 0
-140 -230 0
-140 -235 0
-140 -240 0
-140 -245 0
-140 -250 0
-145 -150 0
-145 -155 0
-145 -160 0
-145 -165 0
-145 -170 0
-145 -175 0
-145 -180 0
-145 -185 0
-145 -190 0
-145 -195 0
-145 -200 0
-145 -205 0
-145 -210 0
-145 -215 0
-145 -220 0
-145 -225 0
-145 -230 0
-145 -235 0
-145 -240 0
-145 -245 0
-145 -250 0
-150 -155 0
-150 -160 0
-150 -165 0
-150 -170 0
-150 -175 0
-150 -180 0
-150 -185 0
-150 -190 0
-150 -195 0
-150 -200 0
-150 -205 0
-150 -210 0
-150 -215 0
-150 -220 0
-150 -225 0
-150 -230 0
-150 -235 0
-150 -240 0
-150 -245 0
-150 -250 0
-155 -160 0
-155 -165 0
-155 -170 0
-155 -175 0
-155 -180 0
-155 -185 0
-155 -190 0
-155 -195 0
-155 -200 0
-155 -205 0
-155 -210 0
-155 -215 0
-155 -220 0
-155 -225 0
-155 -230 0
-155 -235 0
-155 -240 0
-155 -245 0
-155 -250 0
-160 -165 0
-160 -170 0
-160 -175 0
-160 -180 0
-160 -185 0
-160 -190 0
-160 -195 0
-160 -200 0
-160 -205 0
-160 -210 0
-160 -215 0
-160 -220 0
-160 -225 0
-160 -230 0
-160 -235 0
-160 -240 0
-160 -245 0
-160 -250 0
-165 -170 0
-165 -175 0
-165 -180 0
-165 -185 0
-165 -190 0
-165 -195 0
-165 -200 0
-165 -205 0
-165 -210 0
-165 -215 0
-165 -220 0
-165 -225 0
-165 -230 0
-165 -235 0
-165 -240 0
-165 -245 0
-165 -250 0
-170 -175 0
-170 -180 0
-170 -185 0
-170 -190 0
-170 -195 0
-170 -200 0
-170 -205 0
-170 -210 0
-170 -215 0
-170 -220 0
-170 -225 0
-170 -230 0
-170 -235 0
-170 -240 0
-170 -245 0
-170 -250 0
-175 -180 0
-175 -185 0
-175 -190 0
-175 -195 0
-175 -200 0
-175 -205 0
-175 -210 0
-175 -215 0
-175 -220 0
-175 -225 0
-175 -230 0
-175 -235 0
-175 -240 0
-175 -245 0
-175 -250 0
-180 -185 0
-180 -190 0
-180 -195 0
-180 -200 0
-180 -205 0
-180 -210 0
-180 -215 0
-180 -220 0
-180 -225 0
-180 -230 0
-180 -235 0
-180 -240 0
-180 -245 0
-180 -250 0
-185 -190 0
-185 -195 0
-185 -200 0
-185 -205 0
-185 -210 0
-185 -215 0
-185 -220 0
-185 -225 0
-185 -230 0
-185 -235 0
-185 -240 0
-185 -245 0
-185 -250 0
-190 -195 0
-190 -200 0
-190 -205 0
-190 -210 0
-190 -215 0
-190 -220 0
-190 -225 0
-190 -230 0
-190 -235 0
-190 -240 0
-190 -245 0
-190 -250 0
-195 -200 0
-195 -205 0
-195 -210 0
-195 -215 0
-195 -220 0
-195 -225 0
-195 -230 0
-195 -235 0
-195 -240 0
-195 -245 0
-195 -250 0
-200 -205 0
-200 -210 0
-200 -215 0
-200 -220 0
-200 -225 0
-200 -230 0
-200 -235 0
-200 -240 0
-200 -245 0
-200 -250 0
-205 -210 0
-205 -215 0
-205 -220 0
-205 -225 0
-205 -230 0
-205 -235 0
-205 -240 0
-205 -245 0
-205 -250 0
-210 -215 0
-210 -220 0
-210 -225 0
-210 -230 0
-210 -235 0
-210 -240 0
-210 -245 0
-210 -250 0
-215 -220 0
-215 -225 0
-215 -230 0
-215 -235 0
-215 -240 0
-215 -245 0
-215 -250 0
-220 -225 0
-220 -230 0
-220 -235 0
-220 -240 0
-220 -245 0
-220 -250 0
-225 -230 0
-225 -235 0
-225 -240 0
-225 -245 0
-225 -250 0
-230 -235 0
-230 -240 0
-230 -245 0
-230 -250 0
-235 -240 0
-235 -245 0
-235 -250 0
-240 -245 0
-240 -250 0
-245 -250 0
251 256 261 266 271 276 281 286 291 296 301 306 311 316 321 326 331 336 341 346 351 356 361 366 371 0
-251 -256 0
-251 -261 0
-251 -266 0
-251 -271 0
-251 -276 0
-251 -281 0
-251 -286 0
-251 -291 0
-251 -296 0
-251 -301 0
-251 -306 0
-251 -311 0
-251 -316 0
-251 -321 0
-251 -326 0
-251 -331 0
-251 -336 0
-251 -341 0
-251 -346 0
-251 -351 0
-251 -356 0
-251 -361 0
-251 -366 0
-251 -371 0
-256 -261 0
-256 -266 0
-256 -271 0
-256 -276 0
-256 -281 0
-256 -286 0
-256 -291 0
-256 -296 0
-256 -301 0
-256 -306 0
-256 -311 0
-256 -316 0
-256 -321 0
-256 -326 0
-256 -331 0
-256 -336 0
-256 -341 0
-256 -346 0
-256 -351 0
-256 -356 0
-256 -361 0
-256 -366 0
-256 -371 0
-261 -266 0
-261 -271 0
-261 -276 0
-261 -281 0
-261 -286 0
-261 -291 0
-261 -296 0
-261 -301 0
-261 -306 0
-261 -311 0
-261 -316 0
-261 -321 0
-261 -326 0
-261 -331 0
-261 -336 0
-261 -341 0
-261 -346 0
-261 -351 0
-261 -356 0
-261 -361 0
-261 -366 0
-261 -371 0
-266 -271 0
-266 -276 0
-266 -281 0
-266 -286 0
-266 -291 0
-266 -296 0
-266 -301 0
-266 -306 0
-266 -311 0
-266 -316 0
-266 -321 0
-266 -326 0
-266 -331 0
-266 -336 0
-266 -341 0
-266 -346 0
-266 -351 0
-266 -356 0
-266 -361 0
-266 -366 0
-266 -371 0
-271 -276 0
-271 -281 0
-271 -286 0
-271 -291 0
-271 -296 0
-271 -301 0
-271 -306 0
-271 -311 0
-271 -316 0
-271 -321 0
-271 -326 0
-271 -331 0
-271 -336 0
-271 -341 0
-271 -346 0
-271 -351 0
-271 -356 0
-271 -361 0
-271 -366 0
-271 -371 0
-276 -281 0
-276 -286 0
-276 -291 0
-276 -296 0
-276 -301 0
-276 -306 0
-276 -311 0
-276 -316 0
-276 -321 0
-276 -326 0
-276 -331 0
-276 -336 0
-276 -341 0
-276 -346 0
-276 -351 0
-276 -356 0
-276 -361 0
-276 -366 0
-276 -371 0
-281 -286 0
-281 -291 0
-281 -296 0
-281 -301 0
-281 -306 0
-281 -311 0
-281 -316 0
-281 -321 0
-281 -326 0
-281 -331 0
-281 -336 0
-281 -341 0
-281 -346 0
-281 -351 0
-281 -356 0
-281 -361 0
-281 -366 0
-281 -371 0
-286 -291 0
-286 -296 0
-286 -301 0
-286 -306 0
-286 -311 0
-286 -316 0
-286 -321 0
-286 -326 0
-286 -331 0
-286 -336 0
-286 -341 0
-286 -346 0
-286 -351 0
-286 -356 0
-286 -361 0
-286 -366 0
-286 -371 0
-291 -296 0
-291 -301 0
-291 -306 0
-291 -311 0
-291 -316 0
-291 -321 0
-291 -326 0
-291 -331 0
-291 -336 0
-291 -341 0
-291 -346 0
-291 -351 0
-291 -356 0
-291 -361 0
-291 -366 0
-291 -371 0
-296 -301 0
-296 -306 0
-296 -311 0
-296 -316 0
-296 -321 0
-296 -326 0
-296 -331 0
-296 -336 0
-296 -341 0
-296 -346 0
-296 -351 0
-296 -356 0
-296 -361 0
-296 -366 0
-296 -371 0
-301 -306 0
-301 -311 0
-301 -316 0
-301 -321 0
-301 -326 0
-301 -331 0
-301 -336 0
-301 -341 0
-301 -346 0
-301 -351 0
-301 -356 0
-301 -361 0
-301 -366 0
-301 -371 0
-306 -311 0
-306 -316 0
-306 -321 0
-306 -326 0
-306 -331 0
-306 -336 0
-306 -341 0
-306 -346 0
-306 -351 0
-306 -356 0
-306 -361 0
-306 -366 0
-306 -371 0
-311 -316 0
-311 -321 0
-311 -326 0
-311 -331 0
-311 -336 0
-311 -341 0
-311 -346 0
-311 -351 0
-311 -356 0
-311 -361 0
-311 -366 0
-311 -371 0
-316 -321 0
-316 -326 0
-316 -331 0
-316 -336 0
-316 -341 0
-316 -346 0
-316 -351 0
-316 -356 0
-316 -361 0
-316 -366 0
-316 -371 0
-321 -326 0
-321 -331 0
-321 -336 0
-321 -341 0
-321 -346 0
-321 -351 0
-321 -356 0
-321 -361 0
-321 -366 0
-321 -371 0
-326 -331 0
-326 -336 0
-326 -341 0
-326 -346 0
-326 -351 0
-326 -356 0
-326 -361 0
-326 -366 0
-326 -371 0
-331 -336 0
-331 -341 0
-331 -346 0
-331 -351 0
-331 -356 0
-331 -361 0
-331 -366 0
-331 -371 0
-336 -341 0
-336 -346 0
-336 -351 0
-336 -356 0
-336 -361 0
-336 -366 0
-336 -371 0
-341 -346 0
-341 -351 0
-341 -356 0
-341 -361 0
-341 -366 0
-341 -371 0
-346 -351 0
-346 -356 0
-346 -361 0
-346 -366 0
-346 -371 0
-351 -356 0
-351 -361 0
-351 -366 0
-351 -371 0
-356 -361 0
-356 -366 0
-356 -371 0
-361 -366 0
-361 -371 0
-366 -371 0
252 257 262 267 272 277 282 287 292 297 302 307 312 317 322 327 332 337 342 347 352 357 362 367 372 0
-252 -257 0
-252 -262 0
-252 -267 0
-252 -272 0
-252 -277 0
-252 -282 0
-252 -287 0
-252 -292 0
-252 -297 0
-252 -302 0
-252 -307 0
-252 -312 0
-252 -317 0
-252 -322 0
-252 -327 0
-252 -332 0
-252 -337 0
-252 -342 0
-252 -347 0
-252 -352 0
-252 -357 0
-252 -362 0
-252 -367 0
-252 -372 0
-257 -262 0
-257 -267 0
-257 -272 0
-257 -277 0
-257 -282 0
-257 -287 0
-257 -292 0
-257 -297 0
-257 -302 0
-257 -307 0
-257 -312 0
-257 -317 0
-257 -322 0
-257 -327 0
-257 -332 0
-257 -337 0
-257 -342 0
-257 -347 0
-257 -352 0
-257 -357 0
-257 -362 0
-257 -367 0
-257 -372 0
-262 -267 0
-262 -272 0
-262 -277 0
-262 -282 0
-262 -287 0
-262 -292 0
-262 -297 0
-262 -302 0
-262 -307 0
-262 -312 0
-262 -317 0
-262 -322 0
-262 -327 0
-262 -332 0
-262 -337 0
-262 -342 0
-262 -347 0
-262 -352 0
-262 -357 0
-262 -362 0
-262 -367 0
-262 -372 0
-267 -272 0
-267 -277 0
-267 -282 0
-267 -287 0
-267 -292 0
-267 -297 0
-267 -302 0
-267 -307 0
-267 -312 0
-267 -317 0
-267 -322 0
-267 -327 0
-267 -332 0
-267 -337 0
-267 -342 0
-267 -347 0
-267 -352 0
-267 -357 0
-267 -362 0
-267 -367 0
-267 -372 0
-272 -277 0
-272 -282 0
-272 -287 0
-272 -292 0
-272 -297 0
-272 -302 0
-272 -307 0
-272 -312 0
-272 -317 0
-272 -322 0
-272 -327 0
-272 -332 0
-272 -337 0
-272 -342 0
-272 -347 0
-272 -352 0
-272 -357 0
-272 -362 0
-272 -367 0
-272 -372 0
-277 -282 0
-277 -287 0
-277 -292 0
-277 -297 0
-277 -302 0
-277 -307 0
-277 -312 0
-277 -317 0
-277 -322 0
-277 -327 0
-277 -332 0
-277 -337 0
-277 -342 0
-277 -347 0
-277 -352 0
-277 -357 0
-277 -362 0
-277 -367 0
-277 -372 0
-282 -287 0
-282 -292 0
-282 -297 0
-282 -302 0
-282 -307 0
-282 -312 0
-282 -317 0
-282 -322 0
-282 -327 0
-282 -332 0
-282 -337 0
-282 -342 0
-282 -347 0
-282 -352 0
-282 -357 0
-282 -362 0
-282 -367 0
-282 -372 0
-287 -292 0
-287 -297 0
-287 -302 0
-287 -307 0
-287 -312 0
-287 -317 0
-287 -322 0
-287 -327 0
-287 -332 0
-287 -337 0
-287 -342 0
-287 -347 0
-287 -352 0
-287 -357 0
-287 -362 0
-287 -367 0
-287 -372 0
-292 -297 0
-292 -302 0
-292 -307 0
-292 -312 0
-292 -317 0
-292 -322 0
-292 -327 0
-292 -332 0
-292 -337 0
-292 -342 0
-292 -347 0
-292 -352 0
-292 -357 0
-292 -362 0
-292 -367 0
-292 -372 0
-297 -302 0
-297 -307 0
-297 -312 0
-297 -317 0
-297 -322 0
-297 -327 0
-297 -332 0
-297 -337 0
-297 -342 0
-297 -347 0
-297 -352 0
-297 -357 0
-297 -362 0
-297 -367 0
-297 -372 0
-302 -307 0
-302 -312 0
-302 -317 0
-302 -322 0
-302 -327 0
-302 -332 0
-302 -337 0
-302 -342 0
-302 -347 0
-302 -352 0
-302 -357 0
-302 -362 0
-302 -367 0
-302 -372 0
-307 -312 0
-307 -317 0
-307 -322 0
-307 -327 0
-307 -332 0
-307 -337 0
-307 -342 0
-307 -347 0
-307 -352 0
-307 -357 0
-307 -362 0
-307 -367 0
-307 -372 0
-312 -317 0
-312 -322 0
-312 -327 0
-312 -332 0
-312 -337 0
-312 -342 0
-312 -347 0
-312 -352 0
-312 -357 0
-312 -362 0
-312 -367 0
-312 -372 0
-317 -322 0
-317 -327 0
-317 -332 0
-317 -337 0
-317 -342 0
-317 -347 0
-317 -352 0
-317 -357 0
-317 -362 0
-317 -367 0
-317 -372 0
-322 -327 0
-322 -332 0
-322 -337 0
-322 -342 0
-322 -347 0
-322 -352 0
-322 -357 0
-322 -362 0
-322 -367 0
-322 -372 0
-327 -332 0
-327 -337 0
-327 -342 0
-327 -347 0
-327 -352 0
-327 -357 0
-327 -362 0
-327 -367 0
-327 -372 0
-332 -337 0
-332 -342 0
-332 -347 0
-332 -352 0
-332 -357 0
-332 -362 0
-332 -367 0
-332 -372 0
-337 -342 0
-337 -347 0
-337 -352 0
-337 -357 0
-337 -362 0
-337 -367 0
-337 -372 0
-342 -347 0
-342 -352 0
-342 -357 0
-342 -362 0
-342 -367 0
-342 -372 0
-347 -352 0
-347 -357 0
-347 -362 0
-347 -367 0
-347 -372 0
-352 -357 0
-352 -362 0
-352 -367 0
-352 -372 0
-357 -362 0
-357 -367 0
-357 -372 0
-362 -367 0
-362 -372 0
-367 -372 0
253 258 263 268 273 278 283 288 293 298 303 308 313 318 323 328 333 338 343 348 353 358 363 368 373 0
-253 -258 0
-253 -263 0
-253 -268 0
-253 -273 0
-253 -278 0
-253 -283 0
-253 -288 0
-253 -293 0
-253 -298 0
-253 -303 0
-253 -308 0
-253 -313 0
-253 -318 0
-253 -323 0
-253 -328 0
-253 -333 0
-253 -338 0
-253 -343 0
-253 -348 0
-253 -353 0
-253 -358 0
-253 -363 0
-253 -368 0
-253 -373 0
-258 -263 0
-258 -268 0
-258 -273 0
-258 -278 0
-258 -283 0
-258 -288 0
-258 -293 0
-258 -298 0
-258 -303 0
-258 -308 0
-258 -313 0
-258 -318 0
-258 -323 0
-258 -328 0
-258 -333 0
-258 -338 0
-258 -343 0
-258 -348 0
-258 -353 0
-258 -358 0
-258 -363 0
-258 -368 0
-258 -373 0
-263 -268 0
-263 -273 0
-263 -278 0
-263 -283 0
-263 -288 0
-263 -293 0
-263 -298 0
-263 -303 0
-263 -308 0
-263 -313 0
-263 -318 0
-263 -323 0
-263 -328 0
-263 -333 0
-263 -338 0
-263 -343 0
-263 -348 0
-263 -353 0
-263 -358 0
-263 -363 0
-263 -368 0
-263 -373 0
-268 -273 0
-268 -278 0
-268 -283 0
-268 -288 0
-268 -293 0
-268 -298 0
-268 -303 0
-268 -308 0
-268 -313 0
-268 -318 0
-268 -323 0
-268 -328 0
-268 -333 0
-268 -338 0
-268 -343 0
-268 -348 0
-268 -353 0
-268 -358 0
-268 -363 0
-268 -368 0
-268 -373 0
-273 -278 0
-273 -283 0
-273 -288 0
-273 -293 0
-273 -298 0
-273 -303 0
-273 -308 0
-273 -313 0
-273 -318 0
-273 -323 0
-273 -328 0
-273 -333 0
-273 -338 0
-273 -343 0
-273 -348 0
-273 -353 0
-273 -358 0
-273 -363 0
-273 -368 0
-273 -373 0
-278 -283 0
-278 -288 0
-278 -293 0
-278 -298 0
-278 -303 0
-278 -308 0
-278 -313 0
-278 -318 0
-278 -323 0
-278 -328 0
-278 -333 0
-278 -338 0
-278 -343 0
-278 -348 0
-278 -353 0
-278 -358 0
-278 -363 0
-278 -368 0
-278 -373 0
-283 -288 0
-283 -293 0
-283 -298 0
-283 -303 0
-283 -308 0
-283 -313 0
-283 -318 0
-283 -323 0
-283 -328 0
-283 -333 0
-283 -338 0
-283 -343 0
-283 -348 0
-283 -353 0
-283 -358 0
-283 -363 0
-283 -368 0
-283 -373 0
-288 -293 0
-288 -298 0
-288 -303 0
-288 -308 0
-288 -313 0
-288 -318 0
-288 -323 0
-288 -328 0
-288 -333 0
-288 -338 0
-288 -343 0
-288 -348 0
-288 -353 0
-288 -358 0
-288 -363 0
-288 -368 0
-288 -373 0
-293 -298 0
-293 -303 0
-293 -308 0
-293 -313 0
-293 -318 0
-293 -323 0
-293 -328 0
-293 -333 0
-293 -338 0
-293 -343 0
-293 -348 0
-293 -353 0
-293 -358 0
-293 -363 0
-293 -368 0
-293 -373 0
-298 -303 0
-298 -308 0
-298 -313 0
-298 -318 0
-298 -323 0
-298 -328 0
-298 -333 0
-298 -338 0
-298 -343 0
-298 -348 0
-298 -353 0
-298 -358 0
-298 -363 0
-298 -368 0
-298 -373 0
-303 -308 0
-303 -313 0
-303 -318 0
-303 -323 0
-303 -328 0
-303 -333 0
-303 -338 0
-303 -343 0
-303 -348 0
-303 -353 0
-303 -358 0
-303 -363 0
-303 -368 0
-303 -373 0
-308 -313 0
-308 -318 0
-308 -323 0
-308 -328 0
-308 -333 0
-308 -338 0
-308 -343 0
-308 -348 0
-308 -353 0
-308 -358 0
-308 -363 0
-308 -368 0
-308 -373 0
-313 -318 0
-313 -323 0
-313 -328 0
-313 -333 0
-313 -338 0
-313 -343 0
-313 -348 0
-313 -353 0
-313 -358 0
-313 -363 0
-313 -368 0
-313 -373 0
-318 -323 0
-318 -328 0
-318 -333 0
-318 -338 0
-318 -343 0
-318 -348 0
-318 -353 0
-318 -358 0
-318 -363 0
-318 -368 0
-318 -373 0
-323 -328 0
-323 -333 0
-323 -338 0
-323 -343 0
-323 -348 0
-323 -353 0
-323 -358 0
-323 -363 0
-323 -368 0
-323 -373 0
-328 -333 0
-328 -338 0
-328 -343 0
-328 -348 0
-328 -353 0
-328 -358 0
-328 -363 0
-328 -368 0
-328 -373 0
-333 -338 0
-333 -343 0
-333 -348 0
-333 -353 0
-333 -358 0
-333 -363 0
-333 -368 0
-333 -373 0
-338 -343 0
-338 -348 0
-338 -353 0
-338 -358 0
-338 -363 0
-338 -368 0
-338 -373 0
-343 -348 0
-343 -353 0
-343 -358 0
-343 -363 0
-343 -368 0
-343 -373 0
-348 -353 0
-348 -358 0
-348 -363 0
-348 -368 0
-348 -373 0
-353 -358 0
-353 -363 0
-353 -368 0
-353 -373 0
-358 -363 0
-358 -368 0
-358 -373 0
-363 -368 0
-363 -373 0
-368 -373 0
254 259 264 269 274 279 284 289 294 299 304 309 314 319 324 329 334 339 344 349 354 359 364 369 374 0
-254 -259 0
-254 -264 0
-254 -269 0
-254 -274 0
-254 -279 0
-254 -284 0
-254 -289 0
-254 -294 0
-254 -299 0
-254 -304 0
-254 -309 0
-254 -314 0
-254 -319 0
-254 -324 0
-254 -329 0
-254 -334 0
-254 -339 0
-254 -344 0
-254 -349 0
-254 -354 0
-254 -359 0
-254 -364 0
-254 -369 0
-254 -374 0
-259 -264 0
-259 -269 0
-259 -274 0
-259 -279 0
-259 -284 0
-259 -289 0
-259 -294 0
-259 -299 0
-259 -304 0
-259 -309 0
-259 -314 0
-259 -319 0
-259 -324 0
-259 -329 0
-259 -334 0
-259 -339 0
-259 -344 0
-259 -349 0
-259 -354 0
-259 -359 0
-259 -364 0
-259 -369 0
-259 -374 0
-264 -269 0
-264 -274 0
-264 -279 0
-264 -284 0
-264 -289 0
-264 -294 0
-264 -299 0
-264 -304 0
-264 -309 0
-264 -314 0
-264 -319 0
-264 -324 0
-264 -329 0
-264 -334 0
-264 -339 0
-264 -344 0
-264 -349 0
-264 -354 0
-264 -359 0
-264 -364 0
-264 -369 0
-264 -374 0
-269 -274 0
-269 -279 0
-269 -284 0
-269 -289 0
-269 -294 0
-269 -299 0
-269 -304 0
-269 -309 0
-269 -314 0
-269 -319 0
-269 -324 0
-269 -329 0
-269 -334 0
-269 -339 0
-269 -344 0
-269 -349 0
-269 -354 0
-269 -359 0
-269 -364 0
-269 -369 0
-269 -374 0
-274 -279 0
-274 -284 0
-274 -289 0
-274 -294 0
-274 -299 0
-274 -304 0
-274 -309 0
-274 -314 0
-274 -319 0
-274 -324 0
-274 -329 0
-274 -334 0
-274 -339 0
-274 -344 0
-274 -349 0
-274 -354 0
-274 -359 0
-274 -364 0
-274 -369 0
-274 -374 0
-279 -284 0
-279 -289 0
-279 -294 0
-279 -299 0
-279 -304 0
-279 -309 0
-279 -314 0
-279 -319 0
-279 -324 0
-279 -329 0
-279 -334 0
-279 -339 0
-279 -344 0
-279 -349 0
-279 -354 0
-279 -359 0
-279 -364 0
-279 -369 0
-279 -374 0
-284 -289 0
-284 -294 0
-284 -299 0
-284 -304 0
-284 -309 0
-284 -314 0
-284 -319 0
-284 -324 0
-284 -329 0
-284 -334 0
-284 -339 0
-284 -344 0
-284 -349 0
-284 -354 0
-284 -359 0
-284 -364 0
-284 -369 0
-284 -374 0
-289 -294 0
-289 -299 0
-289 -304 0
-289 -309 0
-289 -314 0
-289 -319 0
-289 -324 0
-289 -329 0
-289 -334 0
-289 -339 0
-289 -344 0
-289 -349 0
-289 -354 0
-289 -359 0
-289 -364 0
-289 -369 0
-289 -374 0
-294 -299 0
-294 -304 0
-294 -309 0
-294 -314 0
-294 -319 0
-294 -324 0
-294 -329 0
-294 -334 0
-294 -339 0
-294 -344 0
-294 -349 0
-294 -354 0
-294 -359 0
-294 -364 0
-294 -369 0
-294 -374 0
-299 -304 0
-299 -309 0
-299 -314 0
-299 -319 0
-299 -324 0
-299 -329 0
-299 -334 0
-299 -339 0
-299 -344 0
-299 -349 0
-299 -354 0
-299 -359 0
-299 -364 0
-299 -369 0
-299 -374 0
-304 -309 0
-304 -314 0
-304 -319 0
-304 -324 0
-304 -329 0
-304 -334 0
-304 -339 0
-304 -344 0
-304 -349 0
-304 -354 0
-304 -359 0
-304 -364 0
-304 -369 0
-304 -374 0
-309 -314 0
-309 -319 0
-309 -324 0
-309 -329 0
-309 -334 0
-309 -339 0
-309 -344 0
-309 -349 0
-309 -354 0
-309 -359 0
-309 -364 0
-309 -369 0
-309 -374 0
-314 -319 0
-314 -324 0
-314 -329 0
-314 -334 0
-314 -339 0
-314 -344 0
-314 -349 0
-314 -354 0
-314 -359 0
-314 -364 0
-314 -369 0
-314 -374 0
-319 -324 0
-319 -329 0
-319 -334 0
-319 -339 0
-319 -344 0
-319 -349 0
-319 -354 0
-319 -359 0
-319 -364 0
-319 -369 0
-319 -374 0
-324 -329 0
-324 -334 0
-324 -339 0
-324 -344 0
-324 -349 0
-324 -354 0
-324 -359 0
-324 -364 0
-324 -369 0
-324 -374 0
-329 -334 0
-329 -339 0
-329 -344 0
-329 -349 0
-329 -354 0
-329 -359 0
-329 -364 0
-329 -369 0
-329 -374 0
-334 -339 0
-334 -344 0
-334 -349 0
-334 -354 0
-334 -359 0
-334 -364 0
-334 -369 0
-334 -374 0
-339 -344 0
-339 -349 0
-339 -354 0
-339 -359 0
-339 -364 0
-339 -369 0
-339 -374 0
-344 -349 0
-344 -354 0
-344 -359 0
-344 -364 0
-344 -369 0
-344 -374 0
-349 -354 0
-349 -359 0
-349 -364 0
-349 -369 0
-349 -374 0
-354 -359 0
-354 -364 0
-354 -369 0
-354 -374 0
-359 -364 0
-359 -369 0
-359 -374 0
-364 -369 0
-364 -374 0
-369 -374 0
255 260 265 270 275 280 285 290 295 300 305 310 315 320 325 330 335 340 345 350 355 360 365 370 375 0
-255 -260 0
-255 -265 0
-255 -270 0
-255 -275 0
-255 -280 0
-255 -285 0
-255 -290 0
-255 -295 0
-255 -300 0
-255 -305 0
-255 -310 0
-255 -315 0
-255 -320 0
-255 -325 0
-255 -330 0
-255 -335 0
-255 -340 0
-255 -345 0
-255 -350 0
-255 -355 0
-255 -360 0
-255 -365 0
-255 -370 0
-255 -375 0
-260 -265 0
-260 -270 0
-260 -275 0
-260 -280 0
-260 -285 0
-260 -290 0
-260 -295 0
-260 -300 0
-260 -305 0
-260 -310 0
-260 -315 0
-260 -320 0
-260 -325 0
-260 -330 0
-260 -335 0
-260 -340 0
-260 -345 0
-260 -350 0
-260 -355 0
-260 -360 0
-260 -365 0
-260 -370 0
-260 -375 0
-265 -270 0
-265 -275 0
-265 -280 0
-265 -285 0
-265 -290 0
-265 -295 0
-265 -300 0
-265 -305 0
-265 -310 0
-265 -315 0
-265 -320 0
-265 -325 0
-265 -330 0
-265 -335 0
-265 -340 0
-265 -345 0
-265 -350 0
-265 -355 0
-265 -360 0
-265 -365 0
-265 -370 0
-265 -375 0
-270 -275 0
-270 -280 0
-270 -285 0
-270 -290 0
-270 -295 0
-270 -300 0
-270 -305 0
-270 -310 0
-270 -315 0
-270 -320 0
-270 -325 0
-270 -330 0
-270 -335 0
-270 -340 0
-270 -345 0
-270 -350 0
-270 -355 0
-270 -360 0
-270 -365 0
-270 -370 0
-270 -375 0
-275 -280 0
-275 -285 0
-275 -290 0
-275 -295 0
-275 -300 0
-275 -305 0
-275 -310 0
-275 -315 0
-275 -320 0
-275 -325 0
-275 -330 0
-275 -335 0
-275 -340 0
-275 -345 0
-275 -350 0
-275 -355 0
-275 -360 0
-275 -365 0
-275 -370 0
-275 -375 0
-280 -285 0
-280 -290 0
-280 -295 0
-280 -300 0
-280 -305 0
-280 -310 0
-280 -315 0
-280 -320 0
-280 -325 0
-280 -330 0
-280 -335 0
-280 -340 0
-280 -345 0
-280 -350 0
-280 -355 0
-280 -360 0
-280 -365 0
-280 -370 0
-280 -375 0
-285 -290 0
-285 -295 0
-285 -300 0
-285 -305 0
-285 -310 0
-285 -315 0
-285 -320 0
-285 -325 0
-285 -330 0
-285 -335 0
-285 -340 0
-285 -345 0
-285 -350 0
-285 -355 0
-285 -360 0
-285 -365 0
-285 -370 0
-285 -375 0
-290 -295 0
-290 -300 0
-290 -305 0
-290 -310 0
-290 -315 0
-290 -320 0
-290 -325 0
-290 -330 0
-290 -335 0
-290 -340 0
-290 -345 0
-290 -350 0
-290 -355 0
-290 -360 0
-290 -365 0
-290 -370 0
-290 -375 0
-295 -300 0
-295 -305 0
-295 -310 0
-295 -315 0
-295 -320 0
-295 -325 0
-295 -330 0
-295 -335 0
-295 -340 0
-295 -345 0
-295 -350 0
-295 -355 0
-295 -360 0
-295 -365 0
-295 -370 0
-295 -375 0
-300 -305 0
-300 -310 0
-300 -315 0
-300 -320 0
-300 -325 0
-300 -330 0
-300 -335 0
-300 -340 0
-300 -345 0
-300 -350 0
-300 -355 0
-300 -360 0
-300 -365 0
-300 -370 0
-300 -375 0
-305 -310 0
-305 -315 0
-305 -320 0
-305 -325 0
-305 -330 0
-305 -335 0
-305 -340 0
-305 -345 0
-305 -350 0
-305 -355 0
-305 -360 0
-305 -365 0
-305 -370 0
-305 -375 0
-310 -315 0
-310 -320 0
-310 -325 0
-310 -330 0
-310 -335 0
-310 -340 0
-310 -345 0
-310 -350 0
-310 -355 0
-310 -360 0
-310 -365 0
-310 -370 0
-310 -375 0
-315 -320 0
-315 -325 0
-315 -330 0
-315 -335 0
-315 -340 0
-315 -345 0
-315 -350 0
-315 -355 0
-315 -360 0
-315 -365 0
-315 -370 0
-315 -375 0
-320 -325 0
-320 -330 0
-320 -335 0
-320 -340 0
-320 -345 0
-320 -350 0
-320 -355 0
-320 -360 0
-320 -365 0
-320 -370 0
-320 -375 0
-325 -330 0
-325 -335 0
-325 -340 0
-325 -345 0
-325 -350 0
-325 -355 0
-325 -360 0
-325 -365 0
-325 -370 0
-325 -375 0
-330 -335 0
-330 -340 0
-330 -345 0
-330 -350 0
-330 -355 0
-330 -360 0
-330 -365 0
-330 -370 0
-330 -375 0
-335 -340 0
-335 -345 0
-335 -350 0
-335 -355 0
-335 -360 0
-335 -365 0
-335 -370 0
-335 -375 0
-340 -345 0
-340 -350 0
-340 -355 0
-340 -360 0
-340 -365 0
-340 -370 0
-340 -375 0
-345 -350 0
-345 -355 0
-345 -360 0
-345 -365 0
-345 -370 0
-345 -375 0
-350 -355 0
-350 -360 0
-350 -365 0
-350 -370 0
-350 -375 0
-355 -360 0
-355 -365 0
-355 -370 0
-355 -375 0
-360 -365 0
-360 -370 0
-360 -375 0
-365 -370 0
-365 -375 0
-370 -375 0
376 381 386 391 396 401 406 411 416 421 426 431 436 441 446 451 456 461 466 471 476 481 486 491 496 0
-376 -381 0
-376 -386 0
-376 -391 0
-376 -396 0
-376 -401 0
-376 -406 0
-376 -411 0
-376 -416 0
-376 -421 0
-376 -426 0
-376 -431 0
-376 -436 0
-376 -441 0
-376 -446 0
-376 -451 0
-376 -456 0
-376 -461 0
-376 -466 0
-376 -471 0
-376 -476 0
-376 -481 0
-376 -486 0
-376 -491 0
-376 -496 0
-381 -386 0
-381 -391 0
-381 -396 0
-381 -401 0
-381 -406 0
-381 -411 0
-381 -416 0
-381 -421 0
-381 -426 0
-381 -431 0
-381 -436 0
-381 -441 0
-381 -446 0
-381 -451 0
-381 -456 0
-381 -461 0
-381 -466 0
-381 -471 0
-381 -476 0
-381 -481 0
-381 -486 0
-381 -491 0
-381 -496 0
-386 -391 0
-386 -396 0
-386 -401 0
-386 -406 0
-386 -411 0
-386 -416 0
-386 -421 0
-386 -426 0
-386 -431 0
-386 -436 0
-386 -441 0
-386 -446 0
-386 -451 0
-386 -456 0
-386 -461 0
-386 -466 0
-386 -471 0
-386 -476 0
-386 -481 0
-386 -486 0
-386 -491 0
-386 -496 0
-391 -396 0
-391 -401 0
-391 -406 0
-391 -411 0
-391 -416 0
-391 -421 0
-391 -426 0
-391 -431 0
-391 -436 0
-391 -441 0
-391 -446 0
-391 -451 0
-391 -456 0
-391 -461 0
-391 -466 0
-391 -471 0
-391 -476 0
-391 -481 0
-391 -486 0
-391 -491 0
-391 -496 0
-396 -401 0
-396 -406 0
-396 -411 0
-396 -416 0
-396 -421 0
-396 -426 0
-396 -431 0
-396 -436 0
-396 -441 0
-396 -446 0
-396 -451 0
-396 -456 0
-396 -461 0
-396 -466 0
-396 -471 0
-396 -476 0
-396 -481 0
-396 -486 0
-396 -491 0
-396 -496 0
-401 -406 0
-401 -411 0
-401 -416 0
-401 -421 0
-401 -426 0
-401 -431 0
-401 -436 0
-401 -441 0
-401 -446 0
-401 -451 0
-401 -456 0
-401 -461 0
-401 -466 0
-401 -471 0
-401 -476 0
-401 -481 0
-401 -486 0
-401 -491 0
-401 -496 0
-406 -411 0
-406 -416 0
-406 -421 0
-406 -426 0
-406 -431 0
-406 -436 0
-406 -441 0
-406 -446 0
-406 -451 0
-406 -456 0
-406 -461 0
-406 -466 0
-406 -471 0
-406 -476 0
-406 -481 0
-406 -486 0
-406 -491 0
-406 -496 0
-411 -416 0
-411 -421 0
-411 -426 0
-411 -431 0
-411 -436 0
-411 -441 0
-411 -446 0
-411 -451 0
-411 -456 0
-411 -461 0
-411 -466 0
-411 -471 0
-411 -476 0
-411 -481 0
-411 -486 0
-411 -491 0
-411 -496 0
-416 -421 0
-416 -426 0
-416 -431 0
-416 -436 0
-416 -441 0
-416 -446 0
-416 -451 0
-416 -456 0
-416 -461 0
-416 -466 0
-416 -471 0
-416 -476 0
-416 -481 0
-416 -486 0
-416 -491 0
-416 -496 0
-421 -426 0
-421 -431 0
-421 -436 0
-421 -441 0
-421 -446 0
-421 -451 0
-421 -456 0
-421 -461 0
-421 -466 0
-421 -471 0
-421 -476 0
-421 -481 0
-421 -486 0
-421 -491 0
-421 -496 0
-426 -431 0
-426 -436 0
-426 -441 0
-426 -446 0
-426 -451 0
-426 -456 0
-426 -461 0
-426 -466 0
-426 -471 0
-426 -476 0
-426 -481 0
-426 -486 0
-426 -491 0
-426 -496 0
-431 -436 0
-431 -441 0
-431 -446 0
-431 -451 0
-431 -456 0
-431 -461 0
-431 -466 0
-431 -471 0
-431 -476 0
-431 -481 0
-431 -486 0
-431 -491 0
-431 -496 0
-436 -441 0
-436 -446 0
-436 -451 0
-436 -456 0
-436 -461 0
-436 -466 0
-436 -471 0
-436 -476 0
-436 -481 0
-436 -486 0
-436 -491 0
-436 -496 0
-441 -446 0
-441 -451 0
-441 -456 0
-441 -461 0
-441 -466 0
-441 -471 0
-441 -476 0
-441 -481 0
-441 -486 0
-441 -491 0
-441 -496 0
-446 -451 0
-446 -456 0
-446 -461 0
-446 -466 0
-446 -471 0
-446 -476 0
-446 -481 0
-446 -486 0
-446 -491 0
-446 -496 0
-451 -456 0
-451 -461 0
-451 -466 0
-451 -471 0
-451 -476 0
-451 -481 0
-451 -486 0
-451 -491 0
-451 -496 0
-456 -461 0
-456 -466 0
-456 -471 0
-456 -476 0
-456 -481 0
-456 -486 0
-456 -491 0
-456 -496 0
-461 -466 0
-461 -471 0
-461 -476 0
-461 -481 0
-461 -486 0
-461 -491 0
-461 -496 0
-466 -471 0
-466 -476 0
-466 -481 0
-466 -486 0
-466 -491 0
-466 -496 0
-471 -476 0
-471 -481 0
-471 -486 0
-471 -491 0
-471 -496 0
-476 -481 0
-476 -486 0
-476 -491 0
-476 -496 0
-481 -486 0
-481 -491 0
-481 -496 0
-486 -491 0
-486 -496 0
-491 -496 0
377 382 387 392 397 402 407 412 417 422 427 432 437 442 447 452 457 462 467 472 477 482 487 492 497 0
-377 -382 0
-377 -387 0
-377 -392 0
-377 -397 0
-377 -402 0
-377 -407 0
-377 -412 0
-377 -417 0
-377 -422 0
-377 -427 0
-377 -432 0
-377 -437 0
-377 -442 0
-377 -447 0
-377 -452 0
-377 -457 0
-377 -462 0
-377 -467 0
-377 -472 0
-377 -477 0
-377 -482 0
-377 -487 0
-377 -492 0
-377 -497 0
-382 -387 0
-382 -392 0
-382 -397 0
-382 -402 0
-382 -407 0
-382 -412 0
-382 -417 0
-382 -422 0
-382 -427 0
-382 -432 0
-382 -437 0
-382 -442 0
-382 -447 0
-382 -452 0
-382 -457 0
-382 -462 0
-382 -467 0
-382 -472 0
-382 -477 0
-382 -482 0
-382 -487 0
-382 -492 0
-382 -497 0
-387 -392 0
-387 -397 0
-387 -402 0
-387 -407 0
-387 -412 0
-387 -417 0
-387 -422 0
-387 -427 0
-387 -432 0
-387 -437 0
-387 -442 0
-387 -447 0
-387 -452 0
-387 -457 0
-387 -462 0
-387 -467 0
-387 -472 0
-387 -477 0
-387 -482 0
-387 -487 0
-387 -492 0
-387 -497 0
-392 -397 0
-392 -402 0
-392 -407 0
-392 -412 0
-392 -417 0
-392 -422 0
-392 -427 0
-392 -432 0
-392 -437 0
-392 -442 0
-392 -447 0
-392 -452 0
-392 -457 0
-392 -462 0
-392 -467 0
-392 -472 0
-392 -477 0
-392 -482 0
-392 -487 0
-392 -492 0
-392 -497 0
-397 -402 0
-397 -407 0
-397 -412 0
-397 -417 0
-397 -422 0
-397 -427 0
-397 -432 0
-397 -437 0
-397 -442 0
-397 -447 0
-397 -452 0
-397 -457 0
-397 -462 0
-397 -467 0
-397 -472 0
-397 -477 0
-397 -482 0
-397 -487 0
-397 -492 0
-397 -497 0
-402 -407 0
-402 -412 0
-402 -417 0
-402 -422 0
-402 -427 0
-402 -432 0
-402 -437 0
-402 -442 0
-402 -447 0
-402 -452 0
-402 -457 0
-402 -462 0
-402 -467 0
-402 -472 0
-402 -477 0
-402 -482 0
-402 -487 0
-402 -492 0
-402 -497 0
-407 -412 0
-407 -417 0
-407 -422 0
-407 -427 0
-407 -432 0
-407 -437 0
-407 -442 0
-407 -447 0
-407 -452 0
-407 -457 0
-407 -462 0
-407 -467 0
-407 -472 0
-407 -477 0
-407 -482 0
-407 -487 0
-407 -492 0
-407 -497 0
-412 -417 0
-412 -422 0
-412 -427 0
-412 -432 0
-412 -437 0
-412 -442 0
-412 -447 0
-412 -452 0
-412 -457 0
-412 -462 0
-412 -467 0
-412 -472 0
-412 -477 0
-412 -482 0
-412 -487 0
-412 -492 0
-412 -497 0
-417 -422 0
-417 -427 0
-417 -432 0
-417 -437 0
-417 -442 0
-417 -447 0
-417 -452 0
-417 -457 0
-417 -462 0
-417 -467 0
-417 -472 0
-417 -477 0
-417 -482 0
-417 -487 0
-417 -492 0
-417 -497 0
-422 -427 0
-422 -432 0
-422 -437 0
-422 -442 0
-422 -447 0
-422 -452 0
-422 -457 0
-422 -462 0
-422 -467 0
-422 -472 0
-422 -477 0
-422 -482 0
-422 -487 0
-422 -492 0
-422 -497 0
-427 -432 0
-427 -437 0
-427 -442 0
-427 -447 0
-427 -452 0
-427 -457 0
-427 -462 0
-427 -467 0
-427 -472 0
-427 -477 0
-427 -482 0
-427 -487 0
-427 -492 0
-427 -497 0
-432 -437 0
-432 -442 0
-432 -447 0
-432 -452 0
-432 -457 0
-432 -462 0
-432 -467 0
-432 -472 0
-432 -477 0
-432 -482 0
-432 -487 0
-432 -492 0
-432 -497 0
-437 -442 0
-437 -447 0
-437 -452 0
-437 -457 0
-437 -462 0
-437 -467 0
-437 -472 0
-437 -477 0
-437 -482 0
-437 -487 0
-437 -492 0
-437 -497 0
-442 -447 0
-442 -452 0
-442 -457 0
-442 -462 0
-442 -467 0
-442 -472 0
-442 -477 0
-442 -482 0
-442 -487 0
-442 -492 0
-442 -497 0
-447 -452 0
-447 -457 0
-447 -462 0
-447 -467 0
-447 -472 0
-447 -477 0
-447 -482 0
-447 -487 0
-447 -492 0
-447 -497 0
-452 -457 0
-452 -462 0
-452 -467 0
-452 -472 0
-452 -477 0
-452 -482 0
-452 -487 0
-452 -492 0
-452 -497 0
-457 -462 0
-457 -467 0
-457 -472 0
-457 -477 0
-457 -482 0
-457 -487 0
-457 -492 0
-457 -497 0
-462 -467 0
-462 -472 0
-462 -477 0
-462 -482 0
-462 -487 0
-462 -492 0
-462 -497 0
-467 -472 0
-467 -477 0
-467 -482 0
-467 -487 0
-467 -492 0
-467 -497 0
-472 -477 0
-472 -482 0
-472 -487 0
-472 -492 0
-472 -497 0
-477 -482 0
-477 -487 0
-477 -492 0
-477 -497 0
-482 -487 0
-482 -492 0
-482 -497 0
-487 -492 0
-487 -497 0
-492 -497 0
378 383 388 393 398 403 408 413 418 423 428 433 438 443 448 453 458 463 468 473 478 483 488 493 498 0
-378 -383 0
-378 -388 0
-378 -393 0
-378 -398 0
-378 -403 0
-378 -408 0
-378 -413 0
-378 -418 0
-378 -423 0
-378 -428 0
-378 -433 0
-378 -438 0
-378 -443 0
-378 -448 0
-378 -453 0
-378 -458 0
-378 -463 0
-378 -468 0
-378 -473 0
-378 -478 0
-378 -483 0
-378 -488 0
-378 -493 0
-378 -498 0
-383 -388 0
-383 -393 0
-383 -398 0
-383 -403 0
-383 -408 0
-383 -413 0
-383 -418 0
-383 -423 0
-383 -428 0
-383 -433 0
-383 -438 0
-383 -443 0
-383 -448 0
-383 -453 0
-383 -458 0
-383 -463 0
-383 -468 0
-383 -473 0
-383 -478 0
-383 -483 0
-383 -488 0
-383 -493 0
-383 -498 0
-388 -393 0
-388 -398 0
-388 -403 0
-388 -408 0
-388 -413 0
-388 -418 0
-388 -423 0
-388 -428 0
-388 -433 0
-388 -438 0
-388 -443 0
-388 -448 0
-388 -453 0
-388 -458 0
-388 -463 0
-388 -468 0
-388 -473 0
-388 -478 0
-388 -483 0
-388 -488 0
-388 -493 0
-388 -498 0
-393 -398 0
-393 -403 0
-393 -408 0
-393 -413 0
-393 -418 0
-393 -423 0
-393 -428 0
-393 -433 0
-393 -438 0
-393 -443 0
-393 -448 0
-393 -453 0
-393 -458 0
-393 -463 0
-393 -468 0
-393 -473 0
-393 -478 0
-393 -483 0
-393 -488 0
-393 -493 0
-393 -498 0
-398 -403 0
-398 -408 0
-398 -413 0
-398 -418 0
-398 -423 0
-398 -428 0
-398 -433 0
-398 -438 0
-398 -443 0
-398 -448 0
-398 -453 0
-398 -458 0
-398 -463 0
-398 -468 0
-398 -473 0
-398 -478 0
-398 -483 0
-398 -488 0
-398 -493 0
-398 -498 0
-403 -408 0
-403 -413 0
-403 -418 0
-403 -423 0
-403 -428 0
-403 -433 0
-403 -438 0
-403 -443 0
-403 -448 0
-403 -453 0
-403 -458 0
-403 -463 0
-403 -468 0
-403 -473 0
-403 -478 0
-403 -483 0
-403 -488 0
-403 -493 0
-403 -498 0
-408 -413 0
-408 -418 0
-408 -423 0
-408 -428 0
-408 -433 0
-408 -438 0
-408 -443 0
-408 -448 0
-408 -453 0
-408 -458 0
-408 -463 0
-408 -468 0
-408 -473 0
-408 -478 0
-408 -483 0
-408 -488 0
-408 -493 0
-408 -498 0
-413 -418 0
-413 -423 0
-413 -428 0
-413 -433 0
-413 -438 0
-413 -443 0
-413 -448 0
-413 -453 0
-413 -458 0
-413 -463 0
-413 -468 0
-413 -473 0
-413 -478 0
-413 -483 0
-413 -488 0
-413 -493 0
-413 -498 0
-418 -423 0
-418 -428 0
-418 -433 0
-418 -438 0
-418 -443 0
-418 -448 0
-418 -453 0
-418 -458 0
-418 -463 0
-418 -468 0
-418 -473 0
-418 -478 0
-418 -483 0
-418 -488 0
-418 -493 0
-418 -498 0
-423 -428 0
-423 -433 0
-423 -438 0
-423 -443 0
-423 -448 0
-423 -453 0
-423 -458 0
-423 -463 0
-423 -468 0
-423 -473 0
-423 -478 0
-423 -483 0
-423 -488 0
-423 -493 0
-423 -498 0
-428 -433 0
-428 -438 0
-428 -443 0
-428 -448 0
-428 -453 0
-428 -458 0
-428 -463 0
-428 -468 0
-428 -473 0
-428 -478 0
-428 -483 0
-428 -488 0
-428 -493 0
-428 -498 0
-433 -438 0
-433 -443 0
-433 -448 0
-433 -453 0
-433 -458 0
-433 -463 0
-433 -468 0
-433 -473 0
-433 -478 0
-433 -483 0
-433 -488 0
-433 -493 0
-433 -498 0
-438 -443 0
-438 -448 0
-438 -453 0
-438 -458 0
-438 -463 0
-438 -468 0
-438 -473 0
-438 -478 0
-438 -483 0
-438 -488 0
-438 -493 0
-438 -498 0
-443 -448 0
-443 -453 0
-443 -458 0
-443 -463 0
-443 -468 0
-443 -473 0
-443 -478 0
-443 -483 0
-443 -488 0
-443 -493 0
-443 -498 0
-448 -453 0
-448 -458 0
-448 -463 0
-448 -468 0
-448 -473 0
-448 -478 0
-448 -483 0
-448 -488 0
-448 -493 0
-448 -498 0
-453 -458 0
-453 -463 0
-453 -468 0
-453 -473 0
-453 -478 0
-453 -483 0
-453 -488 0
-453 -493 0
-453 -498 0
-458 -463 0
-458 -468 0
-458 -473 0
-458 -478 0
-458 -483 0
-458 -488 0
-458 -493 0
-458 -498 0
-463 -468 0
-463 -473 0
-463 -478 0
-463 -483 0
-463 -488 0
-463 -493 0
-463 -498 0
-468 -473 0
-468 -478 0
-468 -483 0
-468 -488 0
-468 -493 0
-468 -498 0
-473 -478 0
-473 -483 0
-473 -488 0
-473 -493 0
-473 -498 0
-478 -483 0
-478 -488 0
-478 -493 0
-478 -498 0
-483 -488 0
-483 -493 0
-483 -498 0
-488 -493 0
-488 -498 0
-493 -498 0
379 384 389 394 399 404 409 414 419 424 429 434 439 444 449 454 459 464 469 474 479 484 489 494 499 0
-379 -384 0
-379 -389 0
-379 -394 0
-379 -399 0
-379 -404 0
-379 -409 0
-379 -414 0
-379 -419 0
-379 -424 0
-379 -429 0
-379 -434 0
-379 -439 0
-379 -444 0
-379 -449 0
-379 -454 0
-379 -459 0
-379 -464 0
-379 -469 0
-379 -474 0
-379 -479 0
-379 -484 0
-379 -489 0
-379 -494 0
-379 -499 0
-384 -389 0
-384 -394 0
-384 -399 0
-384 -404 0
-384 -409 0
-384 -414 0
-384 -419 0
-384 -424 0
-384 -429 0
-384 -434 0
-384 -439 0
-384 -444 0
-384 -449 0
-384 -454 0
-384 -459 0
-384 -464 0
-384 -469 0
-384 -474 0
-384 -479 0
-384 -484 0
-384 -489 0
-384 -494 0
-384 -499 0
-389 -394 0
-389 -399 0
-389 -404 0
-389 -409 0
-389 -414 0
-389 -419 0
-389 -424 0
-389 -429 0
-389 -434 0
-389 -439 0
-389 -444 0
-389 -449 0
-389 -454 0
-389 -459 0
-389 -464 0
-389 -469 0
-389 -474 0
-389 -479 0
-389 -484 0
-389 -489 0
-389 -494 0
-389 -499 0
-394 -399 0
-394 -404 0
-394 -409 0
-394 -414 0
-394 -419 0
-394 -424 0
-394 -429 0
-394 -434 0
-394 -439 0
-394 -444 0
-394 -449 0
-394 -454 0
-394 -459 0
-394 -464 0
-394 -469 0
-394 -474 0
-394 -479 0
-394 -484 0
-394 -489 0
-394 -494 0
-394 -499 0
-399 -404 0
-399 -409 0
-399 -414 0
-399 -419 0
-399 -424 0
-399 -429 0
-399 -434 0
-399 -439 0
-399 -444 0
-399 -449 0
-399 -454 0
-399 -459 0
-399 -464 0
-399 -469 0
-399 -474 0
-399 -479 0
-399 -484 0
-399 -489 0
-399 -494 0
-399 -499 0
-404 -409 0
-404 -414 0
-404 -419 0
-404 -424 0
-404 -429 0
-404 -434 0
-404 -439 0
-404 -444 0
-404 -449 0
-404 -454 0
-404 -459 0
-404 -464 0
-404 -469 0
-404 -474 0
-404 -479 0
-404 -484 0
-404 -489 0
-404 -494 0
-404 -499 0
-409 -414 0
-409 -419 0
-409 -424 0
-409 -429 0
-409 -434 0
-409 -439 0
-409 -444 0
-409 -449 0
-409 -454 0
-409 -459 0
-409 -464 0
-409 -469 0
-409 -474 0
-409 -479 0
-409 -484 0
-409 -489 0
-409 -494 0
-409 -499 0
-414 -419 0
-414 -424 0
-414 -429 0
-414 -434 0
-414 -439 0
-414 -444 0
-414 -449 0
-414 -454 0
-414 -459 0
-414 -464 0
-414 -469 0
-414 -474 0
-414 -479 0
-414 -484 0
-414 -489 0
-414 -494 0
-414 -499 0
-419 -424 0
-419 -429 0
-419 -434 0
-419 -439 0
-419 -444 0
-419 -449 0
-419 -454 0
-419 -459 0
-419 -464 0
-419 -469 0
-419 -474 0
-419 -479 0
-419 -484 0
-419 -489 0
-419 -494 0
-419 -499 0
-424 -429 0
-424 -434 0
-424 -439 0
-424 -444 0
-424 -449 0
-424 -454 0
-424 -459 0
-424 -464 0
-424 -469 0
-424 -474 0
-424 -479 0
-424 -484 0
-424 -489 0
-424 -494 0
-424 -499 0
-429 -434 0
-429 -439 0
-429 -444 0
-429 -449 0
-429 -454 0
-429 -459 0
-429 -464 0
-429 -469 0
-429 -474 0
-429 -479 0
-429 -484 0
-429 -489 0
-429 -494 0
-429 -499 0
-434 -439 0
-434 -444 0
-434 -449 0
-434 -454 0
-434 -459 0
-434 -464 0
-434 -469 0
-434 -474 0
-434 -479 0
-434 -484 0
-434 -489 0
-434 -494 0
-434 -499 0
-439 -444 0
-439 -449 0
-439 -454 0
-439 -459 0
-439 -464 0
-439 -469 0
-439 -474 0
-439 -479 0
-439 -484 0
-439 -489 0
-439 -494 0
-439 -499 0
-444 -449 0
-444 -454 0
-444 -459 0
-444 -464 0
-444 -469 0
-444 -474 0
-444 -479 0
-444 -484 0
-444 -489 0
-444 -494 0
-444 -499 0
-449 -454 0
-449 -459 0
-449 -464 0
-449 -469 0
-449 -474 0
-449 -479 0
-449 -484 0
-449 -489 0
-449 -494 0
-449 -499 0
-454 -459 0
-454 -464 0
-454 -469 0
-454 -474 0
-454 -479 0
-454 -484 0
-454 -489 0
-454 -494 0
-454 -499 0
-459 -464 0
-459 -469 0
-459 -474 0
-459 -479 0
-459 -484 0
-459 -489 0
-459 -494 0
-459 -499 0
-464 -469 0
-464 -474 0
-464 -479 0
-464 -484 0
-464 -489 0
-464 -494 0
-464 -499 0
-469 -474 0
-469 -479 0
-469 -484 0
-469 -489 0
-469 -494 0
-469 -499 0
-474 -479 0
-474 -484 0
-474 -489 0
-474 -494 0
-474 -499 0
-479 -484 0
-479 -489 0
-479 -494 0
-479 -499 0
-484 -489 0
-484 -494 0
-484 -499 0
-489 -494 0
-489 -499 0
-494 -499 0
380 385 390 395 400 405 410 415 420 425 430 435 440 445 450 455 460 465 470 475 480 485 490 495 500 0
-380 -385 0
-380 -390 0
-380 -395 0
-380 -400 0
-380 -405 0
-380 -410 0
-380 -415 0
-380 -420 0
-380 -425 0
-380 -430 0
-380 -435 0
-380 -440 0
-380 -445 0
-380 -450 0
-380 -455 0
-380 -460 0
-380 -465 0
-380 -470 0
-380 -475 0
-380 -480 0
-380 -485 0
-380 -490 0
-380 -495 0
-380 -500 0
-385 -390 0
-385 -395 0
-385 -400 0
-385 -405 0
-385 -410 0
-385 -415 0
-385 -420 0
-385 -425 0
-385 -430 0
-385 -435 0
-385 -440 0
-385 -445 0
-385 -450 0
-385 -455 0
-385 -460 0
-385 -465 0
-385 -470 0
-385 -475 0
-385 -480 0
-385 -485 0
-385 -490 0
-385 -495 0
-385 -500 0
-390 -395 0
-390 -400 0
-390 -405 0
-390 -410 0
-390 -415 0
-390 -420 0
-390 -425 0
-390 -430 0
-390 -435 0
-390 -440 0
-390 -445 0
-390 -450 0
-390 -455 0
-390 -460 0
-390 -465 0
-390 -470 0
-390 -475 0
-390 -480 0
-390 -485 0
-390 -490 0
-390 -495 0
-390 -500 0
-395 -400 0
-395 -405 0
-395 -410 0
-395 -415 0
-395 -420 0
-395 -425 0
-395 -430 0
-395 -435 0
-395 -440 0
-395 -445 0
-395 -450 0
-395 -455 0
-395 -460 0
-395 -465 0
-395 -470 0
-395 -475 0
-395 -480 0
-395 -485 0
-395 -490 0
-395 -495 0
-395 -500 0
-400 -405 0
-400 -410 0
-400 -415 0
-400 -420 0
-400 -425 0
-400 -430 0
-400 -435 0
-400 -440 0
-400 -445 0
-400 -450 0
-400 -455 0
-400 -460 0
-400 -465 0
-400 -470 0
-400 -475 0
-400 -480 0
-400 -485 0
-400 -490 0
-400 -495 0
-400 -500 0
-405 -410 0
-405 -415 0
-405 -420 0
-405 -425 0
-405 -430 0
-405 -435 0
-405 -440 0
-405 -445 0
-405 -450 0
-405 -455 0
-405 -460 0
-405 -465 0
-405 -470 0
-405 -475 0
-405 -480 0
-405 -485 0
-405 -490 0
-405 -495 0
-405 -500 0
-410 -415 0
-410 -420 0
-410 -425 0
-410 -430 0
-410 -435 0
-410 -440 0
-410 -445 0
-410 -450 0
-410 -455 0
-410 -460 0
-410 -465 0
-410 -470 0
-410 -475 0
-410 -480 0
-410 -485 0
-410 -490 0
-410 -495 0
-410 -500 0
-415 -420 0
-415 -425 0
-415 -430 0
-415 -435 0
-415 -440 0
-415 -445 0
-415 -450 0
-415 -455 0
-415 -460 0
-415 -465 0
-415 -470 0
-415 -475 0
-415 -480 0
-415 -485 0
-415 -490 0
-415 -495 0
-415 -500 0
-420 -425 0
-420 -430 0
-420 -435 0
-420 -440 0
-420 -445 0
-420 -450 0
-420 -455 0
-420 -460 0
-420 -465 0
-420 -470 0
-420 -475 0
-420 -480 0
-420 -485 0
-420 -490 0
-420 -495 0
-420 -500 0
-425 -430 0
-425 -435 0
-425 -440 0
-425 -445 0
-425 -450 0
-425 -455 0
-425 -460 0
-425 -465 0
-425 -470 0
-425 -475 0
-425 -480 0
-425 -485 0
-425 -490 0
-425 -495 0
-425 -500 0
-430 -435 0
-430 -440 0
-430 -445 0
-430 -450 0
-430 -455 0
-430 -460 0
-430 -465 0
-430 -470 0
-430 -475 0
-430 -480 0
-430 -485 0
-430 -490 0
-430 -495 0
-430 -500 0
-435 -440 0
-435 -445 0
-435 -450 0
-435 -455 0
-435 -460 0
-435 -465 0
-435 -470 0
-435 -475 0
-435 -480 0
-435 -485 0
-435 -490 0
-435 -495 0
-435 -500 0
-440 -445 0
-440 -450 0
-440 -455 0
-440 -460 0
-440 -465 0
-440 -470 0
-440 -475 0
-440 -480 0
-440 -485 0
-440 -490 0
-440 -495 0
-440 -500 0
-445 -450 0
-445 -455 0
-445 -460 0
-445 -465 0
-445 -470 0
-445 -475 0
-445 -480 0
-445 -485 0
-445 -490 0
-445 -495 0
-445 -500 0
-450 -455 0
-450 -460 0
-450 -465 0
-450 -470 0
-450 -475 0
-450 -480 0
-450 -485 0
-450 -490 0
-450 -495 0
-450 -500 0
-455 -460 0
-455 -465 0
-455 -470 0
-455 -475 0
-455 -480 0
-455 -485 0
-455 -490 0
-455 -495 0
-455 -500 0
-460 -465 0
-460 -470 0
-460 -475 0
-460 -480 0
-460 -485 0
-460 -490 0
-460 -495 0
-460 -500 0
-465 -470 0
-465 -475 0
-465 -480 0
-465 -485 0
-465 -490 0
-465 -495 0
-465 -500 0
-470 -475 0
-470 -480 0
-470 -485 0
-470 -490 0
-470 -495 0
-470 -500 0
-475 -480 0
-475 -485 0
-475 -490 0
-475 -495 0
-475 -500 0
-480 -485 0
-480 -490 0
-480 -495 0
-480 -500 0
-485 -490 0
-485 -495 0
-485 -500 0
-490 -495 0
-490 -500 0
-495 -500 0
501 506 511 516 521 526 531 536 541 546 551 556 561 566 571 576 581 586 591 596 601 606 611 616 621 0
-501 -506 0
-501 -511 0
-501 -516 0
-501 -521 0
-501 -526 0
-501 -531 0
-501 -536 0
-501 -541 0
-501 -546 0
-501 -551 0
-501 -556 0
-501 -561 0
-501 -566 0
-501 -571 0
-501 -576 0
-501 -581 0
-501 -586 0
-501 -591 0
-501 -596 0
-501 -601 0
-501 -606 0
-501 -611 0
-501 -616 0
-501 -621 0
-506 -511 0
-506 -516 0
-506 -521 0
-506 -526 0
-506 -531 0
-506 -536 0
-506 -541 0
-506 -546 0
-506 -551 0
-506 -556 0
-506 -561 0
-506 -566 0
-506 -571 0
-506 -576 0
-506 -581 0
-506 -586 0
-506 -591 0
-506 -596 0
-506 -601 0
-506 -606 0
-506 -611 0
-506 -616 0
-506 -621 0
-511 -516 0
-511 -521 0
-511 -526 0
-511 -531 0
-511 -536 0
-511 -541 0
-511 -546 0
-511 -551 0
-511 -556 0
-511 -561 0
-511 -566 0
-511 -571 0
-511 -576 0
-511 -581 0
-511 -586 0
-511 -591 0
-511 -596 0
-511 -601 0
-511 -606 0
-511 -611 0
-511 -616 0
-511 -621 0
-516 -521 0
-516 -526 0
-516 -531 0
-516 -536 0
-516 -541 0
-516 -546 0
-516 -551 0
-516 -556 0
-516 -561 0
-516 -566 0
-516 -571 0
-516 -576 0
-516 -581 0
-516 -586 0
-516 -591 0
-516 -596 0
-516 -601 0
-516 -606 0
-516 -611 0
-516 -616 0
-516 -621 0
-521 -526 0
-521 -531 0
-521 -536 0
-521 -541 0
-521 -546 0
-521 -551 0
-521 -556 0
-521 -561 0
-521 -566 0
-521 -571 0
-521 -576 0
-521 -581 0
-521 -586 0
-521 -591 0
-521 -596 0
-521 -601 0
-521 -606 0
-521 -611 0
-521 -616 0
-521 -621 0
-526 -531 0
-526 -536 0
-526 -541 0
-526 -546 0
-526 -551 0
-526 -556 0
-526 -561 0
-526 -566 0
-526 -571 0
-526 -576 0
-526 -581 0
-526 -586 0
-526 -591 0
-526 -596 0
-526 -601 0
-526 -606 0
-526 -611 0
-526 -616 0
-526 -621 0
-531 -536 0
-531 -541 0
-531 -546 0
-531 -551 0
-531 -556 0
-531 -561 0
-531 -566 0
-531 -571 0
-531 -576 0
-531 -581 0
-531 -586 0
-531 -591 0
-531 -596 0
-531 -601 0
-531 -606 0
-531 -611 0
-531 -616 0
-531 -621 0
-536 -541 0
-536 -546 0
-536 -551 0
-536 -556 0
-536 -561 0
-536 -566 0
-536 -571 0
-536 -576 0
-536 -581 0
-536 -586 0
-536 -591 0
-536 -596 0
-536 -601 0
-536 -606 0
-536 -611 0
-536 -616 0
-536 -621 0
-541 -546 0
-541 -551 0
-541 -556 0
-541 -561 0
-541 -566 0
-541 -571 0
-541 -576 0
-541 -581 0
-541 -586 0
-541 -591 0
-541 -596 0
-541 -601 0
-541 -606 0
-541 -611 0
-541 -616 0
-541 -621 0
-546 -551 0
-546 -556 0
-546 -561 0
-546 -566 0
-546 -571 0
-546 -576 0
-546 -581 0
-546 -586 0
-546 -591 0
-546 -596 0
-546 -601 0
-546 -606 0
-546 -611 0
-546 -616 0
-546 -621 0
-551 -556 0
-551 -561 0
-551 -566 0
-551 -571 0
-551 -576 0
-551 -581 0
-551 -586 0
-551 -591 0
-551 -596 0
-551 -601 0
-551 -606 0
-551 -611 0
-551 -616 0
-551 -621 0
-556 -561 0
-556 -566 0
-556 -571 0
-556 -576 0
-556 -581 0
-556 -586 0
-556 -591 0
-556 -596 0
-556 -601 0
-556 -606 0
-556 -611 0
-556 -616 0
-556 -621 0
-561 -566 0
-561 -571 0
-561 -576 0
-561 -581 0
-561 -586 0
-561 -591 0
-561 -596 0
-561 -601 0
-561 -606 0
-561 -611 0
-561 -616 0
-561 -621 0
-566 -571 0
-566 -576 0
-566 -581 0
-566 -586 0
-566 -591 0
-566 -596 0
-566 -601 0
-566 -606 0
-566 -611 0
-566 -616 0
-566 -621 0
-571 -576 0
-571 -581 0
-571 -586 0
-571 -591 0
-571 -596 0
-571 -601 0
-571 -606 0
-571 -611 0
-571 -616 0
-571 -621 0
-576 -581 0
-576 -586 0
-576 -591 0
-576 -596 0
-576 -601 0
-576 -606 0
-576 -611 0
-576 -616 0
-576 -621 0
-581 -586 0
-581 -591 0
-581 -596 0
-581 -601 0
-581 -606 0
-581 -611 0
-581 -616 0
-581 -621 0
-586 -591 0
-586 -596 0
-586 -601 0
-586 -606 0
-586 -611 0
-586 -616 0
-586 -621 0
-591 -596 0
-591 -601 0
-591 -606 0
-591 -611 0
-591 -616 0
-591 -621 0
-596 -601 0
-596 -606 0
-596 -611 0
-596 -616 0
-596 -621 0
-601 -606 0
-601 -611 0
-601 -616 0
-601 -621 0
-606 -611 0
-606 -616 0
-606 -621 0
-611 -616 0
-611 -621 0
-616 -621 0
502 507 512 517 522 527 532 537 542 547 552 557 562 567 572 577 582 587 592 597 602 607 612 617 622 0
-502 -507 0
-502 -512 0
-502 -517 0
-502 -522 0
-502 -527 0
-502 -532 0
-502 -537 0
-502 -542 0
-502 -547 0
-502 -552 0
-502 -557 0
-502 -562 0
-502 -567 0
-502 -572 0
-502 -577 0
-502 -582 0
-502 -587 0
-502 -592 0
-502 -597 0
-502 -602 0
-502 -607 0
-502 -612 0
-502 -617 0
-502 -622 0
-507 -512 0
-507 -517 0
-507 -522 0
-507 -527 0
-507 -532 0
-507 -537 0
-507 -542 0
-507 -547 0
-507 -552 0
-507 -557 0
-507 -562 0
-507 -567 0
-507 -572 0
-507 -577 0
-507 -582 0
-507 -587 0
-507 -592 0
-507 -597 0
-507 -602 0
-507 -607 0
-507 -612 0
-507 -617 0
-507 -622 0
-512 -517 0
-512 -522 0
-512 -527 0
-512 -532 0
-512 -537 0
-512 -542 0
-512 -547 0
-512 -552 0
-512 -557 0
-512 -562 0
-512 -567 0
-512 -572 0
-512 -577 0
-512 -582 0
-512 -587 0
-512 -592 0
-512 -597 0
-512 -602 0
-512 -607 0
-512 -612 0
-512 -617 0
-512 -622 0
-517 -522 0
-517 -527 0
-517 -532 0
-517 -537 0
-517 -542 0
-517 -547 0
-517 -552 0
-517 -557 0
-517 -562 0
-517 -567 0
-517 -572 0
-517 -577 0
-517 -582 0
-517 -587 0
-517 -592 0
-517 -597 0
-517 -602 0
-517 -607 0
-517 -612 0
-517 -617 0
-517 -622 0
-522 -527 0
-522 -532 0
-522 -537 0
-522 -542 0
-522 -547 0
-522 -552 0
-522 -557 0
-522 -562 0
-522 -567 0
-522 -572 0
-522 -577 0
-522 -582 0
-522 -587 0
-522 -592 0
-522 -597 0
-522 -602 0
-522 -607 0
-522 -612 0
-522 -617 0
-522 -622 0
-527 -532 0
-527 -537 0
-527 -542 0
-527 -547 0
-527 -552 0
-527 -557 0
-527 -562 0
-527 -567 0
-527 -572 0
-527 -577 0
-527 -582 0
-527 -587 0
-527 -592 0
-527 -597 0
-527 -602 0
-527 -607 0
-527 -612 0
-527 -617 0
-527 -622 0
-532 -537 0
-532 -542 0
-532 -547 0
-532 -552 0
-532 -557 0
-532 -562 0
-532 -567 0
-532 -572 0
-532 -577 0
-532 -582 0
-532 -587 0
-532 -592 0
-532 -597 0
-532 -602 0
-532 -607 0
-532 -612 0
-532 -617 0
-532 -622 0
-537 -542 0
-537 -547 0
-537 -552 0
-537 -557 0
-537 -562 0
-537 -567 0
-537 -572 0
-537 -577 0
-537 -582 0
-537 -587 0
-537 -592 0
-537 -597 0
-537 -602 0
-537 -607 0
-537 -612 0
-537 -617 0
-537 -622 0
-542 -547 0
-542 -552 0
-542 -557 0
-542 -562 0
-542 -567 0
-542 -572 0
-542 -577 0
-542 -582 0
-542 -587 0
-542 -592 0
-542 -597 0
-542 -602 0
-542 -607 0
-542 -612 0
-542 -617 0
-542 -622 0
-547 -552 0
-547 -557 0
-547 -562 0
-547 -567 0
-547 -572 0
-547 -577 0
-547 -582 0
-547 -587 0
-547 -592 0
-547 -597 0
-547 -602 0
-547 -607 0
-547 -612 0
-547 -617 0
-547 -622 0
-552 -557 0
-552 -562 0
-552 -567 0
-552 -572 0
-552 -577 0
-552 -582 0
-552 -587 0
-552 -592 0
-552 -597 0
-552 -602 0
-552 -607 0
-552 -612 0
-552 -617 0
-552 -622 0
-557 -562 0
-557 -567 0
-557 -572 0
-557 -577 0
-557 -582 0
-557 -587 0
-557 -592 0
-557 -597 0
-557 -602 0
-557 -607 0
-557 -612 0
-557 -617 0
-557 -622 0
-562 -567 0
-562 -572 0
-562 -577 0
-562 -582 0
-562 -587 0
-562 -592 0
-562 -597 0
-562 -602 0
-562 -607 0
-562 -612 0
-562 -617 0
-562 -622 0
-567 -572 0
-567 -577 0
-567 -582 0
-567 -587 0
-567 -592 0
-567 -597 0
-567 -602 0
-567 -607 0
-567 -612 0
-567 -617 0
-567 -622 0
-572 -577 0
-572 -582 0
-572 -587 0
-572 -592 0
-572 -597 0
-572 -602 0
-572 -607 0
-572 -612 0
-572 -617 0
-572 -622 0
-577 -582 0
-577 -587 0
-577 -592 0
-577 -597 0
-577 -602 0
-577 -607 0
-577 -612 0
-577 -617 0
-577 -622 0
-582 -587 0
-582 -592 0
-582 -597 0
-582 -602 0
-582 -607 0
-582 -612 0
-582 -617 0
-582 -622 0
-587 -592 0
-587 -597 0
-587 -602 0
-587 -607 0
-587 -612 0
-587 -617 0
-587 -622 0
-592 -597 0
-592 -602 0
-592 -607 0
-592 -612 0
-592 -617 0
-592 -622 0
-597 -602 0
-597 -607 0
-597 -612 0
-597 -617 0
-597 -622 0
-602 -607 0
-602 -612 0
-602 -617 0
-602 -622 0
-607 -612 0
-607 -617 0
-607 -622 0
-612 -617 0
-612 -622 0
-617 -622 0
503 508 513 518 523 528 533 538 543 548 553 558 563 568 573 578 583 588 593 598 603 608 613 618 623 0
-503 -508 0
-503 -513 0
-503 -518 0
-503 -523 0
-503 -528 0
-503 -533 0
-503 -538 0
-503 -543 0
-503 -548 0
-503 -553 0
-503 -558 0
-503 -563 0
-503 -568 0
-503 -573 0
-503 -578 0
-503 -583 0
-503 -588 0
-503 -593 0
-503 -598 0
-503 -603 0
-503 -608 0
-503 -613 0
-503 -618 0
-503 -623 0
-508 -513 0
-508 -518 0
-508 -523 0
-508 -528 0
-508 -533 0
-508 -538 0
-508 -543 0
-508 -548 0
-508 -553 0
-508 -558 0
-508 -563 0
-508 -568 0
-508 -573 0
-508 -578 0
-508 -583 0
-508 -588 0
-508 -593 0
-508 -598 0
-508 -603 0
-508 -608 0
-508 -613 0
-508 -618 0
-508 -623 0
-513 -518 0
-513 -523 0
-513 -528 0
-513 -533 0
-513 -538 0
-513 -543 0
-513 -548 0
-513 -553 0
-513 -558 0
-513 -563 0
-513 -568 0
-513 -573 0
-513 -578 0
-513 -583 0
-513 -588 0
-513 -593 0
-513 -598 0
-513 -603 0
-513 -608 0
-513 -613 0
-513 -618 0
-513 -623 0
-518 -523 0
-518 -528 0
-518 -533 0
-518 -538 0
-518 -543 0
-518 -548 0
-518 -553 0
-518 -558 0
-518 -563 0
-518 -568 0
-518 -573 0
-518 -578 0
-518 -583 0
-518 -588 0
-518 -593 0
-518 -598 0
-518 -603 0
-518 -608 0
-518 -613 0
-518 -618 0
-518 -623 0
-523 -528 0
-523 -533 0
-523 -538 0
-523 -543 0
-523 -548 0
-523 -553 0
-523 -558 0
-523 -563 0
-523 -568 0
-523 -573 0
-523 -578 0
-523 -583 0
-523 -588 0
-523 -593 0
-523 -598 0
-523 -603 0
-523 -608 0
-523 -613 0
-523 -618 0
-523 -623 0
-528 -533 0
-528 -538 0
-528 -543 0
-528 -548 0
-528 -553 0
-528 -558 0
-528 -563 0
-528 -568 0
-528 -573 0
-528 -578 0
-528 -583 0
-528 -588 0
-528 -593 0
-528 -598 0
-528 -603 0
-528 -608 0
-528 -613 0
-528 -618 0
-528 -623 0
-533 -538 0
-533 -543 0
-533 -548 0
-533 -553 0
-533 -558 0
-533 -563 0
-533 -568 0
-533 -573 0
-533 -578 0
-533 -583 0
-533 -588 0
-533 -593 0
-533 -598 0
-533 -603 0
-533 -608 0
-533 -613 0
-533 -618 0
-533 -623 0
-538 -543 0
-538 -548 0
-538 -553 0
-538 -558 0
-538 -563 0
-538 -568 0
-538 -573 0
-538 -578 0
-538 -583 0
-538 -588 0
-538 -593 0
-538 -598 0
-538 -603 0
-538 -608 0
-538 -613 0
-538 -618 0
-538 -623 0
-543 -548 0
-543 -553 0
-543 -558 0
-543 -563 0
-543 -568 0
-543 -573 0
-543 -578 0
-543 -583 0
-543 -588 0
-543 -593 0
-543 -598 0
-543 -603 0
-543 -608 0
-543 -613 0
-543 -618 0
-543 -623 0
-548 -553 0
-548 -558 0
-548 -563 0
-548 -568 0
-548 -573 0
-548 -578 0
-548 -583 0
-548 -588 0
-548 -593 0
-548 -598 0
-548 -603 0
-548 -608 0
-548 -613 0
-548 -618 0
-548 -623 0
-553 -558 0
-553 -563 0
-553 -568 0
-553 -573 0
-553 -578 0
-553 -583 0
-553 -588 0
-553 -593 0
-553 -598 0
-553 -603 0
-553 -608 0
-553 -613 0
-553 -618 0
-553 -623 0
-558 -563 0
-558 -568 0
-558 -573 0
-558 -578 0
-558 -583 0
-558 -588 0
-558 -593 0
-558 -598 0
-558 -603 0
-558 -608 0
-558 -613 0
-558 -618 0
-558 -623 0
-563 -568 0
-563 -573 0
-563 -578 0
-563 -583 0
-563 -588 0
-563 -593 0
-563 -598 0
-563 -603 0
-563 -608 0
-563 -613 0
-563 -618 0
-563 -623 0
-568 -573 0
-568 -578 0
-568 -583 0
-568 -588 0
-568 -593 0
-568 -598 0
-568 -603 0
-568 -608 0
-568 -613 0
-568 -618 0
-568 -623 0
-573 -578 0
-573 -583 0
-573 -588 0
-573 -593 0
-573 -598 0
-573 -603 0
-573 -608 0
-573 -613 0
-573 -618 0
-573 -623 0
-578 -583 0
-578 -588 0
-578 -593 0
-578 -598 0
-578 -603 0
-578 -608 0
-578 -613 0
-578 -618 0
-578 -623 0
-583 -588 0
-583 -593 0
-583 -598 0
-583 -603 0
-583 -608 0
-583 -613 0
-583 -618 0
-583 -623 0
-588 -593 0
-588 -598 0
-588 -603 0
-588 -608 0
-588 -613 0
-588 -618 0
-588 -623 0
-593 -598 0
-593 -603 0
-593 -608 0
-593 -613 0
-593 -618 0
-593 -623 0
-598 -603 0
-598 -608 0
-598 -613 0
-598 -618 0
-598 -623 0
-603 -608 0
-603 -613 0
-603 -618 0
-603 -623 0
-608 -613 0
-608 -618 0
-608 -623 0
-613 -618 0
-613 -623 0
-618 -623 0
504 509 514 519 524 529 534 539 544 549 554 559 564 569 574 579 584 589 594 599 604 609 614 619 624 0
-504 -509 0
-504 -514 0
-504 -519 0
-504 -524 0
-504 -529 0
-504 -534 0
-504 -539 0
-504 -544 0
-504 -549 0
-504 -554 0
-504 -559 0
-504 -564 0
-504 -569 0
-504 -574 0
-504 -579 0
-504 -584 0
-504 -589 0
-504 -594 0
-504 -599 0
-504 -604 0
-504 -609 0
-504 -614 0
-504 -619 0
-504 -624 0
-509 -514 0
-509 -519 0
-509 -524 0
-509 -529 0
-509 -534 0
-509 -539 0
-509 -544 0
-509 -549 0
-509 -554 0
-509 -559 0
-509 -564 0
-509 -569 0
-509 -574 0
-509 -579 0
-509 -584 0
-509 -589 0
-509 -594 0
-509 -599 0
-509 -604 0
-509 -609 0
-509 -614 0
-509 -619 0
-509 -624 0
-514 -519 0
-514 -524 0
-514 -529 0
-514 -534 0
-514 -539 0
-514 -544 0
-514 -549 0
-514 -554 0
-514 -559 0
-514 -564 0
-514 -569 0
-514 -574 0
-514 -579 0
-514 -584 0
-514 -589 0
-514 -594 0
-514 -599 0
-514 -604 0
-514 -609 0
-514 -614 0
-514 -619 0
-514 -624 0
-519 -524 0
-519 -529 0
-519 -534 0
-519 -539 0
-519 -544 0
-519 -549 0
-519 -554 0
-519 -559 0
-519 -564 0
-519 -569 0
-519 -574 0
-519 -579 0
-519 -584 0
-519 -589 0
-519 -594 0
-519 -599 0
-519 -604 0
-519 -609 0
-519 -614 0
-519 -619 0
-519 -624 0
-524 -529 0
-524 -534 0
-524 -539 0
-524 -544 0
-524 -549 0
-524 -554 0
-524 -559 0
-524 -564 0
-524 -569 0
-524 -574 0
-524 -579 0
-524 -584 0
-524 -589 0
-524 -594 0
-524 -599 0
-524 -604 0
-524 -609 0
-524 -614 0
-524 -619 0
-524 -624 0
-529 -534 0
-529 -539 0
-529 -544 0
-529 -549 0
-529 -554 0
-529 -559 0
-529 -564 0
-529 -569 0
-529 -574 0
-529 -579 0
-529 -584 0
-529 -589 0
-529 -594 0
-529 -599 0
-529 -604 0
-529 -609 0
-529 -614 0
-529 -619 0
-529 -624 0
-534 -539 0
-534 -544 0
-534 -549 0
-534 -554 0
-534 -559 0
-534 -564 0
-534 -569 0
-534 -574 0
-534 -579 0
-534 -584 0
-534 -589 0
-534 -594 0
-534 -599 0
-534 -604 0
-534 -609 0
-534 -614 0
-534 -619 0
-534 -624 0
-539 -544 0
-539 -549 0
-539 -554 0
-539 -559 0
-539 -564 0
-539 -569 0
-539 -574 0
-539 -579 0
-539 -584 0
-539 -589 0
-539 -594 0
-539 -599 0
-539 -604 0
-539 -609 0
-539 -614 0
-539 -619 0
-539 -624 0
-544 -549 0
-544 -554 0
-544 -559 0
-544 -564 0
-544 -569 0
-544 -574 0
-544 -579 0
-544 -584 0
-544 -589 0
-544 -594 0
-544 -599 0
-544 -604 0
-544 -609 0
-544 -614 0
-544 -619 0
-544 -624 0
-549 -554 0
-549 -559 0
-549 -564 0
-549 -569 0
-549 -574 0
-549 -579 0
-549 -584 0
-549 -589 0
-549 -594 0
-549 -599 0
-549 -604 0
-549 -609 0
-549 -614 0
-549 -619 0
-549 -624 0
-554 -559 0
-554 -564 0
-554 -569 0
-554 -574 0
-554 -579 0
-554 -584 0
-554 -589 0
-554 -594 0
-554 -599 0
-554 -604 0
-554 -609 0
-554 -614 0
-554 -619 0
-554 -624 0
-559 -564 0
-559 -569 0
-559 -574 0
-559 -579 0
-559 -584 0
-559 -589 0
-559 -594 0
-559 -599 0
-559 -604 0
-559 -609 0
-559 -614 0
-559 -619 0
-559 -624 0
-564 -569 0
-564 -574 0
-564 -579 0
-564 -584 0
-564 -589 0
-564 -594 0
-564 -599 0
-564 -604 0
-564 -609 0
-564 -614 0
-564 -619 0
-564 -624 0
-569 -574 0
-569 -579 0
-569 -584 0
-569 -589 0
-569 -594 0
-569 -599 0
-569 -604 0
-569 -609 0
-569 -614 0
-569 -619 0
-569 -624 0
-574 -579 0
-574 -584 0
-574 -589 0
-574 -594 0
-574 -599 0
-574 -604 0
-574 -609 0
-574 -614 0
-574 -619 0
-574 -624 0
-579 -584 0
-579 -589 0
-579 -594 0
-579 -599 0
-579 -604 0
-579 -609 0
-579 -614 0
-579 -619 0
-579 -624 0
-584 -589 0
-584 -594 0
-584 -599 0
-584 -604 0
-584 -609 0
-584 -614 0
-584 -619 0
-584 -624 0
-589 -594 0
-589 -599 0
-589 -604 0
-589 -609 0
-589 -614 0
-589 -619 0
-589 -624 0
-594 -599 0
-594 -604 0
-594 -609 0
-594 -614 0
-594 -619 0
-594 -624 0
-599 -604 0
-599 -609 0
-599 -614 0
-599 -619 0
-599 -624 0
-604 -609 0
-604 -614 0
-604 -619 0
-604 -624 0
-609 -614 0
-609 -619 0
-609 -624 0
-614 -619 0
-614 -624 0
-619 -624 0
505 510 515 520 525 530 535 540 545 550 555 560 565 570 575 580 585 590 595 600 605 610 615 620 625 0
-505 -510 0
-505 -515 0
-505 -520 0
-505 -525 0
-505 -530 0
-505 -535 0
-505 -540 0
-505 -545 0
-505 -550 0
-505 -555 0
-505 -560 0
-505 -565 0
-505 -570 0
-505 -575 0
-505 -580 0
-505 -585 0
-505 -590 0
-505 -595 0
-505 -600 0
-505 -605 0
-505 -610 0
-505 -615 0
-505 -620 0
-505 -625 0
-510 -515 0
-510 -520 0
-510 -525 0
-510 -530 0
-510 -535 0
-510 -540 0
-510 -545 0
-510 -550 0
-510 -555 0
-510 -560 0
-510 -565 0
-510 -570 0
-510 -575 0
-510 -580 0
-510 -585 0
-510 -590 0
-510 -595 0
-510 -600 0
-510 -605 0
-510 -610 0
-510 -615 0
-510 -620 0
-510 -625 0
-515 -520 0
-515 -525 0
-515 -530 0
-515 -535 0
-515 -540 0
-515 -545 0
-515 -550 0
-515 -555 0
-515 -560 0
-515 -565 0
-515 -570 0
-515 -575 0
-515 -580 0
-515 -585 0
-515 -590 0
-515 -595 0
-515 -600 0
-515 -605 0
-515 -610 0
-515 -615 0
-515 -620 0
-515 -625 0
-520 -525 0
-520 -530 0
-520 -535 0
-520 -540 0
-520 -545 0
-520 -550 0
-520 -555 0
-520 -560 0
-520 -565 0
-520 -570 0
-520 -575 0
-520 -580 0
-520 -585 0
-520 -590 0
-520 -595 0
-520 -600 0
-520 -605 0
-520 -610 0
-520 -615 0
-520 -620 0
-520 -625 0
-525 -530 0
-525 -535 0
-525 -540 0
-525 -545 0
-525 -550 0
-525 -555 0
-525 -560 0
-525 -565 0
-525 -570 0
-525 -575 0
-525 -580 0
-525 -585 0
-525 -590 0
-525 -595 0
-525 -600 0
-525 -605 0
-525 -610 0
-525 -615 0
-525 -620 0
-525 -625 0
-530 -535 0
-530 -540 0
-530 -545 0
-530 -550 0
-530 -555 0
-530 -560 0
-530 -565 0
-530 -570 0
-530 -575 0
-530 -580 0
-530 -585 0
-530 -590 0
-530 -595 0
-530 -600 0
-530 -605 0
-530 -610 0
-530 -615 0
-530 -620 0
-530 -625 0
-535 -540 0
-535 -545 0
-535 -550 0
-535 -555 0
-535 -560 0
-535 -565 0
-535 -570 0
-535 -575 0
-535 -580 0
-535 -585 0
-535 -590 0
-535 -595 0
-535 -600 0
-535 -605 0
-535 -610 0
-535 -615 0
-535 -620 0
-535 -625 0
-540 -545 0
-540 -550 0
-540 -555 0
-540 -560 0
-540 -565 0
-540 -570 0
-540 -575 0
-540 -580 0
-540 -585 0
-540 -590 0
-540 -595 0
-540 -600 0
-540 -605 0
-540 -610 0
-540 -615 0
-540 -620 0
-540 -625 0
-545 -550 0
-545 -555 0
-545 -560 0
-545 -565 0
-545 -570 0
-545 -575 0
-545 -580 0
-545 -585 0
-545 -590 0
-545 -595 0
-545 -600 0
-545 -605 0
-545 -610 0
-545 -615 0
-545 -620 0
-545 -625 0
-550 -555 0
-550 -560 0
-550 -565 0
-550 -570 0
-550 -575 0
-550 -580 0
-550 -585 0
-550 -590 0
-550 -595 0
-550 -600 0
-550 -605 0
-550 -610 0
-550 -615 0
-550 -620 0
-550 -625 0
-555 -560 0
-555 -565 0
-555 -570 0
-555 -575 0
-555 -580 0
-555 -585 0
-555 -590 0
-555 -595 0
-555 -600 0
-555 -605 0
-555 -610 0
-555 -615 0
-555 -620 0
-555 -625 0
-560 -565 0
-560 -570 0
-560 -575 0
-560 -580 0
-560 -585 0
-560 -590 0
-560 -595 0
-560 -600 0
-560 -605 0
-560 -610 0
-560 -615 0
-560 -620 0
-560 -625 0
-565 -570 0
-565 -575 0
-565 -580 0
-565 -585 0
-565 -590 0
-565 -595 0
-565 -600 0
-565 -605 0
-565 -610 0
-565 -615 0
-565 -620 0
-565 -625 0
-570 -575 0
-570 -580 0
-570 -585 0
-570 -590 0
-570 -595 0
-570 -600 0
-570 -605 0
-570 -610 0
-570 -615 0
-570 -620 0
-570 -625 0
-575 -580 0
-575 -585 0
-575 -590 0
-575 -595 0
-575 -600 0
-575 -605 0
-575 -610 0
-575 -615 0
-575 -620 0
-575 -625 0
-580 -585 0
-580 -590 0
-580 -595 0
-580 -600 0
-580 -605 0
-580 -610 0
-580 -615 0
-580 -620 0
-580 -625 0
-585 -590 0
-585 -595 0
-585 -600 0
-585 -605 0
-585 -610 0
-585 -615 0
-585 -620 0
-585 -625 0
-590 -595 0
-590 -600 0
-590 -605 0
-590 -610 0
-590 -615 0
-590 -620 0
-590 -625 0
-595 -600 0
-595 -605 0
-595 -610 0
-595 -615 0
-595 -620 0
-595 -625 0
-600 -605 0
-600 -610 0
-600 -615 0
-600 -620 0
-600 -625 0
-605 -610 0
-605 -615 0
-605 -620 0
-605 -625 0
-610 -615 0
-610 -620 0
-610 -625 0
-615 -620 0
-615 -625 0
-620 -625 0
1 6 11 16 21 126 131 136 141 146 251 256 261 266 271 376 381 386 391 396 501 506 511 516 521 0
-1 -6 0
-1 -11 0
-1 -16 0
-1 -21 0
-1 -126 0
-1 -131 0
-1 -136 0
-1 -141 0
-1 -146 0
-1 -251 0
-1 -256 0
-1 -261 0
-1 -266 0
-1 -271 0
-1 -376 0
-1 -381 0
-1 -386 0
-1 -391 0
-1 -396 0
-1 -501 0
-1 -506 0
-1 -511 0
-1 -516 0
-1 -521 0
-6 -11 0
-6 -16 0
-6 -21 0
-6 -126 0
-6 -131 0
-6 -136 0
-6 -141 0
-6 -146 0
-6 -251 0
-6 -256 0
-6 -261 0
-6 -266 0
-6 -271 0
-6 -376 0
-6 -381 0
-6 -386 0
-6 -391 0
-6 -396 0
-6 -501 0
-6 -506 0
-6 -511 0
-6 -516 0
-6 -521 0
-11 -16 0
-11 -21 0
-11 -126 0
-11 -131 0
-11 -136 0
-11 -141 0
-11 -146 0
-11 -251 0
-11 -256 0
-11 -261 0
-11 -266 0
-11 -271 0
-11 -376 0
-11 -381 0
-11 -386 0
-11 -391 0
-11 -396 0
-11 -501 0
-11 -506 0
-11 -511 0
-11 -516 0
-11 -521 0
-16 -21 0
-16 -126 0
-16 -131 0
-16 -136 0
-16 -141 0
-16 -146 0
-16 -251 0
-16 -256 0
-16 -261 0
-16 -266 0
-16 -271 0
-16 -376 0
-16 -381 0
-16 -386 0
-16 -391 0
-16 -396 0
-16 -501 0
-16 -506 0
-16 -511 0
-16 -516 0
-16 -521 0
-21 -126 0
-21 -131 0
-21 -136 0
-21 -141 0
-21 -146 0
-21 -251 0
-21 -256 0
-21 -261 0
-21 -266 0
-21 -271 0
-21 -376 0
-21 -381 0
-21 -386 0
-21 -391 0
-21 -396 0
-21 -501 0
-21 -506 0
-21 -511 0
-21 -516 0
-21 -521 0
-126 -131 0
-126 -136 0
-126 -141 0
-126 -146 0
-126 -251 0
-126 -256 0
-126 -261 0
-126 -266 0
-126 -271 0
-126 -376 0
-126 -381 0
-126 -386 0
-126 -391 0
-126 -396 0
-126 -501 0
-126 -506 0
-126 -511 0
-126 -516 0
-126 -521 0
-131 -136 0
-131 -141 0
-131 -146 0
-131 -251 0
-131 -256 0
-131 -261 0
-131 -266 0
-131 -271 0
-131 -376 0
-131 -381 0
-131 -386 0
-131 -391 0
-131 -396 0
-131 -501 0
-131 -506 0
-131 -511 0
-131 -516 0
-131 -521 0
-136 -141 0
-136 -146 0
-136 -251 0
-136 -256 0
-136 -261 0
-136 -266 0
-136 -271 0
-136 -376 0
-136 -381 0
-136 -386 0
-136 -391 0
-136 -396 0
-136 -501 0
-136 -506 0
-136 -511 0
-136 -516 0
-136 -521 0
-141 -146 0
-141 -251 0
-141 -256 0
-141 -261 0
-141 -266 0
-141 -271 0
-141 -376 0
-141 -381 0
-141 -386 0
-141 -391 0
-141 -396 0
-141 -501 0
-141 -506 0
-141 -511 0
-141 -516 0
-141 -521 0
-146 -251 0
-146 -256 0
-146 -261 0
-146 -266 0
-146 -271 0
-146 -376 0
-146 -381 0
-146 -386 0
-146 -391 0
-146 -396 0
-146 -501 0
-146 -506 0
-146 -511 0
-146 -516 0
-146 -521 0
-251 -256 0
-251 -261 0
-251 -266 0
-251 -271 0
-251 -376 0
-251 -381 0
-251 -386 0
-251 -391 0
-251 -396 0
-251 -501 0
-251 -506 0
-251 -511 0
-251 -516 0
-251 -521 0
-256 -261 0
-256 -266 0
-256 -271 0
-256 -376 0
-256 -381 0
-256 -386 0
-256 -391 0
-256 -396 0
-256 -501 0
-256 -506 0
-256 -511 0
-256 -516 0
-256 -521 0
-261 -266 0
-261 -271 0
-261 -376 0
-261 -381 0
-261 -386 0
-261 -391 0
-261 -396 0
-261 -501 0
-261 -506 0
-261 -511 0
-261 -516 0
-261 -521 0
-266 -271 0
-266 -376 0
-266 -381 0
-266 -386 0
-266 -391 0
-266 -396 0
-266 -501 0
-266 -506 0
-266 -511 0
-266 -516 0
-266 -521 0
-271 -376 0
-271 -381 0
-271 -386 0
-271 -391 0
-271 -396 0
-271 -501 0
-271 -506 0
-271 -511 0
-271 -516 0
-271 -521 0
-376 -381 0
-376 -386 0
-376 -391 0
-376 -396 0
-376 -501 0
-376 -506 0
-376 -511 0
-376 -516 0
-376 -521 0
-381 -386 0
-381 -391 0
-381 -396 0
-381 -501 0
-381 -506 0
-381 -511 0
-381 -516 0
-381 -521 0
-386 -391 0
-386 -396 0
-386 -501 0
-386 -506 0
-386 -511 0
-386 -516 0
-386 -521 0
-391 -396 0
-391 -501 0
-391 -506 0
-391 -511 0
-391 -516 0
-391 -521 0
-396 -501 0
-396 -506 0
-396 -511 0
-396 -516 0
-396 -521 0
-501 -506 0
-501 -511 0
-501 -516 0
-501 -521 0
-506 -511 0
-506 -516 0
-506 -521 0
-511 -516 0
-511 -521 0
-516 -521 0
2 7 12 17 22 127 132 137 142 147 252 257 262 267 272 377 382 387 392 397 502 507 512 517 522 0
-2 -7 0
-2 -12 0
-2 -17 0
-2 -22 0
-2 -127 0
-2 -132 0
-2 -137 0
-2 -142 0
-2 -147 0
-2 -252 0
-2 -257 0
-2 -262 0
-2 -267 0
-2 -272 0
-2 -377 0
-2 -382 0
-2 -387 0
-2 -392 0
-2 -397 0
-2 -502 0
-2 -507 0
-2 -512 0
-2 -517 0
-2 -522 0
-7 -12 0
-7 -17 0
-7 -22 0
-7 -127 0
-7 -132 0
-7 -137 0
-7 -142 0
-7 -147 0
-7 -252 0
-7 -257 0
-7 -262 0
-7 -267 0
-7 -272 0
-7 -377 0
-7 -382 0
-7 -387 0
-7 -392 0
-7 -397 0
-7 -502 0
-7 -507 0
-7 -512 0
-7 -517 0
-7 -522 0
-12 -17 0
-12 -22 0
-12 -127 0
-12 -132 0
-12 -137 0
-12 -142 0
-12 -147 0
-12 -252 0
-12 -257 0
-12 -262 0
-12 -267 0
-12 -272 0
-12 -377 0
-12 -382 0
-12 -387 0
-12 -392 0
-12 -397 0
-12 -502 0
-12 -507 0
-12 -512 0
-12 -517 0
-12 -522 0
-17 -22 0
-17 -127 0
-17 -132 0
-17 -137 0
-17 -142 0
-17 -147 0
-17 -252 0
-17 -257 0
-17 -262 0
-17 -267 0
-17 -272 0
-17 -377 0
-17 -382 0
-17 -387 0
-17 -392 0
-17 -397 0
-17 -502 0
-17 -507 0
-17 -512 0
-17 -517 0
-17 -522 0
-22 -127 0
-22 -132 0
-22 -137 0
-22 -142 0
-22 -147 0
-22 -252 0
-22 -257 0
-22 -262 0
-22 -267 0
-22 -272 0
-22 -377 0
-22 -382 0
-22 -387 0
-22 -392 0
-22 -397 0
-22 -502 0
-22 -507 0
-22 -512 0
-22 -517 0
-22 -522 0
-127 -132 0
-127 -137 0
-127 -142 0
-127 -147 0
-127 -252 0
-127 -257 0
-127 -262 0
-127 -267 0
-127 -272 0
-127 -377 0
-127 -382 0
-127 -387 0
-127 -392 0
-127 -397 0
-127 -502 0
-127 -507 0
-127 -512 0
-127 -517 0
-127 -522 0
-132 -137 0
-132 -142 0
-132 -147 0
-132 -252 0
-132 -257 0
-132 -262 0
-132 -267 0
-132 -272 0
-132 -377 0
-132 -382 0
-132 -387 0
-132 -392 0
-132 -397 0
-132 -502 0
-132 -507 0
-132 -512 0
-132 -517 0
-132 -522 0
-137 -142 0
-137 -147 0
-137 -252 0
-137 -257 0
-137 -262 0
-137 -267 0
-137 -272 0
-137 -377 0
-137 -382 0
-137 -387 0
-137 -392 0
-137 -397 0
-137 -502 0
-137 -507 0
-137 -512 0
-137 -517 0
-137 -522 0
-142 -147 0
-142 -252 0
-142 -257 0
-142 -262 0
-142 -267 0
-142 -272 0
-142 -377 0
-142 -382 0
-142 -387 0
-142 -392 0
-142 -397 0
-142 -502 0
-142 -507 0
-142 -512 0
-142 -517 0
-142 -522 0
-147 -252 0
-147 -257 0
-147 -262 0
-147 -267 0
-147 -272 0
-147 -377 0
-147 -382 0
-147 -387 0
-147 -392 0
-147 -397 0
-147 -502 0
-147 -507 0
-147 -512 0
-147 -517 0
-147 -522 0
-252 -257 0
-252 -262 0
-252 -267 0
-252 -272 0
-252 -377 0
-252 -382 0
-252 -387 0
-252 -392 0
-252 -397 0
-252 -502 0
-252 -507 0
-252 -512 0
-252 -517 0
-252 -522 0
-257 -262 0
-257 -267 0
-257 -272 0
-257 -377 0
-257 -382 0
-257 -387 0
-257 -392 0
-257 -397 0
-257 -502 0
-257 -507 0
-257 -512 0
-257 -517 0
-257 -522 0
-262 -267 0
-262 -272 0
-262 -377 0
-262 -382 0
-262 -387 0
-262 -392 0
-262 -397 0
-262 -502 0
-262 -507 0
-262 -512 0
-262 -517 0
-262 -522 0
-267 -272 0
-267 -377 0
-267 -382 0
-267 -387 0
-267 -392 0
-267 -397 0
-267 -502 0
-267 -507 0
-267 -512 0
-267 -517 0
-267 -522 0
-272 -377 0
-272 -382 0
-272 -387 0
-272 -392 0
-272 -397 0
-272 -502 0
-272 -507 0
-272 -512 0
-272 -517 0
-272 -522 0
-377 -382 0
-377 -387 0
-377 -392 0
-377 -397 0
-377 -502 0
-377 -507 0
-377 -512 0
-377 -517 0
-377 -522 0
-382 -387 0
-382 -392 0
-382 -397 0
-382 -502 0
-382 -507 0
-382 -512 0
-382 -517 0
-382 -522 0
-387 -392 0
-387 -397 0
-387 -502 0
-387 -507 0
-387 -512 0
-387 -517 0
-387 -522 0
-392 -397 0
-392 -502 0
-392 -507 0
-392 -512 0
-392 -517 0
-392 -522 0
-397 -502 0
-397 -507 0
-397 -512 0
-397 -517 0
-397 -522 0
-502 -507 0
-502 -512 0
-502 -517 0
-502 -522 0
-507 -512 0
-507 -517 0
-507 -522 0
-512 -517 0
-512 -522 0
-517 -522 0
3 8 13 18 23 128 133 138 143 148 253 258 263 268 273 378 383 388 393 398 503 508 513 518 523 0
-3 -8 0
-3 -13 0
-3 -18 0
-3 -23 0
-3 -128 0
-3 -133 0
-3 -138 0
-3 -143 0
-3 -148 0
-3 -253 0
-3 -258 0
-3 -263 0
-3 -268 0
-3 -273 0
-3 -378 0
-3 -383 0
-3 -388 0
-3 -393 0
-3 -398 0
-3 -503 0
-3 -508 0
-3 -513 0
-3 -518 0
-3 -523 0
-8 -13 0
-8 -18 0
-8 -23 0
-8 -128 0
-8 -133 0
-8 -138 0
-8 -143 0
-8 -148 0
-8 -253 0
-8 -258 0
-8 -263 0
-8 -268 0
-8 -273 0
-8 -378 0
-8 -383 0
-8 -388 0
-8 -393 0
-8 -398 0
-8 -503 0
-8 -508 0
-8 -513 0
-8 -518 0
-8 -523 0
-13 -18 0
-13 -23 0
-13 -128 0
-13 -133 0
-13 -138 0
-13 -143 0
-13 -148 0
-13 -253 0
-13 -258 0
-13 -263 0
-13 -268 0
-13 -273 0
-13 -378 0
-13 -383 0
-13 -388 0
-13 -393 0
-13 -398 0
-13 -503 0
-13 -508 0
-13 -513 0
-13 -518 0
-13 -523 0
-18 -23 0
-18 -128 0
-18 -133 0
-18 -138 0
-18 -143 0
-18 -148 0
-18 -253 0
-18 -258 0
-18 -263 0
-18 -268 0
-18 -273 0
-18 -378 0
-18 -383 0
-18 -388 0
-18 -393 0
-18 -398 0
-18 -503 0
-18 -508 0
-18 -513 0
-18 -518 0
-18 -523 0
-23 -128 0
-23 -133 0
-23 -138 0
-23 -143 0
-23 -148 0
-23 -253 0
-23 -258 0
-23 -263 0
-23 -268 0
-23 -273 0
-23 -378 0
-23 -383 0
-23 -388 0
-23 -393 0
-23 -398 0
-23 -503 0
-23 -508 0
-23 -513 0
-23 -518 0
-23 -523 0
-128 -133 0
-128 -138 0
-128 -143 0
-128 -148 0
-128 -253 0
-128 -258 0
-128 -263 0
-128 -268 0
-128 -273 0
-128 -378 0
-128 -383 0
-128 -388 0
-128 -393 0
-128 -398 0
-128 -503 0
-128 -508 0
-128 -513 0
-128 -518 0
-128 -523 0
-133 -138 0
-133 -143 0
-133 -148 0
-133 -253 0
-133 -258 0
-133 -263 0
-133 -268 0
-133 -273 0
-133 -378 0
-133 -383 0
-133 -388 0
-133 -393 0
-133 -398 0
-133 -503 0
-133 -508 0
-133 -513 0
-133 -518 0
-133 -523 0
-138 -143 0
-138 -148 0
-138 -253 0
-138 -258 0
-138 -263 0
-138 -268 0
-138 -273 0
-138 -378 0
-138 -383 0
-138 -388 0
-138 -393 0
-138 -398 0
-138 -503 0
-138 -508 0
-138 -513 0
-138 -518 0
-138 -523 0
-143 -148 0
-143 -253 0
-143 -258 0
-143 -263 0
-143 -268 0
-143 -273 0
-143 -378 0
-143 -383 0
-143 -388 0
-143 -393 0
-143 -398 0
-143 -503 0
-143 -508 0
-143 -513 0
-143 -518 0
-143 -523 0
-148 -253 0
-148 -258 0
-148 -263 0
-148 -268 0
-148 -273 0
-148 -378 0
-148 -383 0
-148 -388 0
-148 -393 0
-148 -398 0
-148 -503 0
-148 -508 0
-148 -513 0
-148 -518 0
-148 -523 0
-253 -258 0
-253 -263 0
-253 -268 0
-253 -273 0
-253 -378 0
-253 -383 0
-253 -388 0
-253 -393 0
-253 -398 0
-253 -503 0
-253 -508 0
-253 -513 0
-253 -518 0
-253 -523 0
-258 -263 0
-258 -268 0
-258 -273 0
-258 -378 0
-258 -383 0
-258 -388 0
-258 -393 0
-258 -398 0
-258 -503 0
-258 -508 0
-258 -513 0
-258 -518 0
-258 -523 0
-263 -268 0
-263 -273 0
-263 -378 0
-263 -383 0
-263 -388 0
-263 -393 0
-263 -398 0
-263 -503 0
-263 -508 0
-263 -513 0
-263 -518 0
-263 -523 0
-268 -273 0
-268 -378 0
-268 -383 0
-268 -388 0
-268 -393 0
-268 -398 0
-268 -503 0
-268 -508 0
-268 -513 0
-268 -518 0
-268 -523 0
-273 -378 0
-273 -383 0
-273 -388 0
-273 -393 0
-273 -398 0
-273 -503 0
-273 -508 0
-273 -513 0
-273 -518 0
-273 -523 0
-378 -383 0
-378 -388 0
-378 -393 0
-378 -398 0
-378 -503 0
-378 -508 0
-378 -513 0
-378 -518 0
-378 -523 0
-383 -388 0
-383 -393 0
-383 -398 0
-383 -503 0
-383 -508 0
-383 -513 0
-383 -518 0
-383 -523 0
-388 -393 0
-388 -398 0
-388 -503 0
-388 -508 0
-388 -513 0
-388 -518 0
-388 -523 0
-393 -398 0
-393 -503 0
-393 -508 0
-393 -513 0
-393 -518 0
-393 -523 0
-398 -503 0
-398 -508 0
-398 -513 0
-398 -518 0
-398 -523 0
-503 -508 0
-503 -513 0
-503 -518 0
-503 -523 0
-508 -513 0
-508 -518 0
-508 -523 0
-513 -518 0
-513 -523 0
-518 -523 0
4 9 14 19 24 129 134 139 144 149 254 259 264 269 274 379 384 389 394 399 504 509 514 519 524 0
-4 -9 0
-4 -14 0
-4 -19 0
-4 -24 0
-4 -129 0
-4 -134 0
-4 -139 0
-4 -144 0
-4 -149 0
-4 -254 0
-4 -259 0
-4 -264 0
-4 -269 0
-4 -274 0
-4 -379 0
-4 -384 0
-4 -389 0
-4 -394 0
-4 -399 0
-4 -504 0
-4 -509 0
-4 -514 0
-4 -519 0
-4 -524 0
-9 -14 0
-9 -19 0
-9 -24 0
-9 -129 0
-9 -134 0
-9 -139 0
-9 -144 0
-9 -149 0
-9 -254 0
-9 -259 0
-9 -264 0
-9 -269 0
-9 -274 0
-9 -379 0
-9 -384 0
-9 -389 0
-9 -394 0
-9 -399 0
-9 -504 0
-9 -509 0
-9 -514 0
-9 -519 0
-9 -524 0
-14 -19 0
-14 -24 0
-14 -129 0
-14 -134 0
-14 -139 0
-14 -144 0
-14 -149 0
-14 -254 0
-14 -259 0
-14 -264 0
-14 -269 0
-14 -274 0
-14 -379 0
-14 -384 0
-14 -389 0
-14 -394 0
-14 -399 0
-14 -504 0
-14 -509 0
-14 -514 0
-14 -519 0
-14 -524 0
-19 -24 0
-19 -129 0
-19 -134 0
-19 -139 0
-19 -144 0
-19 -149 0
-19 -254 0
-19 -259 0
-19 -264 0
-19 -269 0
-19 -274 0
-19 -379 0
-19 -384 0
-19 -389 0
-19 -394 0
-19 -399 0
-19 -504 0
-19 -509 0
-19 -514 0
-19 -519 0
-19 -524 0
-24 -129 0
-24 -134 0
-24 -139 0
-24 -144 0
-24 -149 0
-24 -254 0
-24 -259 0
-24 -264 0
-24 -269 0
-24 -274 0
-24 -379 0
-24 -384 0
-24 -389 0
-24 -394 0
-24 -399 0
-24 -504 0
-24 -509 0
-24 -514 0
-24 -519 0
-24 -524 0
-129 -134 0
-129 -139 0
-129 -144 0
-129 -149 0
-129 -254 0
-129 -259 0
-129 -264 0
-129 -269 0
-129 -274 0
-129 -379 0
-129 -384 0
-129 -389 0
-129 -394 0
-129 -399 0
-129 -504 0
-129 -509 0
-129 -514 0
-129 -519 0
-129 -524 0
-134 -139 0
-134 -144 0
-134 -149 0
-134 -254 0
-134 -259 0
-134 -264 0
-134 -269 0
-134 -274 0
-134 -379 0
-134 -384 0
-134 -389 0
-134 -394 0
-134 -399 0
-134 -504 0
-134 -509 0
-134 -514 0
-134 -519 0
-134 -524 0
-139 -144 0
-139 -149 0
-139 -254 0
-139 -259 0
-139 -264 0
-139 -269 0
-139 -274 0
-139 -379 0
-139 -384 0
-139 -389 0
-139 -394 0
-139 -399 0
-139 -504 0
-139 -509 0
-139 -514 0
-139 -519 0
-139 -524 0
-144 -149 0
-144 -254 0
-144 -259 0
-144 -264 0
-144 -269 0
-144 -274 0
-144 -379 0
-144 -384 0
-144 -389 0
-144 -394 0
-144 -399 0
-144 -504 0
-144 -509 0
-144 -514 0
-144 -519 0
-144 -524 0
-149 -254 0
-149 -259 0
-149 -264 0
-149 -269 0
-149 -274 0
-149 -379 0
-149 -384 0
-149 -389 0
-149 -394 0
-149 -399 0
-149 -504 0
-149 -509 0
-149 -514 0
-149 -519 0
-149 -524 0
-254 -259 0
-254 -264 0
-254 -269 0
-254 -274 0
-254 -379 0
-254 -384 0
-254 -389 0
-254 -394 0
-254 -399 0
-254 -504 0
-254 -509 0
-254 -514 0
-254 -519 0
-254 -524 0
-259 -264 0
-259 -269 0
-259 -274 0
-259 -379 0
-259 -384 0
-259 -389 0
-259 -394 0
-259 -399 0
-259 -504 0
-259 -509 0
-259 -514 0
-259 -519 0
-259 -524 0
-264 -269 0
-264 -274 0
-264 -379 0
-264 -384 0
-264 -389 0
-264 -394 0
-264 -399 0
-264 -504 0
-264 -509 0
-264 -514 0
-264 -519 0
-264 -524 0
-269 -274 0
-269 -379 0
-269 -384 0
-269 -389 0
-269 -394 0
-269 -399 0
-269 -504 0
-269 -509 0
-269 -514 0
-269 -519 0
-269 -524 0
-274 -379 0
-274 -384 0
-274 -389 0
-274 -394 0
-274 -399 0
-274 -504 0
-274 -509 0
-274 -514 0
-274 -519 0
-274 -524 0
-379 -384 0
-379 -389 0
-379 -394 0
-379 -399 0
-379 -504 0
-379 -509 0
-379 -514 0
-379 -519 0
-379 -524 0
-384 -389 0
-384 -394 0
-384 -399 0
-384 -504 0
-384 -509 0
-384 -514 0
-384 -519 0
-384 -524 0
-389 -394 0
-389 -399 0
-389 -504 0
-389 -509 0
-389 -514 0
-389 -519 0
-389 -524 0
-394 -399 0
-394 -504 0
-394 -509 0
-394 -514 0
-394 -519 0
-394 -524 0
-399 -504 0
-399 -509 0
-399 -514 0
-399 -519 0
-399 -524 0
-504 -509 0
-504 -514 0
-504 -519 0
-504 -524 0
-509 -514 0
-509 -519 0
-509 -524 0
-514 -519 0
-514 -524 0
-519 -524 0
5 10 15 20 25 130 135 140 145 150 255 260 265 270 275 380 385 390 395 400 505 510 515 520 525 0
-5 -10 0
-5 -15 0
-5 -20 0
-5 -25 0
-5 -130 0
-5 -135 0
-5 -140 0
-5 -145 0
-5 -150 0
-5 -255 0
-5 -260 0
-5 -265 0
-5 -270 0
-5 -275 0
-5 -380 0
-5 -385 0
-5 -390 0
-5 -395 0
-5 -400 0
-5 -505 0
-5 -510 0
-5 -515 0
-5 -520 0
-5 -525 0
-10 -15 0
-10 -20 0
-10 -25 0
-10 -130 0
-10 -135 0
-10 -140 0
-10 -145 0
-10 -150 0
-10 -255 0
-10 -260 0
-10 -265 0
-10 -270 0
-10 -275 0
-10 -380 0
-10 -385 0
-10 -390 0
-10 -395 0
-10 -400 0
-10 -505 0
-10 -510 0
-10 -515 0
-10 -520 0
-10 -525 0
-15 -20 0
-15 -25 0
-15 -130 0
-15 -135 0
-15 -140 0
-15 -145 0
-15 -150 0
-15 -255 0
-15 -260 0
-15 -265 0
-15 -270 0
-15 -275 0
-15 -380 0
-15 -385 0
-15 -390 0
-15 -395 0
-15 -400 0
-15 -505 0
-15 -510 0
-15 -515 0
-15 -520 0
-15 -525 0
-20 -25 0
-20 -130 0
-20 -135 0
-20 -140 0
-20 -145 0
-20 -150 0
-20 -255 0
-20 -260 0
-20 -265 0
-20 -270 0
-20 -275 0
-20 -380 0
-20 -385 0
-20 -390 0
-20 -395 0
-20 -400 0
-20 -505 0
-20 -510 0
-20 -515 0
-20 -520 0
-20 -525 0
-25 -130 0
-25 -135 0
-25 -140 0
-25 -145 0
-25 -150 0
-25 -255 0
-25 -260 0
-25 -265 0
-25 -270 0
-25 -275 0
-25 -380 0
-25 -385 0
-25 -390 0
-25 -395 0
-25 -400 0
-25 -505 0
-25 -510 0
-25 -515 0
-25 -520 0
-25 -525 0
-130 -135 0
-130 -140 0
-130 -145 0
-130 -150 0
-130 -255 0
-130 -260 0
-130 -265 0
-130 -270 0
-130 -275 0
-130 -380 0
-130 -385 0
-130 -390 0
-130 -395 0
-130 -400 0
-130 -505 0
-130 -510 0
-130 -515 0
-130 -520 0
-130 -525 0
-135 -140 0
-135 -145 0
-135 -150 0
-135 -255 0
-135 -260 0
-135 -265 0
-135 -270 0
-135 -275 0
-135 -380 0
-135 -385 0
-135 -390 0
-135 -395 0
-135 -400 0
-135 -505 0
-135 -510 0
-135 -515 0
-135 -520 0
-135 -525 0
-140 -145 0
-140 -150 0
-140 -255 0
-140 -260 0
-140 -265 0
-140 -270 0
-140 -275 0
-140 -380 0
-140 -385 0
-140 -390 0
-140 -395 0
-140 -400 0
-140 -505 0
-140 -510 0
-140 -515 0
-140 -520 0
-140 -525 0
-145 -150 0
-145 -255 0
-145 -260 0
-145 -265 0
-145 -270 0
-145 -275 0
-145 -380 0
-145 -385 0
-145 -390 0
-145 -395 0
-145 -400 0
-145 -505 0
-145 -510 0
-145 -515 0
-145 -520 0
-145 -525 0
-150 -255 0
-150 -260 0
-150 -265 0
-150 -270 0
-150 -275 0
-150 -380 0
-150 -385 0
-150 -390 0
-150 -395 0
-150 -400 0
-150 -505 0
-150 -510 0
-150 -515 0
-150 -520 0
-150 -525 0
-255 -260 0
-255 -265 0
-255 -270 0
-255 -275 0
-255 -380 0
-255 -385 0
-255 -390 0
-255 -395 0
-255 -400 0
-255 -505 0
-255 -510 0
-255 -515 0
-255 -520 0
-255 -525 0
-260 -265 0
-260 -270 0
-260 -275 0
-260 -380 0
-260 -385 0
-260 -390 0
-260 -395 0
-260 -400 0
-260 -505 0
-260 -510 0
-260 -515 0
-260 -520 0
-260 -525 0
-265 -270 0
-265 -275 0
-265 -380 0
-265 -385 0
-265 -390 0
-265 -395 0
-265 -400 0
-265 -505 0
-265 -510 0
-265 -515 0
-265 -520 0
-265 -525 0
-270 -275 0
-270 -380 0
-270 -385 0
-270 -390 0
-270 -395 0
-270 -400 0
-270 -505 0
-270 -510 0
-270 -515 0
-270 -520 0
-270 -525 0
-275 -380 0
-275 -385 0
-275 -390 0
-275 -395 0
-275 -400 0
-275 -505 0
-275 -510 0
-275 -515 0
-275 -520 0
-275 -525 0
-380 -385 0
-380 -390 0
-380 -395 0
-380 -400 0
-380 -505 0
-380 -510 0
-380 -515 0
-380 -520 0
-380 -525 0
-385 -390 0
-385 -395 0
-385 -400 0
-385 -505 0
-385 -510 0
-385 -515 0
-385 -520 0
-385 -525 0
-390 -395 0
-390 -400 0
-390 -505 0
-390 -510 0
-390 -515 0
-390 -520 0
-390 -525 0
-395 -400 0
-395 -505 0
-395 -510 0
-395 -515 0
-395 -520 0
-395 -525 0
-400 -505 0
-400 -510 0
-400 -515 0
-400 -520 0
-400 -525 0
-505 -510 0
-505 -515 0
-505 -520 0
-505 -525 0
-510 -515 0
-510 -520 0
-510 -525 0
-515 -520 0
-515 -525 0
-520 -525 0
26 31 36 41 46 151 156 161 166 171 276 281 286 291 296 401 406 411 416 421 526 531 536 541 546 0
-26 -31 0
-26 -36 0
-26 -41 0
-26 -46 0
-26 -151 0
-26 -156 0
-26 -161 0
-26 -166 0
-26 -171 0
-26 -276 0
-26 -281 0
-26 -286 0
-26 -291 0
-26 -296 0
-26 -401 0
-26 -406 0
-26 -411 0
-26 -416 0
-26 -421 0
-26 -526 0
-26 -531 0
-26 -536 0
-26 -541 0
-26 -546 0
-31 -36 0
-31 -41 0
-31 -46 0
-31 -151 0
-31 -156 0
-31 -161 0
-31 -166 0
-31 -171 0
-31 -276 0
-31 -281 0
-31 -286 0
-31 -291 0
-31 -296 0
-31 -401 0
-31 -406 0
-31 -411 0
-31 -416 0
-31 -421 0
-31 -526 0
-31 -531 0
-31 -536 0
-31 -541 0
-31 -546 0
-36 -41 0
-36 -46 0
-36 -151 0
-36 -156 0
-36 -161 0
-36 -166 0
-36 -171 0
-36 -276 0
-36 -281 0
-36 -286 0
-36 -291 0
-36 -296 0
-36 -401 0
-36 -406 0
-36 -411 0
-36 -416 0
-36 -421 0
-36 -526 0
-36 -531 0
-36 -536 0
-36 -541 0
-36 -546 0
-41 -46 0
-41 -151 0
-41 -156 0
-41 -161 0
-41 -166 0
-41 -171 0
-41 -276 0
-41 -281 0
-41 -286 0
-41 -291 0
-41 -296 0
-41 -401 0
-41 -406 0
-41 -411 0
-41 -416 0
-41 -421 0
-41 -526 0
-41 -531 0
-41 -536 0
-41 -541 0
-41 -546 0
-46 -151 0
-46 -156 0
-46 -161 0
-46 -166 0
-46 -171 0
-46 -276 0
-46 -281 0
-46 -286 0
-46 -291 0
-46 -296 0
-46 -401 0
-46 -406 0
-46 -411 0
-46 -416 0
-46 -421 0
-46 -526 0
-46 -531 0
-46 -536 0
-46 -541 0
-46 -546 0
-151 -156 0
-151 -161 0
-151 -166 0
-151 -171 0
-151 -276 0
-151 -281 0
-151 -286 0
-151 -291 0
-151 -296 0
-151 -401 0
-151 -406 0
-151 -411 0
-151 -416 0
-151 -421 0
-151 -526 0
-151 -531 0
-151 -536 0
-151 -541 0
-151 -546 0
-156 -161 0
-156 -166 0
-156 -171 0
-156 -276 0
-156 -281 0
-156 -286 0
-156 -291 0
-156 -296 0
-156 -401 0
-156 -406 0
-156 -411 0
-156 -416 0
-156 -421 0
-156 -526 0
-156 -531 0
-156 -536 0
-156 -541 0
-156 -546 0
-161 -166 0
-161 -171 0
-161 -276 0
-161 -281 0
-161 -286 0
-161 -291 0
-161 -296 0
-161 -401 0
-161 -406 0
-161 -411 0
-161 -416 0
-161 -421 0
-161 -526 0
-161 -531 0
-161 -536 0
-161 -541 0
-161 -546 0
-166 -171 0
-166 -276 0
-166 -281 0
-166 -286 0
-166 -291 0
-166 -296 0
-166 -401 0
-166 -406 0
-166 -411 0
-166 -416 0
-166 -421 0
-166 -526 0
-166 -531 0
-166 -536 0
-166 -541 0
-166 -546 0
-171 -276 0
-171 -281 0
-171 -286 0
-171 -291 0
-171 -296 0
-171 -401 0
-171 -406 0
-171 -411 0
-171 -416 0
-171 -421 0
-171 -526 0
-171 -531 0
-171 -536 0
-171 -541 0
-171 -546 0
-276 -281 0
-276 -286 0
-276 -291 0
-276 -296 0
-276 -401 0
-276 -406 0
-276 -411 0
-276 -416 0
-276 -421 0
-276 -526 0
-276 -531 0
-276 -536 0
-276 -541 0
-276 -546 0
-281 -286 0
-281 -291 0
-281 -296 0
-281 -401 0
-281 -406 0
-281 -411 0
-281 -416 0
-281 -421 0
-281 -526 0
-281 -531 0
-281 -536 0
-281 -541 0
-281 -546 0
-286 -291 0
-286 -296 0
-286 -401 0
-286 -406 0
-286 -411 0
-286 -416 0
-286 -421 0
-286 -526 0
-286 -531 0
-286 -536 0
-286 -541 0
-286 -546 0
-291 -296 0
-291 -401 0
-291 -406 0
-291 -411 0
-291 -416 0
-291 -421 0
-291 -526 0
-291 -531 0
-291 -536 0
-291 -541 0
-291 -546 0
-296 -401 0
-296 -406 0
-296 -411 0
-296 -416 0
-296 -421 0
-296 -526 0
-296 -531 0
-296 -536 0
-296 -541 0
-296 -546 0
-401 -406 0
-401 -411 0
-401 -416 0
-401 -421 0
-401 -526 0
-401 -531 0
-401 -536 0
-401 -541 0
-401 -546 0
-406 -411 0
-406 -416 0
-406 -421 0
-406 -526 0
-406 -531 0
-406 -536 0
-406 -541 0
-406 -546 0
-411 -416 0
-411 -421 0
-411 -526 0
-411 -531 0
-411 -536 0
-411 -541 0
-411 -546 0
-416 -421 0
-416 -526 0
-416 -531 0
-416 -536 0
-416 -541 0
-416 -546 0
-421 -526 0
-421 -531 0
-421 -536 0
-421 -541 0
-421 -546 0
-526 -531 0
-526 -536 0
-526 -541 0
-526 -546 0
-531 -536 0
-531 -541 0
-531 -546 0
-536 -541 0
-536 -546 0
-541 -546 0
27 32 37 42 47 152 157 162 167 172 277 282 287 292 297 402 407 412 417 422 527 532 537 542 547 0
-27 -32 0
-27 -37 0
-27 -42 0
-27 -47 0
-27 -152 0
-27 -157 0
-27 -162 0
-27 -167 0
-27 -172 0
-27 -277 0
-27 -282 0
-27 -287 0
-27 -292 0
-27 -297 0
-27 -402 0
-27 -407 0
-27 -412 0
-27 -417 0
-27 -422 0
-27 -527 0
-27 -532 0
-27 -537 0
-27 -542 0
-27 -547 0
-32 -37 0
-32 -42 0
-32 -47 0
-32 -152 0
-32 -157 0
-32 -162 0
-32 -167 0
-32 -172 0
-32 -277 0
-32 -282 0
-32 -287 0
-32 -292 0
-32 -297 0
-32 -402 0
-32 -407 0
-32 -412 0
-32 -417 0
-32 -422 0
-32 -527 0
-32 -532 0
-32 -537 0
-32 -542 0
-32 -547 0
-37 -42 0
-37 -47 0
-37 -152 0
-37 -157 0
-37 -162 0
-37 -167 0
-37 -172 0
-37 -277 0
-37 -282 0
-37 -287 0
-37 -292 0
-37 -297 0
-37 -402 0
-37 -407 0
-37 -412 0
-37 -417 0
-37 -422 0
-37 -527 0
-37 -532 0
-37 -537 0
-37 -542 0
-37 -547 0
-42 -47 0
-42 -152 0
-42 -157 0
-42 -162 0
-42 -167 0
-42 -172 0
-42 -277 0
-42 -282 0
-42 -287 0
-42 -292 0
-42 -297 0
-42 -402 0
-42 -407 0
-42 -412 0
-42 -417 0
-42 -422 0
-42 -527 0
-42 -532 0
-42 -537 0
-42 -542 0
-42 -547 0
-47 -152 0
-47 -157 0
-47 -162 0
-47 -167 0
-47 -172 0
-47 -277 0
-47 -282 0
-47 -287 0
-47 -292 0
-47 -297 0
-47 -402 0
-47 -407 0
-47 -412 0
-47 -417 0
-47 -422 0
-47 -527 0
-47 -532 0
-47 -537 0
-47 -542 0
-47 -547 0
-152 -157 0
-152 -162 0
-152 -167 0
-152 -172 0
-152 -277 0
-152 -282 0
-152 -287 0
-152 -292 0
-152 -297 0
-152 -402 0
-152 -407 0
-152 -412 0
-152 -417 0
-152 -422 0
-152 -527 0
-152 -532 0
-152 -537 0
-152 -542 0
-152 -547 0
-157 -162 0
-157 -167 0
-157 -172 0
-157 -277 0
-157 -282 0
-157 -287 0
-157 -292 0
-157 -297 0
-157 -402 0
-157 -407 0
-157 -412 0
-157 -417 0
-157 -422 0
-157 -527 0
-157 -532 0
-157 -537 0
-157 -542 0
-157 -547 0
-162 -167 0
-162 -172 0
-162 -277 0
-162 -282 0
-162 -287 0
-162 -292 0
-162 -297 0
-162 -402 0
-162 -407 0
-162 -412 0
-162 -417 0
-162 -422 0
-162 -527 0
-162 -532 0
-162 -537 0
-162 -542 0
-162 -547 0
-167 -172 0
-167 -277 0
-167 -282 0
-167 -287 0
-167 -292 0
-167 -297 0
-167 -402 0
-167 -407 0
-167 -412 0
-167 -417 0
-167 -422 0
-167 -527 0
-167 -532 0
-167 -537 0
-167 -542 0
-167 -547 0
-172 -277 0
-172 -282 0
-172 -287 0
-172 -292 0
-172 -297 0
-172 -402 0
-172 -407 0
-172 -412 0
-172 -417 0
-172 -422 0
-172 -527 0
-172 -532 0
-172 -537 0
-172 -542 0
-172 -547 0
-277 -282 0
-277 -287 0
-277 -292 0
-277 -297 0
-277 -402 0
-277 -407 0
-277 -412 0
-277 -417 0
-277 -422 0
-277 -527 0
-277 -532 0
-277 -537 0
-277 -542 0
-277 -547 0
-282 -287 0
-282 -292 0
-282 -297 0
-282 -402 0
-282 -407 0
-282 -412 0
-282 -417 0
-282 -422 0
-282 -527 0
-282 -532 0
-282 -537 0
-282 -542 0
-282 -547 0
-287 -292 0
-287 -297 0
-287 -402 0
-287 -407 0
-287 -412 0
-287 -417 0
-287 -422 0
-287 -527 0
-287 -532 0
-287 -537 0
-287 -542 0
-287 -547 0
-292 -297 0
-292 -402 0
-292 -407 0
-292 -412 0
-292 -417 0
-292 -422 0
-292 -527 0
-292 -532 0
-292 -537 0
-292 -542 0
-292 -547 0
-297 -402 0
-297 -407 0
-297 -412 0
-297 -417 0
-297 -422 0
-297 -527 0
-297 -532 0
-297 -537 0
-297 -542 0
-297 -547 0
-402 -407 0
-402 -412 0
-402 -417 0
-402 -422 0
-402 -527 0
-402 -532 0
-402 -537 0
-402 -542 0
-402 -547 0
-407 -412 0
-407 -417 0
-407 -422 0
-407 -527 0
-407 -532 0
-407 -537 0
-407 -542 0
-407 -547 0
-412 -417 0
-412 -422 0
-412 -527 0
-412 -532 0
-412 -537 0
-412 -542 0
-412 -547 0
-417 -422 0
-417 -527 0
-417 -532 0
-417 -537 0
-417 -542 0
-417 -547 0
-422 -527 0
-422 -532 0
-422 -537 0
-422 -542 0
-422 -547 0
-527 -532 0
-527 -537 0
-527 -542 0
-527 -547 0
-532 -537 0
-532 -542 0
-532 -547 0
-537 -542 0
-537 -547 0
-542 -547 0
28 33 38 43 48 153 158 163 168 173 278 283 288 293 298 403 408 413 418 423 528 533 538 543 548 0
-28 -33 0
-28 -38 0
-28 -43 0
-28 -48 0
-28 -153 0
-28 -158 0
-28 -163 0
-28 -168 0
-28 -173 0
-28 -278 0
-28 -283 0
-28 -288 0
-28 -293 0
-28 -298 0
-28 -403 0
-28 -408 0
-28 -413 0
-28 -418 0
-28 -423 0
-28 -528 0
-28 -533 0
-28 -538 0
-28 -543 0
-28 -548 0
-33 -38 0
-33 -43 0
-33 -48 0
-33 -153 0
-33 -158 0
-33 -163 0
-33 -168 0
-33 -173 0
-33 -278 0
-33 -283 0
-33 -288 0
-33 -293 0
-33 -298 0
-33 -403 0
-33 -408 0
-33 -413 0
-33 -418 0
-33 -423 0
-33 -528 0
-33 -533 0
-33 -538 0
-33 -543 0
-33 -548 0
-38 -43 0
-38 -48 0
-38 -153 0
-38 -158 0
-38 -163 0
-38 -168 0
-38 -173 0
-38 -278 0
-38 -283 0
-38 -288 0
-38 -293 0
-38 -298 0
-38 -403 0
-38 -408 0
-38 -413 0
-38 -418 0
-38 -423 0
-38 -528 0
-38 -533 0
-38 -538 0
-38 -543 0
-38 -548 0
-43 -48 0
-43 -153 0
-43 -158 0
-43 -163 0
-43 -168 0
-43 -173 0
-43 -278 0
-43 -283 0
-43 -288 0
-43 -293 0
-43 -298 0
-43 -403 0
-43 -408 0
-43 -413 0
-43 -418 0
-43 -423 0
-43 -528 0
-43 -533 0
-43 -538 0
-43 -543 0
-43 -548 0
-48 -153 0
-48 -158 0
-48 -163 0
-48 -168 0
-48 -173 0
-48 -278 0
-48 -283 0
-48 -288 0
-48 -293 0
-48 -298 0
-48 -403 0
-48 -408 0
-48 -413 0
-48 -418 0
-48 -423 0
-48 -528 0
-48 -533 0
-48 -538 0
-48 -543 0
-48 -548 0
-153 -158 0
-153 -163 0
-153 -168 0
-153 -173 0
-153 -278 0
-153 -283 0
-153 -288 0
-153 -293 0
-153 -298 0
-153 -403 0
-153 -408 0
-153 -413 0
-153 -418 0
-153 -423 0
-153 -528 0
-153 -533 0
-153 -538 0
-153 -543 0
-153 -548 0
-158 -163 0
-158 -168 0
-158 -173 0
-158 -278 0
-158 -283 0
-158 -288 0
-158 -293 0
-158 -298 0
-158 -403 0
-158 -408 0
-158 -413 0
-158 -418 0
-158 -423 0
-158 -528 0
-158 -533 0
-158 -538 0
-158 -543 0
-158 -548 0
-163 -168 0
-163 -173 0
-163 -278 0
-163 -283 0
-163 -288 0
-163 -293 0
-163 -298 0
-163 -403 0
-163 -408 0
-163 -413 0
-163 -418 0
-163 -423 0
-163 -528 0
-163 -533 0
-163 -538 0
-163 -543 0
-163 -548 0
-168 -173 0
-168 -278 0
-168 -283 0
-168 -288 0
-168 -293 0
-168 -298 0
-168 -403 0
-168 -408 0
-168 -413 0
-168 -418 0
-168 -423 0
-168 -528 0
-168 -533 0
-168 -538 0
-168 -543 0
-168 -548 0
-173 -278 0
-173 -283 0
-173 -288 0
-173 -293 0
-173 -298 0
-173 -403 0
-173 -408 0
-173 -413 0
-173 -418 0
-173 -423 0
-173 -528 0
-173 -533 0
-173 -538 0
-173 -543 0
-173 -548 0
-278 -283 0
-278 -288 0
-278 -293 0
-278 -298 0
-278 -403 0
-278 -408 0
-278 -413 0
-278 -418 0
-278 -423 0
-278 -528 0
-278 -533 0
-278 -538 0
-278 -543 0
-278 -548 0
-283 -288 0
-283 -293 0
-283 -298 0
-283 -403 0
-283 -408 0
-283 -413 0
-283 -418 0
-283 -423 0
-283 -528 0
-283 -533 0
-283 -538 0
-283 -543 0
-283 -548 0
-288 -293 0
-288 -298 0
-288 -403 0
-288 -408 0
-288 -413 0
-288 -418 0
-288 -423 0
-288 -528 0
-288 -533 0
-288 -538 0
-288 -543 0
-288 -548 0
-293 -298 0
-293 -403 0
-293 -408 0
-293 -413 0
-293 -418 0
-293 -423 0
-293 -528 0
-293 -533 0
-293 -538 0
-293 -543 0
-293 -548 0
-298 -403 0
-298 -408 0
-298 -413 0
-298 -418 0
-298 -423 0
-298 -528 0
-298 -533 0
-298 -538 0
-298 -543 0
-298 -548 0
-403 -408 0
-403 -413 0
-403 -418 0
-403 -423 0
-403 -528 0
-403 -533 0
-403 -538 0
-403 -543 0
-403 -548 0
-408 -413 0
-408 -418 0
-408 -423 0
-408 -528 0
-408 -533 0
-408 -538 0
-408 -543 0
-408 -548 0
-413 -418 0
-413 -423 0
-413 -528 0
-413 -533 0
-413 -538 0
-413 -543 0
-413 -548 0
-418 -423 0
-418 -528 0
-418 -533 0
-418 -538 0
-418 -543 0
-418 -548 0
-423 -528 0
-423 -533 0
-423 -538 0
-423 -543 0
-423 -548 0
-528 -533 0
-528 -538 0
-528 -543 0
-528 -548 0
-533 -538 0
-533 -543 0
-533 -548 0
-538 -543 0
-538 -548 0
-543 -548 0
29 34 39 44 49 154 159 164 169 174 279 284 289 294 299 404 409 414 419 424 529 534 539 544 549 0
-29 -34 0
-29 -39 0
-29 -44 0
-29 -49 0
-29 -154 0
-29 -159 0
-29 -164 0
-29 -169 0
-29 -174 0
-29 -279 0
-29 -284 0
-29 -289 0
-29 -294 0
-29 -299 0
-29 -404 0
-29 -409 0
-29 -414 0
-29 -419 0
-29 -424 0
-29 -529 0
-29 -534 0
-29 -539 0
-29 -544 0
-29 -549 0
-34 -39 0
-34 -44 0
-34 -49 0
-34 -154 0
-34 -159 0
-34 -164 0
-34 -169 0
-34 -174 0
-34 -279 0
-34 -284 0
-34 -289 0
-34 -294 0
-34 -299 0
-34 -404 0
-34 -409 0
-34 -414 0
-34 -419 0
-34 -424 0
-34 -529 0
-34 -534 0
-34 -539 0
-34 -544 0
-34 -549 0
-39 -44 0
-39 -49 0
-39 -154 0
-39 -159 0
-39 -164 0
-39 -169 0
-39 -174 0
-39 -279 0
-39 -284 0
-39 -289 0
-39 -294 0
-39 -299 0
-39 -404 0
-39 -409 0
-39 -414 0
-39 -419 0
-39 -424 0
-39 -529 0
-39 -534 0
-39 -539 0
-39 -544 0
-39 -549 0
-44 -49 0
-44 -154 0
-44 -159 0
-44 -164 0
-44 -169 0
-44 -174 0
-44 -279 0
-44 -284 0
-44 -289 0
-44 -294 0
-44 -299 0
-44 -404 0
-44 -409 0
-44 -414 0
-44 -419 0
-44 -424 0
-44 -529 0
-44 -534 0
-44 -539 0
-44 -544 0
-44 -549 0
-49 -154 0
-49 -159 0
-49 -164 0
-49 -169 0
-49 -174 0
-49 -279 0
-49 -284 0
-49 -289 0
-49 -294 0
-49 -299 0
-49 -404 0
-49 -409 0
-49 -414 0
-49 -419 0
-49 -424 0
-49 -529 0
-49 -534 0
-49 -539 0
-49 -544 0
-49 -549 0
-154 -159 0
-154 -164 0
-154 -169 0
-154 -174 0
-154 -279 0
-154 -284 0
-154 -289 0
-154 -294 0
-154 -299 0
-154 -404 0
-154 -409 0
-154 -414 0
-154 -419 0
-154 -424 0
-154 -529 0
-154 -534 0
-154 -539 0
-154 -544 0
-154 -549 0
-159 -164 0
-159 -169 0
-159 -174 0
-159 -279 0
-159 -284 0
-159 -289 0
-159 -294 0
-159 -299 0
-159 -404 0
-159 -409 0
-159 -414 0
-159 -419 0
-159 -424 0
-159 -529 0
-159 -534 0
-159 -539 0
-159 -544 0
-159 -549 0
-164 -169 0
-164 -174 0
-164 -279 0
-164 -284 0
-164 -289 0
-164 -294 0
-164 -299 0
-164 -404 0
-164 -409 0
-164 -414 0
-164 -419 0
-164 -424 0
-164 -529 0
-164 -534 0
-164 -539 0
-164 -544 0
-164 -549 0
-169 -174 0
-169 -279 0
-169 -284 0
-169 -289 0
-169 -294 0
-169 -299 0
-169 -404 0
-169 -409 0
-169 -414 0
-169 -419 0
-169 -424 0
-169 -529 0
-169 -534 0
-169 -539 0
-169 -544 0
-169 -549 0
-174 -279 0
-174 -284 0
-174 -289 0
-174 -294 0
-174 -299 0
-174 -404 0
-174 -409 0
-174 -414 0
-174 -419 0
-174 -424 0
-174 -529 0
-174 -534 0
-174 -539 0
-174 -544 0
-174 -549 0
-279 -284 0
-279 -289 0
-279 -294 0
-279 -299 0
-279 -404 0
-279 -409 0
-279 -414 0
-279 -419 0
-279 -424 0
-279 -529 0
-279 -534 0
-279 -539 0
-279 -544 0
-279 -549 0
-284 -289 0
-284 -294 0
-284 -299 0
-284 -404 0
-284 -409 0
-284 -414 0
-284 -419 0
-284 -424 0
-284 -529 0
-284 -534 0
-284 -539 0
-284 -544 0
-284 -549 0
-289 -294 0
-289 -299 0
-289 -404 0
-289 -409 0
-289 -414 0
-289 -419 0
-289 -424 0
-289 -529 0
-289 -534 0
-289 -539 0
-289 -544 0
-289 -549 0
-294 -299 0
-294 -404 0
-294 -409 0
-294 -414 0
-294 -419 0
-294 -424 0
-294 -529 0
-294 -534 0
-294 -539 0
-294 -544 0
-294 -549 0
-299 -404 0
-299 -409 0
-299 -414 0
-299 -419 0
-299 -424 0
-299 -529 0
-299 -534 0
-299 -539 0
-299 -544 0
-299 -549 0
-404 -409 0
-404 -414 0
-404 -419 0
-404 -424 0
-404 -529 0
-404 -534 0
-404 -539 0
-404 -544 0
-404 -549 0
-409 -414 0
-409 -419 0
-409 -424 0
-409 -529 0
-409 -534 0
-409 -539 0
-409 -544 0
-409 -549 0
-414 -419 0
-414 -424 0
-414 -529 0
-414 -534 0
-414 -539 0
-414 -544 0
-414 -549 0
-419 -424 0
-419 -529 0
-419 -534 0
-419 -539 0
-419 -544 0
-419 -549 0
-424 -529 0
-424 -534 0
-424 -539 0
-424 -544 0
-424 -549 0
-529 -534 0
-529 -539 0
-529 -544 0
-529 -549 0
-534 -539 0
-534 -544 0
-534 -549 0
-539 -544 0
-539 -549 0
-544 -549 0
30 35 40 45 50 155 160 165 170 175 280 285 290 295 300 405 410 415 420 425 530 535 540 545 550 0
-30 -35 0
-30 -40 0
-30 -45 0
-30 -50 0
-30 -155 0
-30 -160 0
-30 -165 0
-30 -170 0
-30 -175 0
-30 -280 0
-30 -285 0
-30 -290 0
-30 -295 0
-30 -300 0
-30 -405 0
-30 -410 0
-30 -415 0
-30 -420 0
-30 -425 0
-30 -530 0
-30 -535 0
-30 -540 0
-30 -545 0
-30 -550 0
-35 -40 0
-35 -45 0
-35 -50 0
-35 -155 0
-35 -160 0
-35 -165 0
-35 -170 0
-35 -175 0
-35 -280 0
-35 -285 0
-35 -290 0
-35 -295 0
-35 -300 0
-35 -405 0
-35 -410 0
-35 -415 0
-35 -420 0
-35 -425 0
-35 -530 0
-35 -535 0
-35 -540 0
-35 -545 0
-35 -550 0
-40 -45 0
-40 -50 0
-40 -155 0
-40 -160 0
-40 -165 0
-40 -170 0
-40 -175 0
-40 -280 0
-40 -285 0
-40 -290 0
-40 -295 0
-40 -300 0
-40 -405 0
-40 -410 0
-40 -415 0
-40 -420 0
-40 -425 0
-40 -530 0
-40 -535 0
-40 -540 0
-40 -545 0
-40 -550 0
-45 -50 0
-45 -155 0
-45 -160 0
-45 -165 0
-45 -170 0
-45 -175 0
-45 -280 0
-45 -285 0
-45 -290 0
-45 -295 0
-45 -300 0
-45 -405 0
-45 -410 0
-45 -415 0
-45 -420 0
-45 -425 0
-45 -530 0
-45 -535 0
-45 -540 0
-45 -545 0
-45 -550 0
-50 -155 0
-50 -160 0
-50 -165 0
-50 -170 0
-50 -175 0
-50 -280 0
-50 -285 0
-50 -290 0
-50 -295 0
-50 -300 0
-50 -405 0
-50 -410 0
-50 -415 0
-50 -420 0
-50 -425 0
-50 -530 0
-50 -535 0
-50 -540 0
-50 -545 0
-50 -550 0
-155 -160 0
-155 -165 0
-155 -170 0
-155 -175 0
-155 -280 0
-155 -285 0
-155 -290 0
-155 -295 0
-155 -300 0
-155 -405 0
-155 -410 0
-155 -415 0
-155 -420 0
-155 -425 0
-155 -530 0
-155 -535 0
-155 -540 0
-155 -545 0
-155 -550 0
-160 -165 0
-160 -170 0
-160 -175 0
-160 -280 0
-160 -285 0
-160 -290 0
-160 -295 0
-160 -300 0
-160 -405 0
-160 -410 0
-160 -415 0
-160 -420 0
-160 -425 0
-160 -530 0
-160 -535 0
-160 -540 0
-160 -545 0
-160 -550 0
-165 -170 0
-165 -175 0
-165 -280 0
-165 -285 0
-165 -290 0
-165 -295 0
-165 -300 0
-165 -405 0
-165 -410 0
-165 -415 0
-165 -420 0
-165 -425 0
-165 -530 0
-165 -535 0
-165 -540 0
-165 -545 0
-165 -550 0
-170 -175 0
-170 -280 0
-170 -285 0
-170 -290 0
-170 -295 0
-170 -300 0
-170 -405 0
-170 -410 0
-170 -415 0
-170 -420 0
-170 -425 0
-170 -530 0
-170 -535 0
-170 -540 0
-170 -545 0
-170 -550 0
-175 -280 0
-175 -285 0
-175 -290 0
-175 -295 0
-175 -300 0
-175 -405 0
-175 -410 0
-175 -415 0
-175 -420 0
-175 -425 0
-175 -530 0
-175 -535 0
-175 -540 0
-175 -545 0
-175 -550 0
-280 -285 0
-280 -290 0
-280 -295 0
-280 -300 0
-280 -405 0
-280 -410 0
-280 -415 0
-280 -420 0
-280 -425 0
-280 -530 0
-280 -535 0
-280 -540 0
-280 -545 0
-280 -550 0
-285 -290 0
-285 -295 0
-285 -300 0
-285 -405 0
-285 -410 0
-285 -415 0
-285 -420 0
-285 -425 0
-285 -530 0
-285 -535 0
-285 -540 0
-285 -545 0
-285 -550 0
-290 -295 0
-290 -300 0
-290 -405 0
-290 -410 0
-290 -415 0
-290 -420 0
-290 -425 0
-290 -530 0
-290 -535 0
-290 -540 0
-290 -545 0
-290 -550 0
-295 -300 0
-295 -405 0
-295 -410 0
-295 -415 0
-295 -420 0
-295 -425 0
-295 -530 0
-295 -535 0
-295 -540 0
-295 -545 0
-295 -550 0
-300 -405 0
-300 -410 0
-300 -415 0
-300 -420 0
-300 -425 0
-300 -530 0
-300 -535 0
-300 -540 0
-300 -545 0
-300 -550 0
-405 -410 0
-405 -415 0
-405 -420 0
-405 -425 0
-405 -530 0
-405 -535 0
-405 -540 0
-405 -545 0
-405 -550 0
-410 -415 0
-410 -420 0
-410 -425 0
-410 -530 0
-410 -535 0
-410 -540 0
-410 -545 0
-410 -550 0
-415 -420 0
-415 -425 0
-415 -530 0
-415 -535 0
-415 -540 0
-415 -545 0
-415 -550 0
-420 -425 0
-420 -530 0
-420 -535 0
-420 -540 0
-420 -545 0
-420 -550 0
-425 -530 0
-425 -535 0
-425 -540 0
-425 -545 0
-425 -550 0
-530 -535 0
-530 -540 0
-530 -545 0
-530 -550 0
-535 -540 0
-535 -545 0
-535 -550 0
-540 -545 0
-540 -550 0
-545 -550 0
51 56 61 66 71 176 181 186 191 196 301 306 311 316 321 426 431 436 441 446 551 556 561 566 571 0
-51 -56 0
-51 -61 0
-51 -66 0
-51 -71 0
-51 -176 0
-51 -181 0
-51 -186 0
-51 -191 0
-51 -196 0
-51 -301 0
-51 -306 0
-51 -311 0
-51 -316 0
-51 -321 0
-51 -426 0
-51 -431 0
-51 -436 0
-51 -441 0
-51 -446 0
-51 -551 0
-51 -556 0
-51 -561 0
-51 -566 0
-51 -571 0
-56 -61 0
-56 -66 0
-56 -71 0
-56 -176 0
-56 -181 0
-56 -186 0
-56 -191 0
-56 -196 0
-56 -301 0
-56 -306 0
-56 -311 0
-56 -316 0
-56 -321 0
-56 -426 0
-56 -431 0
-56 -436 0
-56 -441 0
-56 -446 0
-56 -551 0
-56 -556 0
-56 -561 0
-56 -566 0
-56 -571 0
-61 -66 0
-61 -71 0
-61 -176 0
-61 -181 0
-61 -186 0
-61 -191 0
-61 -196 0
-61 -301 0
-61 -306 0
-61 -311 0
-61 -316 0
-61 -321 0
-61 -426 0
-61 -431 0
-61 -436 0
-61 -441 0
-61 -446 0
-61 -551 0
-61 -556 0
-61 -561 0
-61 -566 0
-61 -571 0
-66 -71 0
-66 -176 0
-66 -181 0
-66 -186 0
-66 -191 0
-66 -196 0
-66 -301 0
-66 -306 0
-66 -311 0
-66 -316 0
-66 -321 0
-66 -426 0
-66 -431 0
-66 -436 0
-66 -441 0
-66 -446 0
-66 -551 0
-66 -556 0
-66 -561 0
-66 -566 0
-66 -571 0
-71 -176 0
-71 -181 0
-71 -186 0
-71 -191 0
-71 -196 0
-71 -301 0
-71 -306 0
-71 -311 0
-71 -316 0
-71 -321 0
-71 -426 0
-71 -431 0
-71 -436 0
-71 -441 0
-71 -446 0
-71 -551 0
-71 -556 0
-71 -561 0
-71 -566 0
-71 -571 0
-176 -181 0
-176 -186 0
-176 -191 0
-176 -196 0
-176 -301 0
-176 -306 0
-176 -311 0
-176 -316 0
-176 -321 0
-176 -426 0
-176 -431 0
-176 -436 0
-176 -441 0
-176 -446 0
-176 -551 0
-176 -556 0
-176 -561 0
-176 -566 0
-176 -571 0
-181 -186 0
-181 -191 0
-181 -196 0
-181 -301 0
-181 -306 0
-181 -311 0
-181 -316 0
-181 -321 0
-181 -426 0
-181 -431 0
-181 -436 0
-181 -441 0
-181 -446 0
-181 -551 0
-181 -556 0
-181 -561 0
-181 -566 0
-181 -571 0
-186 -191 0
-186 -196 0
-186 -301 0
-186 -306 0
-186 -311 0
-186 -316 0
-186 -321 0
-186 -426 0
-186 -431 0
-186 -436 0
-186 -441 0
-186 -446 0
-186 -551 0
-186 -556 0
-186 -561 0
-186 -566 0
-186 -571 0
-191 -196 0
-191 -301 0
-191 -306 0
-191 -311 0
-191 -316 0
-191 -321 0
-191 -426 0
-191 -431 0
-191 -436 0
-191 -441 0
-191 -446 0
-191 -551 0
-191 -556 0
-191 -561 0
-191 -566 0
-191 -571 0
-196 -301 0
-196 -306 0
-196 -311 0
-196 -316 0
-196 -321 0
-196 -426 0
-196 -431 0
-196 -436 0
-196 -441 0
-196 -446 0
-196 -551 0
-196 -556 0
-196 -561 0
-196 -566 0
-196 -571 0
-301 -306 0
-301 -311 0
-301 -316 0
-301 -321 0
-301 -426 0
-301 -431 0
-301 -436 0
-301 -441 0
-301 -446 0
-301 -551 0
-301 -556 0
-301 -561 0
-301 -566 0
-301 -571 0
-306 -311 0
-306 -316 0
-306 -321 0
-306 -426 0
-306 -431 0
-306 -436 0
-306 -441 0
-306 -446 0
-306 -551 0
-306 -556 0
-306 -561 0
-306 -566 0
-306 -571 0
-311 -316 0
-311 -321 0
-311 -426 0
-311 -431 0
-311 -436 0
-311 -441 0
-311 -446 0
-311 -551 0
-311 -556 0
-311 -561 0
-311 -566 0
-311 -571 0
-316 -321 0
-316 -426 0
-316 -431 0
-316 -436 0
-316 -441 0
-316 -446 0
-316 -551 0
-316 -556 0
-316 -561 0
-316 -566 0
-316 -571 0
-321 -426 0
-321 -431 0
-321 -436 0
-321 -441 0
-321 -446 0
-321 -551 0
-321 -556 0
-321 -561 0
-321 -566 0
-321 -571 0
-426 -431 0
-426 -436 0
-426 -441 0
-426 -446 0
-426 -551 0
-426 -556 0
-426 -561 0
-426 -566 0
-426 -571 0
-431 -436 0
-431 -441 0
-431 -446 0
-431 -551 0
-431 -556 0
-431 -561 0
-431 -566 0
-431 -571 0
-436 -441 0
-436 -446 0
-436 -551 0
-436 -556 0
-436 -561 0
-436 -566 0
-436 -571 0
-441 -446 0
-441 -551 0
-441 -556 0
-441 -561 0
-441 -566 0
-441 -571 0
-446 -551 0
-446 -556 0
-446 -561 0
-446 -566 0
-446 -571 0
-551 -556 0
-551 -561 0
-551 -566 0
-551 -571 0
-556 -561 0
-556 -566 0
-556 -571 0
-561 -566 0
-561 -571 0
-566 -571 0
52 57 62 67 72 177 182 187 192 197 302 307 312 317 322 427 432 437 442 447 552 557 562 567 572 0
-52 -57 0
-52 -62 0
-52 -67 0
-52 -72 0
-52 -177 0
-52 -182 0
-52 -187 0
-52 -192 0
-52 -197 0
-52 -302 0
-52 -307 0
-52 -312 0
-52 -317 0
-52 -322 0
-52 -427 0
-52 -432 0
-52 -437 0
-52 -442 0
-52 -447 0
-52 -552 0
-52 -557 0
-52 -562 0
-52 -567 0
-52 -572 0
-57 -62 0
-57 -67 0
-57 -72 0
-57 -177 0
-57 -182 0
-57 -187 0
-57 -192 0
-57 -197 0
-57 -302 0
-57 -307 0
-57 -312 0
-57 -317 0
-57 -322 0
-57 -427 0
-57 -432 0
-57 -437 0
-57 -442 0
-57 -447 0
-57 -552 0
-57 -557 0
-57 -562 0
-57 -567 0
-57 -572 0
-62 -67 0
-62 -72 0
-62 -177 0
-62 -182 0
-62 -187 0
-62 -192 0
-62 -197 0
-62 -302 0
-62 -307 0
-62 -312 0
-62 -317 0
-62 -322 0
-62 -427 0
-62 -432 0
-62 -437 0
-62 -442 0
-62 -447 0
-62 -552 0
-62 -557 0
-62 -562 0
-62 -567 0
-62 -572 0
-67 -72 0
-67 -177 0
-67 -182 0
-67 -187 0
-67 -192 0
-67 -197 0
-67 -302 0
-67 -307 0
-67 -312 0
-67 -317 0
-67 -322 0
-67 -427 0
-67 -432 0
-67 -437 0
-67 -442 0
-67 -447 0
-67 -552 0
-67 -557 0
-67 -562 0
-67 -567 0
-67 -572 0
-72 -177 0
-72 -182 0
-72 -187 0
-72 -192 0
-72 -197 0
-72 -302 0
-72 -307 0
-72 -312 0
-72 -317 0
-72 -322 0
-72 -427 0
-72 -432 0
-72 -437 0
-72 -442 0
-72 -447 0
-72 -552 0
-72 -557 0
-72 -562 0
-72 -567 0
-72 -572 0
-177 -182 0
-177 -187 0
-177 -192 0
-177 -197 0
-177 -302 0
-177 -307 0
-177 -312 0
-177 -317 0
-177 -322 0
-177 -427 0
-177 -432 0
-177 -437 0
-177 -442 0
-177 -447 0
-177 -552 0
-177 -557 0
-177 -562 0
-177 -567 0
-177 -572 0
-182 -187 0
-182 -192 0
-182 -197 0
-182 -302 0
-182 -307 0
-182 -312 0
-182 -317 0
-182 -322 0
-182 -427 0
-182 -432 0
-182 -437 0
-182 -442 0
-182 -447 0
-182 -552 0
-182 -557 0
-182 -562 0
-182 -567 0
-182 -572 0
-187 -192 0
-187 -197 0
-187 -302 0
-187 -307 0
-187 -312 0
-187 -317 0
-187 -322 0
-187 -427 0
-187 -432 0
-187 -437 0
-187 -442 0
-187 -447 0
-187 -552 0
-187 -557 0
-187 -562 0
-187 -567 0
-187 -572 0
-192 -197 0
-192 -302 0
-192 -307 0
-192 -312 0
-192 -317 0
-192 -322 0
-192 -427 0
-192 -432 0
-192 -437 0
-192 -442 0
-192 -447 0
-192 -552 0
-192 -557 0
-192 -562 0
-192 -567 0
-192 -572 0
-197 -302 0
-197 -307 0
-197 -312 0
-197 -317 0
-197 -322 0
-197 -427 0
-197 -432 0
-197 -437 0
-197 -442 0
-197 -447 0
-197 -552 0
-197 -557 0
-197 -562 0
-197 -567 0
-197 -572 0
-302 -307 0
-302 -312 0
-302 -317 0
-302 -322 0
-302 -427 0
-302 -432 0
-302 -437 0
-302 -442 0
-302 -447 0
-302 -552 0
-302 -557 0
-302 -562 0
-302 -567 0
-302 -572 0
-307 -312 0
-307 -317 0
-307 -322 0
-307 -427 0
-307 -432 0
-307 -437 0
-307 -442 0
-307 -447 0
-307 -552 0
-307 -557 0
-307 -562 0
-307 -567 0
-307 -572 0
-312 -317 0
-312 -322 0
-312 -427 0
-312 -432 0
-312 -437 0
-312 -442 0
-312 -447 0
-312 -552 0
-312 -557 0
-312 -562 0
-312 -567 0
-312 -572 0
-317 -322 0
-317 -427 0
-317 -432 0
-317 -437 0
-317 -442 0
-317 -447 0
-317 -552 0
-317 -557 0
-317 -562 0
-317 -567 0
-317 -572 0
-322 -427 0
-322 -432 0
-322 -437 0
-322 -442 0
-322 -447 0
-322 -552 0
-322 -557 0
-322 -562 0
-322 -567 0
-322 -572 0
-427 -432 0
-427 -437 0
-427 -442 0
-427 -447 0
-427 -552 0
-427 -557 0
-427 -562 0
-427 -567 0
-427 -572 0
-432 -437 0
-432 -442 0
-432 -447 0
-432 -552 0
-432 -557 0
-432 -562 0
-432 -567 0
-432 -572 0
-437 -442 0
-437 -447 0
-437 -552 0
-437 -557 0
-437 -562 0
-437 -567 0
-437 -572 0
-442 -447 0
-442 -552 0
-442 -557 0
-442 -562 0
-442 -567 0
-442 -572 0
-447 -552 0
-447 -557 0
-447 -562 0
-447 -567 0
-447 -572 0
-552 -557 0
-552 -562 0
-552 -567 0
-552 -572 0
-557 -562 0
-557 -567 0
-557 -572 0
-562 -567 0
-562 -572 0
-567 -572 0
53 58 63 68 73 178 183 188 193 198 303 308 313 318 323 428 433 438 443 448 553 558 563 568 573 0
-53 -58 0
-53 -63 0
-53 -68 0
-53 -73 0
-53 -178 0
-53 -183 0
-53 -188 0
-53 -193 0
-53 -198 0
-53 -303 0
-53 -308 0
-53 -313 0
-53 -318 0
-53 -323 0
-53 -428 0
-53 -433 0
-53 -438 0
-53 -443 0
-53 -448 0
-53 -553 0
-53 -558 0
-53 -563 0
-53 -568 0
-53 -573 0
-58 -63 0
-58 -68 0
-58 -73 0
-58 -178 0
-58 -183 0
-58 -188 0
-58 -193 0
-58 -198 0
-58 -303 0
-58 -308 0
-58 -313 0
-58 -318 0
-58 -323 0
-58 -428 0
-58 -433 0
-58 -438 0
-58 -443 0
-58 -448 0
-58 -553 0
-58 -558 0
-58 -563 0
-58 -568 0
-58 -573 0
-63 -68 0
-63 -73 0
-63 -178 0
-63 -183 0
-63 -188 0
-63 -193 0
-63 -198 0
-63 -303 0
-63 -308 0
-63 -313 0
-63 -318 0
-63 -323 0
-63 -428 0
-63 -433 0
-63 -438 0
-63 -443 0
-63 -448 0
-63 -553 0
-63 -558 0
-63 -563 0
-63 -568 0
-63 -573 0
-68 -73 0
-68 -178 0
-68 -183 0
-68 -188 0
-68 -193 0
-68 -198 0
-68 -303 0
-68 -308 0
-68 -313 0
-68 -318 0
-68 -323 0
-68 -428 0
-68 -433 0
-68 -438 0
-68 -443 0
-68 -448 0
-68 -553 0
-68 -558 0
-68 -563 0
-68 -568 0
-68 -573 0
-73 -178 0
-73 -183 0
-73 -188 0
-73 -193 0
-73 -198 0
-73 -303 0
-73 -308 0
-73 -313 0
-73 -318 0
-73 -323 0
-73 -428 0
-73 -433 0
-73 -438 0
-73 -443 0
-73 -448 0
-73 -553 0
-73 -558 0
-73 -563 0
-73 -568 0
-73 -573 0
-178 -183 0
-178 -188 0
-178 -193 0
-178 -198 0
-178 -303 0
-178 -308 0
-178 -313 0
-178 -318 0
-178 -323 0
-178 -428 0
-178 -433 0
-178 -438 0
-178 -443 0
-178 -448 0
-178 -553 0
-178 -558 0
-178 -563 0
-178 -568 0
-178 -573 0
-183 -188 0
-183 -193 0
-183 -198 0
-183 -303 0
-183 -308 0
-183 -313 0
-183 -318 0
-183 -323 0
-183 -428 0
-183 -433 0
-183 -438 0
-183 -443 0
-183 -448 0
-183 -553 0
-183 -558 0
-183 -563 0
-183 -568 0
-183 -573 0
-188 -193 0
-188 -198 0
-188 -303 0
-188 -308 0
-188 -313 0
-188 -318 0
-188 -323 0
-188 -428 0
-188 -433 0
-188 -438 0
-188 -443 0
-188 -448 0
-188 -553 0
-188 -558 0
-188 -563 0
-188 -568 0
-188 -573 0
-193 -198 0
-193 -303 0
-193 -308 0
-193 -313 0
-193 -318 0
-193 -323 0
-193 -428 0
-193 -433 0
-193 -438 0
-193 -443 0
-193 -448 0
-193 -553 0
-193 -558 0
-193 -563 0
-193 -568 0
-193 -573 0
-198 -303 0
-198 -308 0
-198 -313 0
-198 -318 0
-198 -323 0
-198 -428 0
-198 -433 0
-198 -438 0
-198 -443 0
-198 -448 0
-198 -553 0
-198 -558 0
-198 -563 0
-198 -568 0
-198 -573 0
-303 -308 0
-303 -313 0
-303 -318 0
-303 -323 0
-303 -428 0
-303 -433 0
-303 -438 0
-303 -443 0
-303 -448 0
-303 -553 0
-303 -558 0
-303 -563 0
-303 -568 0
-303 -573 0
-308 -313 0
-308 -318 0
-308 -323 0
-308 -428 0
-308 -433 0
-308 -438 0
-308 -443 0
-308 -448 0
-308 -553 0
-308 -558 0
-308 -563 0
-308 -568 0
-308 -573 0
-313 -318 0
-313 -323 0
-313 -428 0
-313 -433 0
-313 -438 0
-313 -443 0
-313 -448 0
-313 -553 0
-313 -558 0
-313 -563 0
-313 -568 0
-313 -573 0
-318 -323 0
-318 -428 0
-318 -433 0
-318 -438 0
-318 -443 0
-318 -448 0
-318 -553 0
-318 -558 0
-318 -563 0
-318 -568 0
-318 -573 0
-323 -428 0
-323 -433 0
-323 -438 0
-323 -443 0
-323 -448 0
-323 -553 0
-323 -558 0
-323 -563 0
-323 -568 0
-323 -573 0
-428 -433 0
-428 -438 0
-428 -443 0
-428 -448 0
-428 -553 0
-428 -558 0
-428 -563 0
-428 -568 0
-428 -573 0
-433 -438 0
-433 -443 0
-433 -448 0
-433 -553 0
-433 -558 0
-433 -563 0
-433 -568 0
-433 -573 0
-438 -443 0
-438 -448 0
-438 -553 0
-438 -558 0
-438 -563 0
-438 -568 0
-438 -573 0
-443 -448 0
-443 -553 0
-443 -558 0
-443 -563 0
-443 -568 0
-443 -573 0
-448 -553 0
-448 -558 0
-448 -563 0
-448 -568 0
-448 -573 0
-553 -558 0
-553 -563 0
-553 -568 0
-553 -573 0
-558 -563 0
-558 -568 0
-558 -573 0
-563 -568 0
-563 -573 0
-568 -573 0
54 59 64 69 74 179 184 189 194 199 304 309 314 319 324 429 434 439 444 449 554 559 564 569 574 0
-54 -59 0
-54 -64 0
-54 -69 0
-54 -74 0
-54 -179 0
-54 -184 0
-54 -189 0
-54 -194 0
-54 -199 0
-54 -304 0
-54 -309 0
-54 -314 0
-54 -319 0
-54 -324 0
-54 -429 0
-54 -434 0
-54 -439 0
-54 -444 0
-54 -449 0
-54 -554 0
-54 -559 0
-54 -564 0
-54 -569 0
-54 -574 0
-59 -64 0
-59 -69 0
-59 -74 0
-59 -179 0
-59 -184 0
-59 -189 0
-59 -194 0
-59 -199 0
-59 -304 0
-59 -309 0
-59 -314 0
-59 -319 0
-59 -324 0
-59 -429 0
-59 -434 0
-59 -439 0
-59 -444 0
-59 -449 0
-59 -554 0
-59 -559 0
-59 -564 0
-59 -569 0
-59 -574 0
-64 -69 0
-64 -74 0
-64 -179 0
-64 -184 0
-64 -189 0
-64 -194 0
-64 -199 0
-64 -304 0
-64 -309 0
-64 -314 0
-64 -319 0
-64 -324 0
-64 -429 0
-64 -434 0
-64 -439 0
-64 -444 0
-64 -449 0
-64 -554 0
-64 -559 0
-64 -564 0
-64 -569 0
-64 -574 0
-69 -74 0
-69 -179 0
-69 -184 0
-69 -189 0
-69 -194 0
-69 -199 0
-69 -304 0
-69 -309 0
-69 -314 0
-69 -319 0
-69 -324 0
-69 -429 0
-69 -434 0
-69 -439 0
-69 -444 0
-69 -449 0
-69 -554 0
-69 -559 0
-69 -564 0
-69 -569 0
-69 -574 0
-74 -179 0
-74 -184 0
-74 -189 0
-74 -194 0
-74 -199 0
-74 -304 0
-74 -309 0
-74 -314 0
-74 -319 0
-74 -324 0
-74 -429 0
-74 -434 0
-74 -439 0
-74 -444 0
-74 -449 0
-74 -554 0
-74 -559 0
-74 -564 0
-74 -569 0
-74 -574 0
-179 -184 0
-179 -189 0
-179 -194 0
-179 -199 0
-179 -304 0
-179 -309 0
-179 -314 0
-179 -319 0
-179 -324 0
-179 -429 0
-179 -434 0
-179 -439 0
-179 -444 0
-179 -449 0
-179 -554 0
-179 -559 0
-179 -564 0
-179 -569 0
-179 -574 0
-184 -189 0
-184 -194 0
-184 -199 0
-184 -304 0
-184 -309 0
-184 -314 0
-184 -319 0
-184 -324 0
-184 -429 0
-184 -434 0
-184 -439 0
-184 -444 0
-184 -449 0
-184 -554 0
-184 -559 0
-184 -564 0
-184 -569 0
-184 -574 0
-189 -194 0
-189 -199 0
-189 -304 0
-189 -309 0
-189 -314 0
-189 -319 0
-189 -324 0
-189 -429 0
-189 -434 0
-189 -439 0
-189 -444 0
-189 -449 0
-189 -554 0
-189 -559 0
-189 -564 0
-189 -569 0
-189 -574 0
-194 -199 0
-194 -304 0
-194 -309 0
-194 -314 0
-194 -319 0
-194 -324 0
-194 -429 0
-194 -434 0
-194 -439 0
-194 -444 0
-194 -449 0
-194 -554 0
-194 -559 0
-194 -564 0
-194 -569 0
-194 -574 0
-199 -304 0
-199 -309 0
-199 -314 0
-199 -319 0
-199 -324 0
-199 -429 0
-199 -434 0
-199 -439 0
-199 -444 0
-199 -449 0
-199 -554 0
-199 -559 0
-199 -564 0
-199 -569 0
-199 -574 0
-304 -309 0
-304 -314 0
-304 -319 0
-304 -324 0
-304 -429 0
-304 -434 0
-304 -439 0
-304 -444 0
-304 -449 0
-304 -554 0
-304 -559 0
-304 -564 0
-304 -569 0
-304 -574 0
-309 -314 0
-309 -319 0
-309 -324 0
-309 -429 0
-309 -434 0
-309 -439 0
-309 -444 0
-309 -449 0
-309 -554 0
-309 -559 0
-309 -564 0
-309 -569 0
-309 -574 0
-314 -319 0
-314 -324 0
-314 -429 0
-314 -434 0
-314 -439 0
-314 -444 0
-314 -449 0
-314 -554 0
-314 -559 0
-314 -564 0
-314 -569 0
-314 -574 0
-319 -324 0
-319 -429 0
-319 -434 0
-319 -439 0
-319 -444 0
-319 -449 0
-319 -554 0
-319 -559 0
-319 -564 0
-319 -569 0
-319 -574 0
-324 -429 0
-324 -434 0
-324 -439 0
-324 -444 0
-324 -449 0
-324 -554 0
-324 -559 0
-324 -564 0
-324 -569 0
-324 -574 0
-429 -434 0
-429 -439 0
-429 -444 0
-429 -449 0
-429 -554 0
-429 -559 0
-429 -564 0
-429 -569 0
-429 -574 0
-434 -439 0
-434 -444 0
-434 -449 0
-434 -554 0
-434 -559 0
-434 -564 0
-434 -569 0
-434 -574 0
-439 -444 0
-439 -449 0
-439 -554 0
-439 -559 0
-439 -564 0
-439 -569 0
-439 -574 0
-444 -449 0
-444 -554 0
-444 -559 0
-444 -564 0
-444 -569 0
-444 -574 0
-449 -554 0
-449 -559 0
-449 -564 0
-449 -569 0
-449 -574 0
-554 -559 0
-554 -564 0
-554 -569 0
-554 -574 0
-559 -564 0
-559 -569 0
-559 -574 0
-564 -569 0
-564 -574 0
-569 -574 0
55 60 65 70 75 180 185 190 195 200 305 310 315 320 325 430 435 440 445 450 555 560 565 570 575 0
-55 -60 0
-55 -65 0
-55 -70 0
-55 -75 0
-55 -180 0
-55 -185 0
-55 -190 0
-55 -195 0
-55 -200 0
-55 -305 0
-55 -310 0
-55 -315 0
-55 -320 0
-55 -325 0
-55 -430 0
-55 -435 0
-55 -440 0
-55 -445 0
-55 -450 0
-55 -555 0
-55 -560 0
-55 -565 0
-55 -570 0
-55 -575 0
-60 -65 0
-60 -70 0
-60 -75 0
-60 -180 0
-60 -185 0
-60 -190 0
-60 -195 0
-60 -200 0
-60 -305 0
-60 -310 0
-60 -315 0
-60 -320 0
-60 -325 0
-60 -430 0
-60 -435 0
-60 -440 0
-60 -445 0
-60 -450 0
-60 -555 0
-60 -560 0
-60 -565 0
-60 -570 0
-60 -575 0
-65 -70 0
-65 -75 0
-65 -180 0
-65 -185 0
-65 -190 0
-65 -195 0
-65 -200 0
-65 -305 0
-65 -310 0
-65 -315 0
-65 -320 0
-65 -325 0
-65 -430 0
-65 -435 0
-65 -440 0
-65 -445 0
-65 -450 0
-65 -555 0
-65 -560 0
-65 -565 0
-65 -570 0
-65 -575 0
-70 -75 0
-70 -180 0
-70 -185 0
-70 -190 0
-70 -195 0
-70 -200 0
-70 -305 0
-70 -310 0
-70 -315 0
-70 -320 0
-70 -325 0
-70 -430 0
-70 -435 0
-70 -440 0
-70 -445 0
-70 -450 0
-70 -555 0
-70 -560 0
-70 -565 0
-70 -570 0
-70 -575 0
-75 -180 0
-75 -185 0
-75 -190 0
-75 -195 0
-75 -200 0
-75 -305 0
-75 -310 0
-75 -315 0
-75 -320 0
-75 -325 0
-75 -430 0
-75 -435 0
-75 -440 0
-75 -445 0
-75 -450 0
-75 -555 0
-75 -560 0
-75 -565 0
-75 -570 0
-75 -575 0
-180 -185 0
-180 -190 0
-180 -195 0
-180 -200 0
-180 -305 0
-180 -310 0
-180 -315 0
-180 -320 0
-180 -325 0
-180 -430 0
-180 -435 0
-180 -440 0
-180 -445 0
-180 -450 0
-180 -555 0
-180 -560 0
-180 -565 0
-180 -570 0
-180 -575 0
-185 -190 0
-185 -195 0
-185 -200 0
-185 -305 0
-185 -310 0
-185 -315 0
-185 -320 0
-185 -325 0
-185 -430 0
-185 -435 0
-185 -440 0
-185 -445 0
-185 -450 0
-185 -555 0
-185 -560 0
-185 -565 0
-185 -570 0
-185 -575 0
-190 -195 0
-190 -200 0
-190 -305 0
-190 -310 0
-190 -315 0
-190 -320 0
-190 -325 0
-190 -430 0
-190 -435 0
-190 -440 0
-190 -445 0
-190 -450 0
-190 -555 0
-190 -560 0
-190 -565 0
-190 -570 0
-190 -575 0
-195 -200 0
-195 -305 0
-195 -310 0
-195 -315 0
-195 -320 0
-195 -325 0
-195 -430 0
-195 -435 0
-195 -440 0
-195 -445 0
-195 -450 0
-195 -555 0
-195 -560 0
-195 -565 0
-195 -570 0
-195 -575 0
-200 -305 0
-200 -310 0
-200 -315 0
-200 -320 0
-200 -325 0
-200 -430 0
-200 -435 0
-200 -440 0
-200 -445 0
-200 -450 0
-200 -555 0
-200 -560 0
-200 -565 0
-200 -570 0
-200 -575 0
-305 -310 0
-305 -315 0
-305 -320 0
-305 -325 0
-305 -430 0
-305 -435 0
-305 -440 0
-305 -445 0
-305 -450 0
-305 -555 0
-305 -560 0
-305 -565 0
-305 -570 0
-305 -575 0
-310 -315 0
-310 -320 0
-310 -325 0
-310 -430 0
-310 -435 0
-310 -440 0
-310 -445 0
-310 -450 0
-310 -555 0
-310 -560 0
-310 -565 0
-310 -570 0
-310 -575 0
-315 -320 0
-315 -325 0
-315 -430 0
-315 -435 0
-315 -440 0
-315 -445 0
-315 -450 0
-315 -555 0
-315 -560 0
-315 -565 0
-315 -570 0
-315 -575 0
-320 -325 0
-320 -430 0
-320 -435 0
-320 -440 0
-320 -445 0
-320 -450 0
-320 -555 0
-320 -560 0
-320 -565 0
-320 -570 0
-320 -575 0
-325 -430 0
-325 -435 0
-325 -440 0
-325 -445 0
-325 -450 0
-325 -555 0
-325 -560 0
-325 -565 0
-325 -570 0
-325 -575 0
-430 -435 0
-430 -440 0
-430 -445 0
-430 -450 0
-430 -555 0
-430 -560 0
-430 -565 0
-430 -570 0
-430 -575 0
-435 -440 0
-435 -445 0
-435 -450 0
-435 -555 0
-435 -560 0
-435 -565 0
-435 -570 0
-435 -575 0
-440 -445 0
-440 -450 0
-440 -555 0
-440 -560 0
-440 -565 0
-440 -570 0
-440 -575 0
-445 -450 0
-445 -555 0
-445 -560 0
-445 -565 0
-445 -570 0
-445 -575 0
-450 -555 0
-450 -560 0
-450 -565 0
-450 -570 0
-450 -575 0
-555 -560 0
-555 -565 0
-555 -570 0
-555 -575 0
-560 -565 0
-560 -570 0
-560 -575 0
-565 -570 0
-565 -575 0
-570 -575 0
76 81 86 91 96 201 206 211 216 221 326 331 336 341 346 451 456 461 466 471 576 581 586 591 596 0
-76 -81 0
-76 -86 0
-76 -91 0
-76 -96 0
-76 -201 0
-76 -206 0
-76 -211 0
-76 -216 0
-76 -221 0
-76 -326 0
-76 -331 0
-76 -336 0
-76 -341 0
-76 -346 0
-76 -451 0
-76 -456 0
-76 -461 0
-76 -466 0
-76 -471 0
-76 -576 0
-76 -581 0
-76 -586 0
-76 -591 0
-76 -596 0
-81 -86 0
-81 -91 0
-81 -96 0
-81 -201 0
-81 -206 0
-81 -211 0
-81 -216 0
-81 -221 0
-81 -326 0
-81 -331 0
-81 -336 0
-81 -341 0
-81 -346 0
-81 -451 0
-81 -456 0
-81 -461 0
-81 -466 0
-81 -471 0
-81 -576 0
-81 -581 0
-81 -586 0
-81 -591 0
-81 -596 0
-86 -91 0
-86 -96 0
-86 -201 0
-86 -206 0
-86 -211 0
-86 -216 0
-86 -221 0
-86 -326 0
-86 -331 0
-86 -336 0
-86 -341 0
-86 -346 0
-86 -451 0
-86 -456 0
-86 -461 0
-86 -466 0
-86 -471 0
-86 -576 0
-86 -581 0
-86 -586 0
-86 -591 0
-86 -596 0
-91 -96 0
-91 -201 0
-91 -206 0
-91 -211 0
-91 -216 0
-91 -221 0
-91 -326 0
-91 -331 0
-91 -336 0
-91 -341 0
-91 -346 0
-91 -451 0
-91 -456 0
-91 -461 0
-91 -466 0
-91 -471 0
-91 -576 0
-91 -581 0
-91 -586 0
-91 -591 0
-91 -596 0
-96 -201 0
-96 -206 0
-96 -211 0
-96 -216 0
-96 -221 0
-96 -326 0
-96 -331 0
-96 -336 0
-96 -341 0
-96 -346 0
-96 -451 0
-96 -456 0
-96 -461 0
-96 -466 0
-96 -471 0
-96 -576 0
-96 -581 0
-96 -586 0
-96 -591 0
-96 -596 0
-201 -206 0
-201 -211 0
-201 -216 0
-201 -221 0
-201 -326 0
-201 -331 0
-201 -336 0
-201 -341 0
-201 -346 0
-201 -451 0
-201 -456 0
-201 -461 0
-201 -466 0
-201 -471 0
-201 -576 0
-201 -581 0
-201 -586 0
-201 -591 0
-201 -596 0
-206 -211 0
-206 -216 0
-206 -221 0
-206 -326 0
-206 -331 0
-206 -336 0
-206 -341 0
-206 -346 0
-206 -451 0
-206 -456 0
-206 -461 0
-206 -466 0
-206 -471 0
-206 -576 0
-206 -581 0
-206 -586 0
-206 -591 0
-206 -596 0
-211 -216 0
-211 -221 0
-211 -326 0
-211 -331 0
-211 -336 0
-211 -341 0
-211 -346 0
-211 -451 0
-211 -456 0
-211 -461 0
-211 -466 0
-211 -471 0
-211 -576 0
-211 -581 0
-211 -586 0
-211 -591 0
-211 -596 0
-216 -221 0
-216 -326 0
-216 -331 0
-216 -336 0
-216 -341 0
-216 -346 0
-216 -451 0
-216 -456 0
-216 -461 0
-216 -466 0
-216 -471 0
-216 -576 0
-216 -581 0
-216 -586 0
-216 -591 0
-216 -596 0
-221 -326 0
-221 -331 0
-221 -336 0
-221 -341 0
-221 -346 0
-221 -451 0
-221 -456 0
-221 -461 0
-221 -466 0
-221 -471 0
-221 -576 0
-221 -581 0
-221 -586 0
-221 -591 0
-221 -596 0
-326 -331 0
-326 -336 0
-326 -341 0
-326 -346 0
-326 -451 0
-326 -456 0
-326 -461 0
-326 -466 0
-326 -471 0
-326 -576 0
-326 -581 0
-326 -586 0
-326 -591 0
-326 -596 0
-331 -336 0
-331 -341 0
-331 -346 0
-331 -451 0
-331 -456 0
-331 -461 0
-331 -466 0
-331 -471 0
-331 -576 0
-331 -581 0
-331 -586 0
-331 -591 0
-331 -596 0
-336 -341 0
-336 -346 0
-336 -451 0
-336 -456 0
-336 -461 0
-336 -466 0
-336 -471 0
-336 -576 0
-336 -581 0
-336 -586 0
-336 -591 0
-336 -596 0
-341 -346 0
-341 -451 0
-341 -456 0
-341 -461 0
-341 -466 0
-341 -471 0
-341 -576 0
-341 -581 0
-341 -586 0
-341 -591 0
-341 -596 0
-346 -451 0
-346 -456 0
-346 -461 0
-346 -466 0
-346 -471 0
-346 -576 0
-346 -581 0
-346 -586 0
-346 -591 0
-346 -596 0
-451 -456 0
-451 -461 0
-451 -466 0
-451 -471 0
-451 -576 0
-451 -581 0
-451 -586 0
-451 -591 0
-451 -596 0
-456 -461 0
-456 -466 0
-456 -471 0
-456 -576 0
-456 -581 0
-456 -586 0
-456 -591 0
-456 -596 0
-461 -466 0
-461 -471 0
-461 -576 0
-461 -581 0
-461 -586 0
-461 -591 0
-461 -596 0
-466 -471 0
-466 -576 0
-466 -581 0
-466 -586 0
-466 -591 0
-466 -596 0
-471 -576 0
-471 -581 0
-471 -586 0
-471 -591 0
-471 -596 0
-576 -581 0
-576 -586 0
-576 -591 0
-576 -596 0
-581 -586 0
-581 -591 0
-581 -596 0
-586 -591 0
-586 -596 0
-591 -596 0
77 82 87 92 97 202 207 212 217 222 327 332 337 342 347 452 457 462 467 472 577 582 587 592 597 0
-77 -82 0
-77 -87 0
-77 -92 0
-77 -97 0
-77 -202 0
-77 -207 0
-77 -212 0
-77 -217 0
-77 -222 0
-77 -327 0
-77 -332 0
-77 -337 0
-77 -342 0
-77 -347 0
-77 -452 0
-77 -457 0
-77 -462 0
-77 -467 0
-77 -472 0
-77 -577 0
-77 -582 0
-77 -587 0
-77 -592 0
-77 -597 0
-82 -87 0
-82 -92 0
-82 -97 0
-82 -202 0
-82 -207 0
-82 -212 0
-82 -217 0
-82 -222 0
-82 -327 0
-82 -332 0
-82 -337 0
-82 -342 0
-82 -347 0
-82 -452 0
-82 -457 0
-82 -462 0
-82 -467 0
-82 -472 0
-82 -577 0
-82 -582 0
-82 -587 0
-82 -592 0
-82 -597 0
-87 -92 0
-87 -97 0
-87 -202 0
-87 -207 0
-87 -212 0
-87 -217 0
-87 -222 0
-87 -327 0
-87 -332 0
-87 -337 0
-87 -342 0
-87 -347 0
-87 -452 0
-87 -457 0
-87 -462 0
-87 -467 0
-87 -472 0
-87 -577 0
-87 -582 0
-87 -587 0
-87 -592 0
-87 -597 0
-92 -97 0
-92 -202 0
-92 -207 0
-92 -212 0
-92 -217 0
-92 -222 0
-92 -327 0
-92 -332 0
-92 -337 0
-92 -342 0
-92 -347 0
-92 -452 0
-92 -457 0
-92 -462 0
-92 -467 0
-92 -472 0
-92 -577 0
-92 -582 0
-92 -587 0
-92 -592 0
-92 -597 0
-97 -202 0
-97 -207 0
-97 -212 0
-97 -217 0
-97 -222 0
-97 -327 0
-97 -332 0
-97 -337 0
-97 -342 0
-97 -347 0
-97 -452 0
-97 -457 0
-97 -462 0
-97 -467 0
-97 -472 0
-97 -577 0
-97 -582 0
-97 -587 0
-97 -592 0
-97 -597 0
-202 -207 0
-202 -212 0
-202 -217 0
-202 -222 0
-202 -327 0
-202 -332 0
-202 -337 0
-202 -342 0
-202 -347 0
-202 -452 0
-202 -457 0
-202 -462 0
-202 -467 0
-202 -472 0
-202 -577 0
-202 -582 0
-202 -587 0
-202 -592 0
-202 -597 0
-207 -212 0
-207 -217 0
-207 -222 0
-207 -327 0
-207 -332 0
-207 -337 0
-207 -342 0
-207 -347 0
-207 -452 0
-207 -457 0
-207 -462 0
-207 -467 0
-207 -472 0
-207 -577 0
-207 -582 0
-207 -587 0
-207 -592 0
-207 -597 0
-212 -217 0
-212 -222 0
-212 -327 0
-212 -332 0
-212 -337 0
-212 -342 0
-212 -347 0
-212 -452 0
-212 -457 0
-212 -462 0
-212 -467 0
-212 -472 0
-212 -577 0
-212 -582 0
-212 -587 0
-212 -592 0
-212 -597 0
-217 -222 0
-217 -327 0
-217 -332 0
-217 -337 0
-217 -342 0
-217 -347 0
-217 -452 0
-217 -457 0
-217 -462 0
-217 -467 0
-217 -472 0
-217 -577 0
-217 -582 0
-217 -587 0
-217 -592 0
-217 -597 0
-222 -327 0
-222 -332 0
-222 -337 0
-222 -342 0
-222 -347 0
-222 -452 0
-222 -457 0
-222 -462 0
-222 -467 0
-222 -472 0
-222 -577 0
-222 -582 0
-222 -587 0
-222 -592 0
-222 -597 0
-327 -332 0
-327 -337 0
-327 -342 0
-327 -347 0
-327 -452 0
-327 -457 0
-327 -462 0
-327 -467 0
-327 -472 0
-327 -577 0
-327 -582 0
-327 -587 0
-327 -592 0
-327 -597 0
-332 -337 0
-332 -342 0
-332 -347 0
-332 -452 0
-332 -457 0
-332 -462 0
-332 -467 0
-332 -472 0
-332 -577 0
-332 -582 0
-332 -587 0
-332 -592 0
-332 -597 0
-337 -342 0
-337 -347 0
-337 -452 0
-337 -457 0
-337 -462 0
-337 -467 0
-337 -472 0
-337 -577 0
-337 -582 0
-337 -587 0
-337 -592 0
-337 -597 0
-342 -347 0
-342 -452 0
-342 -457 0
-342 -462 0
-342 -467 0
-342 -472 0
-342 -577 0
-342 -582 0
-342 -587 0
-342 -592 0
-342 -597 0
-347 -452 0
-347 -457 0
-347 -462 0
-347 -467 0
-347 -472 0
-347 -577 0
-347 -582 0
-347 -587 0
-347 -592 0
-347 -597 0
-452 -457 0
-452 -462 0
-452 -467 0
-452 -472 0
-452 -577 0
-452 -582 0
-452 -587 0
-452 -592 0
-452 -597 0
-457 -462 0
-457 -467 0
-457 -472 0
-457 -577 0
-457 -582 0
-457 -587 0
-457 -592 0
-457 -597 0
-462 -467 0
-462 -472 0
-462 -577 0
-462 -582 0
-462 -587 0
-462 -592 0
-462 -597 0
-467 -472 0
-467 -577 0
-467 -582 0
-467 -587 0
-467 -592 0
-467 -597 0
-472 -577 0
-472 -582 0
-472 -587 0
-472 -592 0
-472 -597 0
-577 -582 0
-577 -587 0
-577 -592 0
-577 -597 0
-582 -587 0
-582 -592 0
-582 -597 0
-587 -592 0
-587 -597 0
-592 -597 0
78 83 88 93 98 203 208 213 218 223 328 333 338 343 348 453 458 463 468 473 578 583 588 593 598 0
-78 -83 0
-78 -88 0
-78 -93 0
-78 -98 0
-78 -203 0
-78 -208 0
-78 -213 0
-78 -218 0
-78 -223 0
-78 -328 0
-78 -333 0
-78 -338 0
-78 -343 0
-78 -348 0
-78 -453 0
-78 -458 0
-78 -463 0
-78 -468 0
-78 -473 0
-78 -578 0
-78 -583 0
-78 -588 0
-78 -593 0
-78 -598 0
-83 -88 0
-83 -93 0
-83 -98 0
-83 -203 0
-83 -208 0
-83 -213 0
-83 -218 0
-83 -223 0
-83 -328 0
-83 -333 0
-83 -338 0
-83 -343 0
-83 -348 0
-83 -453 0
-83 -458 0
-83 -463 0
-83 -468 0
-83 -473 0
-83 -578 0
-83 -583 0
-83 -588 0
-83 -593 0
-83 -598 0
-88 -93 0
-88 -98 0
-88 -203 0
-88 -208 0
-88 -213 0
-88 -218 0
-88 -223 0
-88 -328 0
-88 -333 0
-88 -338 0
-88 -343 0
-88 -348 0
-88 -453 0
-88 -458 0
-88 -463 0
-88 -468 0
-88 -473 0
-88 -578 0
-88 -583 0
-88 -588 0
-88 -593 0
-88 -598 0
-93 -98 0
-93 -203 0
-93 -208 0
-93 -213 0
-93 -218 0
-93 -223 0
-93 -328 0
-93 -333 0
-93 -338 0
-93 -343 0
-93 -348 0
-93 -453 0
-93 -458 0
-93 -463 0
-93 -468 0
-93 -473 0
-93 -578 0
-93 -583 0
-93 -588 0
-93 -593 0
-93 -598 0
-98 -203 0
-98 -208 0
-98 -213 0
-98 -218 0
-98 -223 0
-98 -328 0
-98 -333 0
-98 -338 0
-98 -343 0
-98 -348 0
-98 -453 0
-98 -458 0
-98 -463 0
-98 -468 0
-98 -473 0
-98 -578 0
-98 -583 0
-98 -588 0
-98 -593 0
-98 -598 0
-203 -208 0
-203 -213 0
-203 -218 0
-203 -223 0
-203 -328 0
-203 -333 0
-203 -338 0
-203 -343 0
-203 -348 0
-203 -453 0
-203 -458 0
-203 -463 0
-203 -468 0
-203 -473 0
-203 -578 0
-203 -583 0
-203 -588 0
-203 -593 0
-203 -598 0
-208 -213 0
-208 -218 0
-208 -223 0
-208 -328 0
-208 -333 0
-208 -338 0
-208 -343 0
-208 -348 0
-208 -453 0
-208 -458 0
-208 -463 0
-208 -468 0
-208 -473 0
-208 -578 0
-208 -583 0
-208 -588 0
-208 -593 0
-208 -598 0
-213 -218 0
-213 -223 0
-213 -328 0
-213 -333 0
-213 -338 0
-213 -343 0
-213 -348 0
-213 -453 0
-213 -458 0
-213 -463 0
-213 -468 0
-213 -473 0
-213 -578 0
-213 -583 0
-213 -588 0
-213 -593 0
-213 -598 0
-218 -223 0
-218 -328 0
-218 -333 0
-218 -338 0
-218 -343 0
-218 -348 0
-218 -453 0
-218 -458 0
-218 -463 0
-218 -468 0
-218 -473 0
-218 -578 0
-218 -583 0
-218 -588 0
-218 -593 0
-218 -598 0
-223 -328 0
-223 -333 0
-223 -338 0
-223 -343 0
-223 -348 0
-223 -453 0
-223 -458 0
-223 -463 0
-223 -468 0
-223 -473 0
-223 -578 0
-223 -583 0
-223 -588 0
-223 -593 0
-223 -598 0
-328 -333 0
-328 -338 0
-328 -343 0
-328 -348 0
-328 -453 0
-328 -458 0
-328 -463 0
-328 -468 0
-328 -473 0
-328 -578 0
-328 -583 0
-328 -588 0
-328 -593 0
-328 -598 0
-333 -338 0
-333 -343 0
-333 -348 0
-333 -453 0
-333 -458 0
-333 -463 0
-333 -468 0
-333 -473 0
-333 -578 0
-333 -583 0
-333 -588 0
-333 -593 0
-333 -598 0
-338 -343 0
-338 -348 0
-338 -453 0
-338 -458 0
-338 -463 0
-338 -468 0
-338 -473 0
-338 -578 0
-338 -583 0
-338 -588 0
-338 -593 0
-338 -598 0
-343 -348 0
-343 -453 0
-343 -458 0
-343 -463 0
-343 -468 0
-343 -473 0
-343 -578 0
-343 -583 0
-343 -588 0
-343 -593 0
-343 -598 0
-348 -453 0
-348 -458 0
-348 -463 0
-348 -468 0
-348 -473 0
-348 -578 0
-348 -583 0
-348 -588 0
-348 -593 0
-348 -598 0
-453 -458 0
-453 -463 0
-453 -468 0
-453 -473 0
-453 -578 0
-453 -583 0
-453 -588 0
-453 -593 0
-453 -598 0
-458 -463 0
-458 -468 0
-458 -473 0
-458 -578 0
-458 -583 0
-458 -588 0
-458 -593 0
-458 -598 0
-463 -468 0
-463 -473 0
-463 -578 0
-463 -583 0
-463 -588 0
-463 -593 0
-463 -598 0
-468 -473 0
-468 -578 0
-468 -583 0
-468 -588 0
-468 -593 0
-468 -598 0
-473 -578 0
-473 -583 0
-473 -588 0
-473 -593 0
-473 -598 0
-578 -583 0
-578 -588 0
-578 -593 0
-578 -598 0
-583 -588 0
-583 -593 0
-583 -598 0
-588 -593 0
-588 -598 0
-593 -598 0
79 84 89 94 99 204 209 214 219 224 329 334 339 344 349 454 459 464 469 474 579 584 589 594 599 0
-79 -84 0
-79 -89 0
-79 -94 0
-79 -99 0
-79 -204 0
-79 -209 0
-79 -214 0
-79 -219 0
-79 -224 0
-79 -329 0
-79 -334 0
-79 -339 0
-79 -344 0
-79 -349 0
-79 -454 0
-79 -459 0
-79 -464 0
-79 -469 0
-79 -474 0
-79 -579 0
-79 -584 0
-79 -589 0
-79 -594 0
-79 -599 0
-84 -89 0
-84 -94 0
-84 -99 0
-84 -204 0
-84 -209 0
-84 -214 0
-84 -219 0
-84 -224 0
-84 -329 0
-84 -334 0
-84 -339 0
-84 -344 0
-84 -349 0
-84 -454 0
-84 -459 0
-84 -464 0
-84 -469 0
-84 -474 0
-84 -579 0
-84 -584 0
-84 -589 0
-84 -594 0
-84 -599 0
-89 -94 0
-89 -99 0
-89 -204 0
-89 -209 0
-89 -214 0
-89 -219 0
-89 -224 0
-89 -329 0
-89 -334 0
-89 -339 0
-89 -344 0
-89 -349 0
-89 -454 0
-89 -459 0
-89 -464 0
-89 -469 0
-89 -474 0
-89 -579 0
-89 -584 0
-89 -589 0
-89 -594 0
-89 -599 0
-94 -99 0
-94 -204 0
-94 -209 0
-94 -214 0
-94 -219 0
-94 -224 0
-94 -329 0
-94 -334 0
-94 -339 0
-94 -344 0
-94 -349 0
-94 -454 0
-94 -459 0
-94 -464 0
-94 -469 0
-94 -474 0
-94 -579 0
-94 -584 0
-94 -589 0
-94 -594 0
-94 -599 0
-99 -204 0
-99 -209 0
-99 -214 0
-99 -219 0
-99 -224 0
-99 -329 0
-99 -334 0
-99 -339 0
-99 -344 0
-99 -349 0
-99 -454 0
-99 -459 0
-99 -464 0
-99 -469 0
-99 -474 0
-99 -579 0
-99 -584 0
-99 -589 0
-99 -594 0
-99 -599 0
-204 -209 0
-204 -214 0
-204 -219 0
-204 -224 0
-204 -329 0
-204 -334 0
-204 -339 0
-204 -344 0
-204 -349 0
-204 -454 0
-204 -459 0
-204 -464 0
-204 -469 0
-204 -474 0
-204 -579 0
-204 -584 0
-204 -589 0
-204 -594 0
-204 -599 0
-209 -214 0
-209 -219 0
-209 -224 0
-209 -329 0
-209 -334 0
-209 -339 0
-209 -344 0
-209 -349 0
-209 -454 0
-209 -459 0
-209 -464 0
-209 -469 0
-209 -474 0
-209 -579 0
-209 -584 0
-209 -589 0
-209 -594 0
-209 -599 0
-214 -219 0
-214 -224 0
-214 -329 0
-214 -334 0
-214 -339 0
-214 -344 0
-214 -349 0
-214 -454 0
-214 -459 0
-214 -464 0
-214 -469 0
-214 -474 0
-214 -579 0
-214 -584 0
-214 -589 0
-214 -594 0
-214 -599 0
-219 -224 0
-219 -329 0
-219 -334 0
-219 -339 0
-219 -344 0
-219 -349 0
-219 -454 0
-219 -459 0
-219 -464 0
-219 -469 0
-219 -474 0
-219 -579 0
-219 -584 0
-219 -589 0
-219 -594 0
-219 -599 0
-224 -329 0
-224 -334 0
-224 -339 0
-224 -344 0
-224 -349 0
-224 -454 0
-224 -459 0
-224 -464 0
-224 -469 0
-224 -474 0
-224 -579 0
-224 -584 0
-224 -589 0
-224 -594 0
-224 -599 0
-329 -334 0
-329 -339 0
-329 -344 0
-329 -349 0
-329 -454 0
-329 -459 0
-329 -464 0
-329 -469 0
-329 -474 0
-329 -579 0
-329 -584 0
-329 -589 0
-329 -594 0
-329 -599 0
-334 -339 0
-334 -344 0
-334 -349 0
-334 -454 0
-334 -459 0
-334 -464 0
-334 -469 0
-334 -474 0
-334 -579 0
-334 -584 0
-334 -589 0
-334 -594 0
-334 -599 0
-339 -344 0
-339 -349 0
-339 -454 0
-339 -459 0
-339 -464 0
-339 -469 0
-339 -474 0
-339 -579 0
-339 -584 0
-339 -589 0
-339 -594 0
-339 -599 0
-344 -349 0
-344 -454 0
-344 -459 0
-344 -464 0
-344 -469 0
-344 -474 0
-344 -579 0
-344 -584 0
-344 -589 0
-344 -594 0
-344 -599 0
-349 -454 0
-349 -459 0
-349 -464 0
-349 -469 0
-349 -474 0
-349 -579 0
-349 -584 0
-349 -589 0
-349 -594 0
-349 -599 0
-454 -459 0
-454 -464 0
-454 -469 0
-454 -474 0
-454 -579 0
-454 -584 0
-454 -589 0
-454 -594 0
-454 -599 0
-459 -464 0
-459 -469 0
-459 -474 0
-459 -579 0
-459 -584 0
-459 -589 0
-459 -594 0
-459 -599 0
-464 -469 0
-464 -474 0
-464 -579 0
-464 -584 0
-464 -589 0
-464 -594 0
-464 -599 0
-469 -474 0
-469 -579 0
-469 -584 0
-469 -589 0
-469 -594 0
-469 -599 0
-474 -579 0
-474 -584 0
-474 -589 0
-474 -594 0
-474 -599 0
-579 -584 0
-579 -589 0
-579 -594 0
-579 -599 0
-584 -589 0
-584 -594 0
-584 -599 0
-589 -594 0
-589 -599 0
-594 -599 0
80 85 90 95 100 205 210 215 220 225 330 335 340 345 350 455 460 465 470 475 580 585 590 595 600 0
-80 -85 0
-80 -90 0
-80 -95 0
-80 -100 0
-80 -205 0
-80 -210 0
-80 -215 0
-80 -220 0
-80 -225 0
-80 -330 0
-80 -335 0
-80 -340 0
-80 -345 0
-80 -350 0
-80 -455 0
-80 -460 0
-80 -465 0
-80 -470 0
-80 -475 0
-80 -580 0
-80 -585 0
-80 -590 0
-80 -595 0
-80 -600 0
-85 -90 0
-85 -95 0
-85 -100 0
-85 -205 0
-85 -210 0
-85 -215 0
-85 -220 0
-85 -225 0
-85 -330 0
-85 -335 0
-85 -340 0
-85 -345 0
-85 -350 0
-85 -455 0
-85 -460 0
-85 -465 0
-85 -470 0
-85 -475 0
-85 -580 0
-85 -585 0
-85 -590 0
-85 -595 0
-85 -600 0
-90 -95 0
-90 -100 0
-90 -205 0
-90 -210 0
-90 -215 0
-90 -220 0
-90 -225 0
-90 -330 0
-90 -335 0
-90 -340 0
-90 -345 0
-90 -350 0
-90 -455 0
-90 -460 0
-90 -465 0
-90 -470 0
-90 -475 0
-90 -580 0
-90 -585 0
-90 -590 0
-90 -595 0
-90 -600 0
-95 -100 0
-95 -205 0
-95 -210 0
-95 -215 0
-95 -220 0
-95 -225 0
-95 -330 0
-95 -335 0
-95 -340 0
-95 -345 0
-95 -350 0
-95 -455 0
-95 -460 0
-95 -465 0
-95 -470 0
-95 -475 0
-95 -580 0
-95 -585 0
-95 -590 0
-95 -595 0
-95 -600 0
-100 -205 0
-100 -210 0
-100 -215 0
-100 -220 0
-100 -225 0
-100 -330 0
-100 -335 0
-100 -340 0
-100 -345 0
-100 -350 0
-100 -455 0
-100 -460 0
-100 -465 0
-100 -470 0
-100 -475 0
-100 -580 0
-100 -585 0
-100 -590 0
-100 -595 0
-100 -600 0
-205 -210 0
-205 -215 0
-205 -220 0
-205 -225 0
-205 -330 0
-205 -335 0
-205 -340 0
-205 -345 0
-205 -350 0
-205 -455 0
-205 -460 0
-205 -465 0
-205 -470 0
-205 -475 0
-205 -580 0
-205 -585 0
-205 -590 0
-205 -595 0
-205 -600 0
-210 -215 0
-210 -220 0
-210 -225 0
-210 -330 0
-210 -335 0
-210 -340 0
-210 -345 0
-210 -350 0
-210 -455 0
-210 -460 0
-210 -465 0
-210 -470 0
-210 -475 0
-210 -580 0
-210 -585 0
-210 -590 0
-210 -595 0
-210 -600 0
-215 -220 0
-215 -225 0
-215 -330 0
-215 -335 0
-215 -340 0
-215 -345 0
-215 -350 0
-215 -455 0
-215 -460 0
-215 -465 0
-215 -470 0
-215 -475 0
-215 -580 0
-215 -585 0
-215 -590 0
-215 -595 0
-215 -600 0
-220 -225 0
-220 -330 0
-220 -335 0
-220 -340 0
-220 -345 0
-220 -350 0
-220 -455 0
-220 -460 0
-220 -465 0
-220 -470 0
-220 -475 0
-220 -580 0
-220 -585 0
-220 -590 0
-220 -595 0
-220 -600 0
-225 -330 0
-225 -335 0
-225 -340 0
-225 -345 0
-225 -350 0
-225 -455 0
-225 -460 0
-225 -465 0
-225 -470 0
-225 -475 0
-225 -580 0
-225 -585 0
-225 -590 0
-225 -595 0
-225 -600 0
-330 -335 0
-330 -340 0
-330 -345 0
-330 -350 0
-330 -455 0
-330 -460 0
-330 -465 0
-330 -470 0
-330 -475 0
-330 -580 0
-330 -585 0
-330 -590 0
-330 -595 0
-330 -600 0
-335 -340 0
-335 -345 0
-335 -350 0
-335 -455 0
-335 -460 0
-335 -465 0
-335 -470 0
-335 -475 0
-335 -580 0
-335 -585 0
-335 -590 0
-335 -595 0
-335 -600 0
-340 -345 0
-340 -350 0
-340 -455 0
-340 -460 0
-340 -465 0
-340 -470 0
-340 -475 0
-340 -580 0
-340 -585 0
-340 -590 0
-340 -595 0
-340 -600 0
-345 -350 0
-345 -455 0
-345 -460 0
-345 -465 0
-345 -470 0
-345 -475 0
-345 -580 0
-345 -585 0
-345 -590 0
-345 -595 0
-345 -600 0
-350 -455 0
-350 -460 0
-350 -465 0
-350 -470 0
-350 -475 0
-350 -580 0
-350 -585 0
-350 -590 0
-350 -595 0
-350 -600 0
-455 -460 0
-455 -465 0
-455 -470 0
-455 -475 0
-455 -580 0
-455 -585 0
-455 -590 0
-455 -595 0
-455 -600 0
-460 -465 0
-460 -470 0
-460 -475 0
-460 -580 0
-460 -585 0
-460 -590 0
-460 -595 0
-460 -600 0
-465 -470 0
-465 -475 0
-465 -580 0
-465 -585 0
-465 -590 0
-465 -595 0
-465 -600 0
-470 -475 0
-470 -580 0
-470 -585 0
-470 -590 0
-470 -595 0
-470 -600 0
-475 -580 0
-475 -585 0
-475 -590 0
-475 -595 0
-475 -600 0
-580 -585 0
-580 -590 0
-580 -595 0
-580 -600 0
-585 -590 0
-585 -595 0
-585 -600 0
-590 -595 0
-590 -600 0
-595 -600 0
101 106 111 116 121 226 231 236 241 246 351 356 361 366 371 476 481 486 491 496 601 606 611 616 621 0
-101 -106 0
-101 -111 0
-101 -116 0
-101 -121 0
-101 -226 0
-101 -231 0
-101 -236 0
-101 -241 0
-101 -246 0
-101 -351 0
-101 -356 0
-101 -361 0
-101 -366 0
-101 -371 0
-101 -476 0
-101 -481 0
-101 -486 0
-101 -491 0
-101 -496 0
-101 -601 0
-101 -606 0
-101 -611 0
-101 -616 0
-101 -621 0
-106 -111 0
-106 -116 0
-106 -121 0
-106 -226 0
-106 -231 0
-106 -236 0
-106 -241 0
-106 -246 0
-106 -351 0
-106 -356 0
-106 -361 0
-106 -366 0
-106 -371 0
-106 -476 0
-106 -481 0
-106 -486 0
-106 -491 0
-106 -496 0
-106 -601 0
-106 -606 0
-106 -611 0
-106 -616 0
-106 -621 0
-111 -116 0
-111 -121 0
-111 -226 0
-111 -231 0
-111 -236 0
-111 -241 0
-111 -246 0
-111 -351 0
-111 -356 0
-111 -361 0
-111 -366 0
-111 -371 0
-111 -476 0
-111 -481 0
-111 -486 0
-111 -491 0
-111 -496 0
-111 -601 0
-111 -606 0
-111 -611 0
-111 -616 0
-111 -621 0
-116 -121 0
-116 -226 0
-116 -231 0
-116 -236 0
-116 -241 0
-116 -246 0
-116 -351 0
-116 -356 0
-116 -361 0
-116 -366 0
-116 -371 0
-116 -476 0
-116 -481 0
-116 -486 0
-116 -491 0
-116 -496 0
-116 -601 0
-116 -606 0
-116 -611 0
-116 -616 0
-116 -621 0
-121 -226 0
-121 -231 0
-121 -236 0
-121 -241 0
-121 -246 0
-121 -351 0
-121 -356 0
-121 -361 0
-121 -366 0
-121 -371 0
-121 -476 0
-121 -481 0
-121 -486 0
-121 -491 0
-121 -496 0
-121 -601 0
-121 -606 0
-121 -611 0
-121 -616 0
-121 -621 0
-226 -231 0
-226 -236 0
-226 -241 0
-226 -246 0
-226 -351 0
-226 -356 0
-226 -361 0
-226 -366 0
-226 -371 0
-226 -476 0
-226 -481 0
-226 -486 0
-226 -491 0
-226 -496 0
-226 -601 0
-226 -606 0
-226 -611 0
-226 -616 0
-226 -621 0
-231 -236 0
-231 -241 0
-231 -246 0
-231 -351 0
-231 -356 0
-231 -361 0
-231 -366 0
-231 -371 0
-231 -476 0
-231 -481 0
-231 -486 0
-231 -491 0
-231 -496 0
-231 -601 0
-231 -606 0
-231 -611 0
-231 -616 0
-231 -621 0
-236 -241 0
-236 -246 0
-236 -351 0
-236 -356 0
-236 -361 0
-236 -366 0
-236 -371 0
-236 -476 0
-236 -481 0
-236 -486 0
-236 -491 0
-236 -496 0
-236 -601 0
-236 -606 0
-236 -611 0
-236 -616 0
-236 -621 0
-241 -246 0
-241 -351 0
-241 -356 0
-241 -361 0
-241 -366 0
-241 -371 0
-241 -476 0
-241 -481 0
-241 -486 0
-241 -491 0
-241 -496 0
-241 -601 0
-241 -606 0
-241 -611 0
-241 -616 0
-241 -621 0
-246 -351 0
-246 -356 0
-246 -361 0
-246 -366 0
-246 -371 0
-246 -476 0
-246 -481 0
-246 -486 0
-246 -491 0
-246 -496 0
-246 -601 0
-246 -606 0
-246 -611 0
-246 -616 0
-246 -621 0
-351 -356 0
-351 -361 0
-351 -366 0
-351 -371 0
-351 -476 0
-351 -481 0
-351 -486 0
-351 -491 0
-351 -496 0
-351 -601 0
-351 -606 0
-351 -611 0
-351 -616 0
-351 -621 0
-356 -361 0
-356 -366 0
-356 -371 0
-356 -476 0
-356 -481 0
-356 -486 0
-356 -491 0
-356 -496 0
-356 -601 0
-356 -606 0
-356 -611 0
-356 -616 0
-356 -621 0
-361 -366 0
-361 -371 0
-361 -476 0
-361 -481 0
-361 -486 0
-361 -491 0
-361 -496 0
-361 -601 0
-361 -606 0
-361 -611 0
-361 -616 0
-361 -621 0
-366 -371 0
-366 -476 0
-366 -481 0
-366 -486 0
-366 -491 0
-366 -496 0
-366 -601 0
-366 -606 0
-366 -611 0
-366 -616 0
-366 -621 0
-371 -476 0
-371 -481 0
-371 -486 0
-371 -491 0
-371 -496 0
-371 -601 0
-371 -606 0
-371 -611 0
-371 -616 0
-371 -621 0
-476 -481 0
-476 -486 0
-476 -491 0
-476 -496 0
-476 -601 0
-476 -606 0
-476 -611 0
-476 -616 0
-476 -621 0
-481 -486 0
-481 -491 0
-481 -496 0
-481 -601 0
-481 -606 0
-481 -611 0
-481 -616 0
-481 -621 0
-486 -491 0
-486 -496 0
-486 -601 0
-486 -606 0
-486 -611 0
-486 -616 0
-486 -621 0
-491 -496 0
-491 -601 0
-491 -606 0
-491 -611 0
-491 -616 0
-491 -621 0
-496 -601 0
-496 -606 0
-496 -611 0
-496 -616 0
-496 -621 0
-601 -606 0
-601 -611 0
-601 -616 0
-601 -621 0
-606 -611 0
-606 -616 0
-606 -621 0
-611 -616 0
-611 -621 0
-616 -621 0
102 107 112 117 122 227 232 237 242 247 352 357 362 367 372 477 482 487 492 497 602 607 612 617 622 0
-102 -107 0
-102 -112 0
-102 -117 0
-102 -122 0
-102 -227 0
-102 -232 0
-102 -237 0
-102 -242 0
-102 -247 0
-102 -352 0
-102 -357 0
-102 -362 0
-102 -367 0
-102 -372 0
-102 -477 0
-102 -482 0
-102 -487 0
-102 -492 0
-102 -497 0
-102 -602 0
-102 -607 0
-102 -612 0
-102 -617 0
-102 -622 0
-107 -112 0
-107 -117 0
-107 -122 0
-107 -227 0
-107 -232 0
-107 -237 0
-107 -242 0
-107 -247 0
-107 -352 0
-107 -357 0
-107 -362 0
-107 -367 0
-107 -372 0
-107 -477 0
-107 -482 0
-107 -487 0
-107 -492 0
-107 -497 0
-107 -602 0
-107 -607 0
-107 -612 0
-107 -617 0
-107 -622 0
-112 -117 0
-112 -122 0
-112 -227 0
-112 -232 0
-112 -237 0
-112 -242 0
-112 -247 0
-112 -352 0
-112 -357 0
-112 -362 0
-112 -367 0
-112 -372 0
-112 -477 0
-112 -482 0
-112 -487 0
-112 -492 0
-112 -497 0
-112 -602 0
-112 -607 0
-112 -612 0
-112 -617 0
-112 -622 0
-117 -122 0
-117 -227 0
-117 -232 0
-117 -237 0
-117 -242 0
-117 -247 0
-117 -352 0
-117 -357 0
-117 -362 0
-117 -367 0
-117 -372 0
-117 -477 0
-117 -482 0
-117 -487 0
-117 -492 0
-117 -497 0
-117 -602 0
-117 -607 0
-117 -612 0
-117 -617 0
-117 -622 0
-122 -227 0
-122 -232 0
-122 -237 0
-122 -242 0
-122 -247 0
-122 -352 0
-122 -357 0
-122 -362 0
-122 -367 0
-122 -372 0
-122 -477 0
-122 -482 0
-122 -487 0
-122 -492 0
-122 -497 0
-122 -602 0
-122 -607 0
-122 -612 0
-122 -617 0
-122 -622 0
-227 -232 0
-227 -237 0
-227 -242 0
-227 -247 0
-227 -352 0
-227 -357 0
-227 -362 0
-227 -367 0
-227 -372 0
-227 -477 0
-227 -482 0
-227 -487 0
-227 -492 0
-227 -497 0
-227 -602 0
-227 -607 0
-227 -612 0
-227 -617 0
-227 -622 0
-232 -237 0
-232 -242 0
-232 -247 0
-232 -352 0
-232 -357 0
-232 -362 0
-232 -367 0
-232 -372 0
-232 -477 0
-232 -482 0
-232 -487 0
-232 -492 0
-232 -497 0
-232 -602 0
-232 -607 0
-232 -612 0
-232 -617 0
-232 -622 0
-237 -242 0
-237 -247 0
-237 -352 0
-237 -357 0
-237 -362 0
-237 -367 0
-237 -372 0
-237 -477 0
-237 -482 0
-237 -487 0
-237 -492 0
-237 -497 0
-237 -602 0
-237 -607 0
-237 -612 0
-237 -617 0
-237 -622 0
-242 -247 0
-242 -352 0
-242 -357 0
-242 -362 0
-242 -367 0
-242 -372 0
-242 -477 0
-242 -482 0
-242 -487 0
-242 -492 0
-242 -497 0
-242 -602 0
-242 -607 0
-242 -612 0
-242 -617 0
-242 -622 0
-247 -352 0
-247 -357 0
-247 -362 0
-247 -367 0
-247 -372 0
-247 -477 0
-247 -482 0
-247 -487 0
-247 -492 0
-247 -497 0
-247 -602 0
-247 -607 0
-247 -612 0
-247 -617 0
-247 -622 0
-352 -357 0
-352 -362 0
-352 -367 0
-352 -372 0
-352 -477 0
-352 -482 0
-352 -487 0
-352 -492 0
-352 -497 0
-352 -602 0
-352 -607 0
-352 -612 0
-352 -617 0
-352 -622 0
-357 -362 0
-357 -367 0
-357 -372 0
-357 -477 0
-357 -482 0
-357 -487 0
-357 -492 0
-357 -497 0
-357 -602 0
-357 -607 0
-357 -612 0
-357 -617 0
-357 -622 0
-362 -367 0
-362 -372 0
-362 -477 0
-362 -482 0
-362 -487 0
-362 -492 0
-362 -497 0
-362 -602 0
-362 -607 0
-362 -612 0
-362 -617 0
-362 -622 0
-367 -372 0
-367 -477 0
-367 -482 0
-367 -487 0
-367 -492 0
-367 -497 0
-367 -602 0
-367 -607 0
-367 -612 0
-367 -617 0
-367 -622 0
-372 -477 0
-372 -482 0
-372 -487 0
-372 -492 0
-372 -497 0
-372 -602 0
-372 -607 0
-372 -612 0
-372 -617 0
-372 -622 0
-477 -482 0
-477 -487 0
-477 -492 0
-477 -497 0
-477 -602 0
-477 -607 0
-477 -612 0
-477 -617 0
-477 -622 0
-482 -487 0
-482 -492 0
-482 -497 0
-482 -602 0
-482 -607 0
-482 -612 0
-482 -617 0
-482 -622 0
-487 -492 0
-487 -497 0
-487 -602 0
-487 -607 0
-487 -612 0
-487 -617 0
-487 -622 0
-492 -497 0
-492 -602 0
-492 -607 0
-492 -612 0
-492 -617 0
-492 -622 0
-497 -602 0
-497 -607 0
-497 -612 0
-497 -617 0
-497 -622 0
-602 -607 0
-602 -612 0
-602 -617 0
-602 -622 0
-607 -612 0
-607 -617 0
-607 -622 0
-612 -617 0
-612 -622 0
-617 -622 0
103 108 113 118 123 228 233 238 243 248 353 358 363 368 373 478 483 488 493 498 603 608 613 618 623 0
-103 -108 0
-103 -113 0
-103 -118 0
-103 -123 0
-103 -228 0
-103 -233 0
-103 -238 0
-103 -243 0
-103 -248 0
-103 -353 0
-103 -358 0
-103 -363 0
-103 -368 0
-103 -373 0
-103 -478 0
-103 -483 0
-103 -488 0
-103 -493 0
-103 -498 0
-103 -603 0
-103 -608 0
-103 -613 0
-103 -618 0
-103 -623 0
-108 -113 0
-108 -118 0
-108 -123 0
-108 -228 0
-108 -233 0
-108 -238 0
-108 -243 0
-108 -248 0
-108 -353 0
-108 -358 0
-108 -363 0
-108 -368 0
-108 -373 0
-108 -478 0
-108 -483 0
-108 -488 0
-108 -493 0
-108 -498 0
-108 -603 0
-108 -608 0
-108 -613 0
-108 -618 0
-108 -623 0
-113 -118 0
-113 -123 0
-113 -228 0
-113 -233 0
-113 -238 0
-113 -243 0
-113 -248 0
-113 -353 0
-113 -358 0
-113 -363 0
-113 -368 0
-113 -373 0
-113 -478 0
-113 -483 0
-113 -488 0
-113 -493 0
-113 -498 0
-113 -603 0
-113 -608 0
-113 -613 0
-113 -618 0
-113 -623 0
-118 -123 0
-118 -228 0
-118 -233 0
-118 -238 0
-118 -243 0
-118 -248 0
-118 -353 0
-118 -358 0
-118 -363 0
-118 -368 0
-118 -373 0
-118 -478 0
-118 -483 0
-118 -488 0
-118 -493 0
-118 -498 0
-118 -603 0
-118 -608 0
-118 -613 0
-118 -618 0
-118 -623 0
-123 -228 0
-123 -233 0
-123 -238 0
-123 -243 0
-123 -248 0
-123 -353 0
-123 -358 0
-123 -363 0
-123 -368 0
-123 -373 0
-123 -478 0
-123 -483 0
-123 -488 0
-123 -493 0
-123 -498 0
-123 -603 0
-123 -608 0
-123 -613 0
-123 -618 0
-123 -623 0
-228 -233 0
-228 -238 0
-228 -243 0
-228 -248 0
-228 -353 0
-228 -358 0
-228 -363 0
-228 -368 0
-228 -373 0
-228 -478 0
-228 -483 0
-228 -488 0
-228 -493 0
-228 -498 0
-228 -603 0
-228 -608 0
-228 -613 0
-228 -618 0
-228 -623 0
-233 -238 0
-233 -243 0
-233 -248 0
-233 -353 0
-233 -358 0
-233 -363 0
-233 -368 0
-233 -373 0
-233 -478 0
-233 -483 0
-233 -488 0
-233 -493 0
-233 -498 0
-233 -603 0
-233 -608 0
-233 -613 0
-233 -618 0
-233 -623 0
-238 -243 0
-238 -248 0
-238 -353 0
-238 -358 0
-238 -363 0
-238 -368 0
-238 -373 0
-238 -478 0
-238 -483 0
-238 -488 0
-238 -493 0
-238 -498 0
-238 -603 0
-238 -608 0
-238 -613 0
-238 -618 0
-238 -623 0
-243 -248 0
-243 -353 0
-243 -358 0
-243 -363 0
-243 -368 0
-243 -373 0
-243 -478 0
-243 -483 0
-243 -488 0
-243 -493 0
-243 -498 0
-243 -603 0
-243 -608 0
-243 -613 0
-243 -618 0
-243 -623 0
-248 -353 0
-248 -358 0
-248 -363 0
-248 -368 0
-248 -373 0
-248 -478 0
-248 -483 0
-248 -488 0
-248 -493 0
-248 -498 0
-248 -603 0
-248 -608 0
-248 -613 0
-248 -618 0
-248 -623 0
-353 -358 0
-353 -363 0
-353 -368 0
-353 -373 0
-353 -478 0
-353 -483 0
-353 -488 0
-353 -493 0
-353 -498 0
-353 -603 0
-353 -608 0
-353 -613 0
-353 -618 0
-353 -623 0
-358 -363 0
-358 -368 0
-358 -373 0
-358 -478 0
-358 -483 0
-358 -488 0
-358 -493 0
-358 -498 0
-358 -603 0
-358 -608 0
-358 -613 0
-358 -618 0
-358 -623 0
-363 -368 0
-363 -373 0
-363 -478 0
-363 -483 0
-363 -488 0
-363 -493 0
-363 -498 0
-363 -603 0
-363 -608 0
-363 -613 0
-363 -618 0
-363 -623 0
-368 -373 0
-368 -478 0
-368 -483 0
-368 -488 0
-368 -493 0
-368 -498 0
-368 -603 0
-368 -608 0
-368 -613 0
-368 -618 0
-368 -623 0
-373 -478 0
-373 -483 0
-373 -488 0
-373 -493 0
-373 -498 0
-373 -603 0
-373 -608 0
-373 -613 0
-373 -618 0
-373 -623 0
-478 -483 0
-478 -488 0
-478 -493 0
-478 -498 0
-478 -603 0
-478 -608 0
-478 -613 0
-478 -618 0
-478 -623 0
-483 -488 0
-483 -493 0
-483 -498 0
-483 -603 0
-483 -608 0
-483 -613 0
-483 -618 0
-483 -623 0
-488 -493 0
-488 -498 0
-488 -603 0
-488 -608 0
-488 -613 0
-488 -618 0
-488 -623 0
-493 -498 0
-493 -603 0
-493 -608 0
-493 -613 0
-493 -618 0
-493 -623 0
-498 -603 0
-498 -608 0
-498 -613 0
-498 -618 0
-498 -623 0
-603 -608 0
-603 -613 0
-603 -618 0
-603 -623 0
-608 -613 0
-608 -618 0
-608 -623 0
-613 -618 0
-613 -623 0
-618 -623 0
104 109 114 119 124 229 234 239 244 249 354 359 364 369 374 479 484 489 494 499 604 609 614 619 624 0
-104 -109 0
-104 -114 0
-104 -119 0
-104 -124 0
-104 -229 0
-104 -234 0
-104 -239 0
-104 -244 0
-104 -249 0
-104 -354 0
-104 -359 0
-104 -364 0
-104 -369 0
-104 -374 0
-104 -479 0
-104 -484 0
-104 -489 0
-104 -494 0
-104 -499 0
-104 -604 0
-104 -609 0
-104 -614 0
-104 -619 0
-104 -624 0
-109 -114 0
-109 -119 0
-109 -124 0
-109 -229 0
-109 -234 0
-109 -239 0
-109 -244 0
-109 -249 0
-109 -354 0
-109 -359 0
-109 -364 0
-109 -369 0
-109 -374 0
-109 -479 0
-109 -484 0
-109 -489 0
-109 -494 0
-109 -499 0
-109 -604 0
-109 -609 0
-109 -614 0
-109 -619 0
-109 -624 0
-114 -119 0
-114 -124 0
-114 -229 0
-114 -234 0
-114 -239 0
-114 -244 0
-114 -249 0
-114 -354 0
-114 -359 0
-114 -364 0
-114 -369 0
-114 -374 0
-114 -479 0
-114 -484 0
-114 -489 0
-114 -494 0
-114 -499 0
-114 -604 0
-114 -609 0
-114 -614 0
-114 -619 0
-114 -624 0
-119 -124 0
-119 -229 0
-119 -234 0
-119 -239 0
-119 -244 0
-119 -249 0
-119 -354 0
-119 -359 0
-119 -364 0
-119 -369 0
-119 -374 0
-119 -479 0
-119 -484 0
-119 -489 0
-119 -494 0
-119 -499 0
-119 -604 0
-119 -609 0
-119 -614 0
-119 -619 0
-119 -624 0
-124 -229 0
-124 -234 0
-124 -239 0
-124 -244 0
-124 -249 0
-124 -354 0
-124 -359 0
-124 -364 0
-124 -369 0
-124 -374 0
-124 -479 0
-124 -484 0
-124 -489 0
-124 -494 0
-124 -499 0
-124 -604 0
-124 -609 0
-124 -614 0
-124 -619 0
-124 -624 0
-229 -234 0
-229 -239 0
-229 -244 0
-229 -249 0
-229 -354 0
-229 -359 0
-229 -364 0
-229 -369 0
-229 -374 0
-229 -479 0
-229 -484 0
-229 -489 0
-229 -494 0
-229 -499 0
-229 -604 0
-229 -609 0
-229 -614 0
-229 -619 0
-229 -624 0
-234 -239 0
-234 -244 0
-234 -249 0
-234 -354 0
-234 -359 0
-234 -364 0
-234 -369 0
-234 -374 0
-234 -479 0
-234 -484 0
-234 -489 0
-234 -494 0
-234 -499 0
-234 -604 0
-234 -609 0
-234 -614 0
-234 -619 0
-234 -624 0
-239 -244 0
-239 -249 0
-239 -354 0
-239 -359 0
-239 -364 0
-239 -369 0
-239 -374 0
-239 -479 0
-239 -484 0
-239 -489 0
-239 -494 0
-239 -499 0
-239 -604 0
-239 -609 0
-239 -614 0
-239 -619 0
-239 -624 0
-244 -249 0
-244 -354 0
-244 -359 0
-244 -364 0
-244 -369 0
-244 -374 0
-244 -479 0
-244 -484 0
-244 -489 0
-244 -494 0
-244 -499 0
-244 -604 0
-244 -609 0
-244 -614 0
-244 -619 0
-244 -624 0
-249 -354 0
-249 -359 0
-249 -364 0
-249 -369 0
-249 -374 0
-249 -479 0
-249 -484 0
-249 -489 0
-249 -494 0
-249 -499 0
-249 -604 0
-249 -609 0
-249 -614 0
-249 -619 0
-249 -624 0
-354 -359 0
-354 -364 0
-354 -369 0
-354 -374 0
-354 -479 0
-354 -484 0
-354 -489 0
-354 -494 0
-354 -499 0
-354 -604 0
-354 -609 0
-354 -614 0
-354 -619 0
-354 -624 0
-359 -364 0
-359 -369 0
-359 -374 0
-359 -479 0
-359 -484 0
-359 -489 0
-359 -494 0
-359 -499 0
-359 -604 0
-359 -609 0
-359 -614 0
-359 -619 0
-359 -624 0
-364 -369 0
-364 -374 0
-364 -479 0
-364 -484 0
-364 -489 0
-364 -494 0
-364 -499 0
-364 -604 0
-364 -609 0
-364 -614 0
-364 -619 0
-364 -624 0
-369 -374 0
-369 -479 0
-369 -484 0
-369 -489 0
-369 -494 0
-369 -499 0
-369 -604 0
-369 -609 0
-369 -614 0
-369 -619 0
-369 -624 0
-374 -479 0
-374 -484 0
-374 -489 0
-374 -494 0
-374 -499 0
-374 -604 0
-374 -609 0
-374 -614 0
-374 -619 0
-374 -624 0
-479 -484 0
-479 -489 0
-479 -494 0
-479 -499 0
-479 -604 0
-479 -609 0
-479 -614 0
-479 -619 0
-479 -624 0
-484 -489 0
-484 -494 0
-484 -499 0
-484 -604 0
-484 -609 0
-484 -614 0
-484 -619 0
-484 -624 0
-489 -494 0
-489 -499 0
-489 -604 0
-489 -609 0
-489 -614 0
-489 -619 0
-489 -624 0
-494 -499 0
-494 -604 0
-494 -609 0
-494 -614 0
-494 -619 0
-494 -624 0
-499 -604 0
-499 -609 0
-499 -614 0
-499 -619 0
-499 -624 0
-604 -609 0
-604 -614 0
-604 -619 0
-604 -624 0
-609 -614 0
-609 -619 0
-609 -624 0
-614 -619 0
-614 -624 0
-619 -624 0
105 110 115 120 125 230 235 240 245 250 355 360 365 370 375 480 485 490 495 500 605 610 615 620 625 0
-105 -110 0
-105 -115 0
-105 -120 0
-105 -125 0
-105 -230 0
-105 -235 0
-105 -240 0
-105 -245 0
-105 -250 0
-105 -355 0
-105 -360 0
-105 -365 0
-105 -370 0
-105 -375 0
-105 -480 0
-105 -485 0
-105 -490 0
-105 -495 0
-105 -500 0
-105 -605 0
-105 -610 0
-105 -615 0
-105 -620 0
-105 -625 0
-110 -115 0
-110 -120 0
-110 -125 0
-110 -230 0
-110 -235 0
-110 -240 0
-110 -245 0
-110 -250 0
-110 -355 0
-110 -360 0
-110 -365 0
-110 -370 0
-110 -375 0
-110 -480 0
-110 -485 0
-110 -490 0
-110 -495 0
-110 -500 0
-110 -605 0
-110 -610 0
-110 -615 0
-110 -620 0
-110 -625 0
-115 -120 0
-115 -125 0
-115 -230 0
-115 -235 0
-115 -240 0
-115 -245 0
-115 -250 0
-115 -355 0
-115 -360 0
-115 -365 0
-115 -370 0
-115 -375 0
-115 -480 0
-115 -485 0
-115 -490 0
-115 -495 0
-115 -500 0
-115 -605 0
-115 -610 0
-115 -615 0
-115 -620 0
-115 -625 0
-120 -125 0
-120 -230 0
-120 -235 0
-120 -240 0
-120 -245 0
-120 -250 0
-120 -355 0
-120 -360 0
-120 -365 0
-120 -370 0
-120 -375 0
-120 -480 0
-120 -485 0
-120 -490 0
-120 -495 0
-120 -500 0
-120 -605 0
-120 -610 0
-120 -615 0
-120 -620 0
-120 -625 0
-125 -230 0
-125 -235 0
-125 -240 0
-125 -245 0
-125 -250 0
-125 -355 0
-125 -360 0
-125 -365 0
-125 -370 0
-125 -375 0
-125 -480 0
-125 -485 0
-125 -490 0
-125 -495 0
-125 -500 0
-125 -605 0
-125 -610 0
-125 -615 0
-125 -620 0
-125 -625 0
-230 -235 0
-230 -240 0
-230 -245 0
-230 -250 0
-230 -355 0
-230 -360 0
-230 -365 0
-230 -370 0
-230 -375 0
-230 -480 0
-230 -485 0
-230 -490 0
-230 -495 0
-230 -500 0
-230 -605 0
-230 -610 0
-230 -615 0
-230 -620 0
-230 -625 0
-235 -240 0
-235 -245 0
-235 -250 0
-235 -355 0
-235 -360 0
-235 -365 0
-235 -370 0
-235 -375 0
-235 -480 0
-235 -485 0
-235 -490 0
-235 -495 0
-235 -500 0
-235 -605 0
-235 -610 0
-235 -615 0
-235 -620 0
-235 -625 0
-240 -245 0
-240 -250 0
-240 -355 0
-240 -360 0
-240 -365 0
-240 -370 0
-240 -375 0
-240 -480 0
-240 -485 0
-240 -490 0
-240 -495 0
-240 -500 0
-240 -605 0
-240 -610 0
-240 -615 0
-240 -620 0
-240 -625 0
-245 -250 0
-245 -355 0
-245 -360 0
-245 -365 0
-245 -370 0
-245 -375 0
-245 -480 0
-245 -485 0
-245 -490 0
-245 -495 0
-245 -500 0
-245 -605 0
-245 -610 0
-245 -615 0
-245 -620 0
-245 -625 0
-250 -355 0
-250 -360 0
-250 -365 0
-250 -370 0
-250 -375 0
-250 -480 0
-250 -485 0
-250 -490 0
-250 -495 0
-250 -500 0
-250 -605 0
-250 -610 0
-250 -615 0
-250 -620 0
-250 -625 0
-355 -360 0
-355 -365 0
-355 -370 0
-355 -375 0
-355 -480 0
-355 -485 0
-355 -490 0
-355 -495 0
-355 -500 0
-355 -605 0
-355 -610 0
-355 -615 0
-355 -620 0
-355 -625 0
-360 -365 0
-360 -370 0
-360 -375 0
-360 -480 0
-360 -485 0
-360 -490 0
-360 -495 0
-360 -500 0
-360 -605 0
-360 -610 0
-360 -615 0
-360 -620 0
-360 -625 0
-365 -370 0
-365 -375 0
-365 -480 0
-365 -485 0
-365 -490 0
-365 -495 0
-365 -500 0
-365 -605 0
-365 -610 0
-365 -615 0
-365 -620 0
-365 -625 0
-370 -375 0
-370 -480 0
-370 -485 0
-370 -490 0
-370 -495 0
-370 -500 0
-370 -605 0
-370 -610 0
-370 -615 0
-370 -620 0
-370 -625 0
-375 -480 0
-375 -485 0
-375 -490 0
-375 -495 0
-375 -500 0
-375 -605 0
-375 -610 0
-375 -615 0
-375 -620 0
-375 -625 0
-480 -485 0
-480 -490 0
-480 -495 0
-480 -500 0
-480 -605 0
-480 -610 0
-480 -615 0
-480 -620 0
-480 -625 0
-485 -490 0
-485 -495 0
-485 -500 0
-485 -605 0
-485 -610 0
-485 -615 0
-485 -620 0
-485 -625 0
-490 -495 0
-490 -500 0
-490 -605 0
-490 -610 0
-490 -615 0
-490 -620 0
-490 -625 0
-495 -500 0
-495 -605 0
-495 -610 0
-495 -615 0
-495 -620 0
-495 -625 0
-500 -605 0
-500 -610 0
-500 -615 0
-500 -620 0
-500 -625 0
-605 -610 0
-605 -615 0
-605 -620 0
-605 -625 0
-610 -615 0
-610 -620 0
-610 -625 0
-615 -620 0
-615 -625 0
-620 -625 0
1 26 51 76 101 126 151 176 201 226 251 276 301 326 351 376 401 426 451 476 501 526 551 576 601 0
-1 -26 0
-1 -51 0
-1 -76 0
-1 -101 0
-1 -126 0
-1 -151 0
-1 -176 0
-1 -201 0
-1 -226 0
-1 -251 0
-1 -276 0
-1 -301 0
-1 -326 0
-1 -351 0
-1 -376 0
-1 -401 0
-1 -426 0
-1 -451 0
-1 -476 0
-1 -501 0
-1 -526 0
-1 -551 0
-1 -576 0
-1 -601 0
-26 -51 0
-26 -76 0
-26 -101 0
-26 -126 0
-26 -151 0
-26 -176 0
-26 -201 0
-26 -226 0
-26 -251 0
-26 -276 0
-26 -301 0
-26 -326 0
-26 -351 0
-26 -376 0
-26 -401 0
-26 -426 0
-26 -451 0
-26 -476 0
-26 -501 0
-26 -526 0
-26 -551 0
-26 -576 0
-26 -601 0
-51 -76 0
-51 -101 0
-51 -126 0
-51 -151 0
-51 -176 0
-51 -201 0
-51 -226 0
-51 -251 0
-51 -276 0
-51 -301 0
-51 -326 0
-51 -351 0
-51 -376 0
-51 -401 0
-51 -426 0
-51 -451 0
-51 -476 0
-51 -501 0
-51 -526 0
-51 -551 0
-51 -576 0
-51 -601 0
-76 -101 0
-76 -126 0
-76 -151 0
-76 -176 0
-76 -201 0
-76 -226 0
-76 -251 0
-76 -276 0
-76 -301 0
-76 -326 0
-76 -351 0
-76 -376 0
-76 -401 0
-76 -426 0
-76 -451 0
-76 -476 0
-76 -501 0
-76 -526 0
-76 -551 0
-76 -576 0
-76 -601 0
-101 -126 0
-101 -151 0
-101 -176 0
-101 -201 0
-101 -226 0
-101 -251 0
-101 -276 0
-101 -301 0
-101 -326 0
-101 -351 0
-101 -376 0
-101 -401 0
-101 -426 0
-101 -451 0
-101 -476 0
-101 -501 0
-101 -526 0
-101 -551 0
-101 -576 0
-101 -601 0
-126 -151 0
-126 -176 0
-126 -201 0
-126 -226 0
-126 -251 0
-126 -276 0
-126 -301 0
-126 -326 0
-126 -351 0
-126 -376 0
-126 -401 0
-126 -426 0
-126 -451 0
-126 -476 0
-126 -501 0
-126 -526 0
-126 -551 0
-126 -576 0
-126 -601 0
-151 -176 0
-151 -201 0
-151 -226 0
-151 -251 0
-151 -276 0
-151 -301 0
-151 -326 0
-151 -351 0
-151 -376 0
-151 -401 0
-151 -426 0
-151 -451 0
-151 -476 0
-151 -501 0
-151 -526 0
-151 -551 0
-151 -576 0
-151 -601 0
-176 -201 0
-176 -226 0
-176 -251 0
-176 -276 0
-176 -301 0
-176 -326 0
-176 -351 0
-176 -376 0
-176 -401 0
-176 -426 0
-176 -451 0
-176 -476 0
-176 -501 0
-176 -526 0
-176 -551 0
-176 -576 0
-176 -601 0
-201 -226 0
-201 -251 0
-201 -276 0
-201 -301 0
-201 -326 0
-201 -351 0
-201 -376 0
-201 -401 0
-201 -426 0
-201 -451 0
-201 -476 0
-201 -501 0
-201 -526 0
-201 -551 0
-201 -576 0
-201 -601 0
-226 -251 0
-226 -276 0
-226 -301 0
-226 -326 0
-226 -351 0
-226 -376 0
-226 -401 0
-226 -426 0
-226 -451 0
-226 -476 0
-226 -501 0
-226 -526 0
-226 -551 0
-226 -576 0
-226 -601 0
-251 -276 0
-251 -301 0
-251 -326 0
-251 -351 0
-251 -376 0
-251 -401 0
-251 -426 0
-251 -451 0
-251 -476 0
-251 -501 0
-251 -526 0
-251 -551 0
-251 -576 0
-251 -601 0
-276 -301 0
-276 -326 0
-276 -351 0
-276 -376 0
-276 -401 0
-276 -426 0
-276 -451 0
-276 -476 0
-276 -501 0
-276 -526 0
-276 -551 0
-276 -576 0
-276 -601 0
-301 -326 0
-301 -351 0
-301 -376 0
-301 -401 0
-301 -426 0
-301 -451 0
-301 -476 0
-301 -501 0
-301 -526 0
-301 -551 0
-301 -576 0
-301 -601 0
-326 -351 0
-326 -376 0
-326 -401 0
-326 -426 0
-326 -451 0
-326 -476 0
-326 -501 0
-326 -526 0
-326 -551 0
-326 -576 0
-326 -601 0
-351 -376 0
-351 -401 0
-351 -426 0
-351 -451 0
-351 -476 0
-351 -501 0
-351 -526 0
-351 -551 0
-351 -576 0
-351 -601 0
-376 -401 0
-376 -426 0
-376 -451 0
-376 -476 0
-376 -501 0
-376 -526 0
-376 -551 0
-376 -576 0
-376 -601 0
-401 -426 0
-401 -451 0
-401 -476 0
-401 -501 0
-401 -526 0
-401 -551 0
-401 -576 0
-401 -601 0
-426 -451 0
-426 -476 0
-426 -501 0
-426 -526 0
-426 -551 0
-426 -576 0
-426 -601 0
-451 -476 0
-451 -501 0
-451 -526 0
-451 -551 0
-451 -576 0
-451 -601 0
-476 -501 0
-476 -526 0
-476 -551 0
-476 -576 0
-476 -601 0
-501 -526 0
-501 -551 0
-501 -576 0
-501 -601 0
-526 -551 0
-526 -576 0
-526 -601 0
-551 -576 0
-551 -601 0
-576 -601 0
2 27 52 77 102 127 152 177 202 227 252 277 302 327 352 377 402 427 452 477 502 527 552 577 602 0
-2 -27 0
-2 -52 0
-2 -77 0
-2 -102 0
-2 -127 0
-2 -152 0
-2 -177 0
-2 -202 0
-2 -227 0
-2 -252 0
-2 -277 0
-2 -302 0
-2 -327 0
-2 -352 0
-2 -377 0
-2 -402 0
-2 -427 0
-2 -452 0
-2 -477 0
-2 -502 0
-2 -527 0
-2 -552 0
-2 -577 0
-2 -602 0
-27 -52 0
-27 -77 0
-27 -102 0
-27 -127 0
-27 -152 0
-27 -177 0
-27 -202 0
-27 -227 0
-27 -252 0
-27 -277 0
-27 -302 0
-27 -327 0
-27 -352 0
-27 -377 0
-27 -402 0
-27 -427 0
-27 -452 0
-27 -477 0
-27 -502 0
-27 -527 0
-27 -552 0
-27 -577 0
-27 -602 0
-52 -77 0
-52 -102 0
-52 -127 0
-52 -152 0
-52 -177 0
-52 -202 0
-52 -227 0
-52 -252 0
-52 -277 0
-52 -302 0
-52 -327 0
-52 -352 0
-52 -377 0
-52 -402 0
-52 -427 0
-52 -452 0
-52 -477 0
-52 -502 0
-52 -527 0
-52 -552 0
-52 -577 0
-52 -602 0
-77 -102 0
-77 -127 0
-77 -152 0
-77 -177 0
-77 -202 0
-77 -227 0
-77 -252 0
-77 -277 0
-77 -302 0
-77 -327 0
-77 -352 0
-77 -377 0
-77 -402 0
-77 -427 0
-77 -452 0
-77 -477 0
-77 -502 0
-77 -527 0
-77 -552 0
-77 -577 0
-77 -602 0
-102 -127 0
-102 -152 0
-102 -177 0
-102 -202 0
-102 -227 0
-102 -252 0
-102 -277 0
-102 -302 0
-102 -327 0
-102 -352 0
-102 -377 0
-102 -402 0
-102 -427 0
-102 -452 0
-102 -477 0
-102 -502 0
-102 -527 0
-102 -552 0
-102 -577 0
-102 -602 0
-127 -152 0
-127 -177 0
-127 -202 0
-127 -227 0
-127 -252 0
-127 -277 0
-127 -302 0
-127 -327 0
-127 -352 0
-127 -377 0
-127 -402 0
-127 -427 0
-127 -452 0
-127 -477 0
-127 -502 0
-127 -527 0
-127 -552 0
-127 -577 0
-127 -602 0
-152 -177 0
-152 -202 0
-152 -227 0
-152 -252 0
-152 -277 0
-152 -302 0
-152 -327 0
-152 -352 0
-152 -377 0
-152 -402 0
-152 -427 0
-152 -452 0
-152 -477 0
-152 -502 0
-152 -527 0
-152 -552 0
-152 -577 0
-152 -602 0
-177 -202 0
-177 -227 0
-177 -252 0
-177 -277 0
-177 -302 0
-177 -327 0
-177 -352 0
-177 -377 0
-177 -402 0
-177 -427 0
-177 -452 0
-177 -477 0
-177 -502 0
-177 -527 0
-177 -552 0
-177 -577 0
-177 -602 0
-202 -227 0
-202 -252 0
-202 -277 0
-202 -302 0
-202 -327 0
-202 -352 0
-202 -377 0
-202 -402 0
-202 -427 0
-202 -452 0
-202 -477 0
-202 -502 0
-202 -527 0
-202 -552 0
-202 -577 0
-202 -602 0
-227 -252 0
-227 -277 0
-227 -302 0
-227 -327 0
-227 -352 0
-227 -377 0
-227 -402 0
-227 -427 0
-227 -452 0
-227 -477 0
-227 -502 0
-227 -527 0
-227 -552 0
-227 -577 0
-227 -602 0
-252 -277 0
-252 -302 0
-252 -327 0
-252 -352 0
-252 -377 0
-252 -402 0
-252 -427 0
-252 -452 0
-252 -477 0
-252 -502 0
-252 -527 0
-252 -552 0
-252 -577 0
-252 -602 0
-277 -302 0
-277 -327 0
-277 -352 0
-277 -377 0
-277 -402 0
-277 -427 0
-277 -452 0
-277 -477 0
-277 -502 0
-277 -527 0
-277 -552 0
-277 -577 0
-277 -602 0
-302 -327 0
-302 -352 0
-302 -377 0
-302 -402 0
-302 -427 0
-302 -452 0
-302 -477 0
-302 -502 0
-302 -527 0
-302 -552 0
-302 -577 0
-302 -602 0
-327 -352 0
-327 -377 0
-327 -402 0
-327 -427 0
-327 -452 0
-327 -477 0
-327 -502 0
-327 -527 0
-327 -552 0
-327 -577 0
-327 -602 0
-352 -377 0
-352 -402 0
-352 -427 0
-352 -452 0
-352 -477 0
-352 -502 0
-352 -527 0
-352 -552 0
-352 -577 0
-352 -602 0
-377 -402 0
-377 -427 0
-377 -452 0
-377 -477 0
-377 -502 0
-377 -527 0
-377 -552 0
-377 -577 0
-377 -602 0
-402 -427 0
-402 -452 0
-402 -477 0
-402 -502 0
-402 -527 0
-402 -552 0
-402 -577 0
-402 -602 0
-427 -452 0
-427 -477 0
-427 -502 0
-427 -527 0
-427 -552 0
-427 -577 0
-427 -602 0
-452 -477 0
-452 -502 0
-452 -527 0
-452 -552 0
-452 -577 0
-452 -602 0
-477 -502 0
-477 -527 0
-477 -552 0
-477 -577 0
-477 -602 0
-502 -527 0
-502 -552 0
-502 -577 0
-502 -602 0
-527 -552 0
-527 -577 0
-527 -602 0
-552 -577 0
-552 -602 0
-577 -602 0
3 28 53 78 103 128 153 178 203 228 253 278 303 328 353 378 403 428 453 478 503 528 553 578 603 0
-3 -28 0
-3 -53 0
-3 -78 0
-3 -103 0
-3 -128 0
-3 -153 0
-3 -178 0
-3 -203 0
-3 -228 0
-3 -253 0
-3 -278 0
-3 -303 0
-3 -328 0
-3 -353 0
-3 -378 0
-3 -403 0
-3 -428 0
-3 -453 0
-3 -478 0
-3 -503 0
-3 -528 0
-3 -553 0
-3 -578 0
-3 -603 0
-28 -53 0
-28 -78 0
-28 -103 0
-28 -128 0
-28 -153 0
-28 -178 0
-28 -203 0
-28 -228 0
-28 -253 0
-28 -278 0
-28 -303 0
-28 -328 0
-28 -353 0
-28 -378 0
-28 -403 0
-28 -428 0
-28 -453 0
-28 -478 0
-28 -503 0
-28 -528 0
-28 -553 0
-28 -578 0
-28 -603 0
-53 -78 0
-53 -103 0
-53 -128 0
-53 -153 0
-53 -178 0
-53 -203 0
-53 -228 0
-53 -253 0
-53 -278 0
-53 -303 0
-53 -328 0
-53 -353 0
-53 -378 0
-53 -403 0
-53 -428 0
-53 -453 0
-53 -478 0
-53 -503 0
-53 -528 0
-53 -553 0
-53 -578 0
-53 -603 0
-78 -103 0
-78 -128 0
-78 -153 0
-78 -178 0
-78 -203 0
-78 -228 0
-78 -253 0
-78 -278 0
-78 -303 0
-78 -328 0
-78 -353 0
-78 -378 0
-78 -403 0
-78 -428 0
-78 -453 0
-78 -478 0
-78 -503 0
-78 -528 0
-78 -553 0
-78 -578 0
-78 -603 0
-103 -128 0
-103 -153 0
-103 -178 0
-103 -203 0
-103 -228 0
-103 -253 0
-103 -278 0
-103 -303 0
-103 -328 0
-103 -353 0
-103 -378 0
-103 -403 0
-103 -428 0
-103 -453 0
-103 -478 0
-103 -503 0
-103 -528 0
-103 -553 0
-103 -578 0
-103 -603 0
-128 -153 0
-128 -178 0
-128 -203 0
-128 -228 0
-128 -253 0
-128 -278 0
-128 -303 0
-128 -328 0
-128 -353 0
-128 -378 0
-128 -403 0
-128 -428 0
-128 -453 0
-128 -478 0
-128 -503 0
-128 -528 0
-128 -553 0
-128 -578 0
-128 -603 0
-153 -178 0
-153 -203 0
-153 -228 0
-153 -253 0
-153 -278 0
-153 -303 0
-153 -328 0
-153 -353 0
-153 -378 0
-153 -403 0
-153 -428 0
-153 -453 0
-153 -478 0
-153 -503 0
-153 -528 0
-153 -553 0
-153 -578 0
-153 -603 0
-178 -203 0
-178 -228 0
-178 -253 0
-178 -278 0
-178 -303 0
-178 -328 0
-178 -353 0
-178 -378 0
-178 -403 0
-178 -428 0
-178 -453 0
-178 -478 0
-178 -503 0
-178 -528 0
-178 -553 0
-178 -578 0
-178 -603 0
-203 -228 0
-203 -253 0
-203 -278 0
-203 -303 0
-203 -328 0
-203 -353 0
-203 -378 0
-203 -403 0
-203 -428 0
-203 -453 0
-203 -478 0
-203 -503 0
-203 -528 0
-203 -553 0
-203 -578 0
-203 -603 0
-228 -253 0
-228 -278 0
-228 -303 0
-228 -328 0
-228 -353 0
-228 -378 0
-228 -403 0
-228 -428 0
-228 -453 0
-228 -478 0
-228 -503 0
-228 -528 0
-228 -553 0
-228 -578 0
-228 -603 0
-253 -278 0
-253 -303 0
-253 -328 0
-253 -353 0
-253 -378 0
-253 -403 0
-253 -428 0
-253 -453 0
-253 -478 0
-253 -503 0
-253 -528 0
-253 -553 0
-253 -578 0
-253 -603 0
-278 -303 0
-278 -328 0
-278 -353 0
-278 -378 0
-278 -403 0
-278 -428 0
-278 -453 0
-278 -478 0
-278 -503 0
-278 -528 0
-278 -553 0
-278 -578 0
-278 -603 0
-303 -328 0
-303 -353 0
-303 -378 0
-303 -403 0
-303 -428 0
-303 -453 0
-303 -478 0
-303 -503 0
-303 -528 0
-303 -553 0
-303 -578 0
-303 -603 0
-328 -353 0
-328 -378 0
-328 -403 0
-328 -428 0
-328 -453 0
-328 -478 0
-328 -503 0
-328 -528 0
-328 -553 0
-328 -578 0
-328 -603 0
-353 -378 0
-353 -403 0
-353 -428 0
-353 -453 0
-353 -478 0
-353 -503 0
-353 -528 0
-353 -553 0
-353 -578 0
-353 -603 0
-378 -403 0
-378 -428 0
-378 -453 0
-378 -478 0
-378 -503 0
-378 -528 0
-378 -553 0
-378 -578 0
-378 -603 0
-403 -428 0
-403 -453 0
-403 -478 0
-403 -503 0
-403 -528 0
-403 -553 0
-403 -578 0
-403 -603 0
-428 -453 0
-428 -478 0
-428 -503 0
-428 -528 0
-428 -553 0
-428 -578 0
-428 -603 0
-453 -478 0
-453 -503 0
-453 -528 0
-453 -553 0
-453 -578 0
-453 -603 0
-478 -503 0
-478 -528 0
-478 -553 0
-478 -578 0
-478 -603 0
-503 -528 0
-503 -553 0
-503 -578 0
-503 -603 0
-528 -553 0
-528 -578 0
-528 -603 0
-553 -578 0
-553 -603 0
-578 -603 0
4 29 54 79 104 129 154 179 204 229 254 279 304 329 354 379 404 429 454 479 504 529 554 579 604 0
-4 -29 0
-4 -54 0
-4 -79 0
-4 -104 0
-4 -129 0
-4 -154 0
-4 -179 0
-4 -204 0
-4 -229 0
-4 -254 0
-4 -279 0
-4 -304 0
-4 -329 0
-4 -354 0
-4 -379 0
-4 -404 0
-4 -429 0
-4 -454 0
-4 -479 0
-4 -504 0
-4 -529 0
-4 -554 0
-4 -579 0
-4 -604 0
-29 -54 0
-29 -79 0
-29 -104 0
-29 -129 0
-29 -154 0
-29 -179 0
-29 -204 0
-29 -229 0
-29 -254 0
-29 -279 0
-29 -304 0
-29 -329 0
-29 -354 0
-29 -379 0
-29 -404 0
-29 -429 0
-29 -454 0
-29 -479 0
-29 -504 0
-29 -529 0
-29 -554 0
-29 -579 0
-29 -604 0
-54 -79 0
-54 -104 0
-54 -129 0
-54 -154 0
-54 -179 0
-54 -204 0
-54 -229 0
-54 -254 0
-54 -279 0
-54 -304 0
-54 -329 0
-54 -354 0
-54 -379 0
-54 -404 0
-54 -429 0
-54 -454 0
-54 -479 0
-54 -504 0
-54 -529 0
-54 -554 0
-54 -579 0
-54 -604 0
-79 -104 0
-79 -129 0
-79 -154 0
-79 -179 0
-79 -204 0
-79 -229 0
-79 -254 0
-79 -279 0
-79 -304 0
-79 -329 0
-79 -354 0
-79 -379 0
-79 -404 0
-79 -429 0
-79 -454 0
-79 -479 0
-79 -504 0
-79 -529 0
-79 -554 0
-79 -579 0
-79 -604 0
-104 -129 0
-104 -154 0
-104 -179 0
-104 -204 0
-104 -229 0
-104 -254 0
-104 -279 0
-104 -304 0
-104 -329 0
-104 -354 0
-104 -379 0
-104 -404 0
-104 -429 0
-104 -454 0
-104 -479 0
-104 -504 0
-104 -529 0
-104 -554 0
-104 -579 0
-104 -604 0
-129 -154 0
-129 -179 0
-129 -204 0
-129 -229 0
-129 -254 0
-129 -279 0
-129 -304 0
-129 -329 0
-129 -354 0
-129 -379 0
-129 -404 0
-129 -429 0
-129 -454 0
-129 -479 0
-129 -504 0
-129 -529 0
-129 -554 0
-129 -579 0
-129 -604 0
-154 -179 0
-154 -204 0
-154 -229 0
-154 -254 0
-154 -279 0
-154 -304 0
-154 -329 0
-154 -354 0
-154 -379 0
-154 -404 0
-154 -429 0
-154 -454 0
-154 -479 0
-154 -504 0
-154 -529 0
-154 -554 0
-154 -579 0
-154 -604 0
-179 -204 0
-179 -229 0
-179 -254 0
-179 -279 0
-179 -304 0
-179 -329 0
-179 -354 0
-179 -379 0
-179 -404 0
-179 -429 0
-179 -454 0
-179 -479 0
-179 -504 0
-179 -529 0
-179 -554 0
-179 -579 0
-179 -604 0
-204 -229 0
-204 -254 0
-204 -279 0
-204 -304 0
-204 -329 0
-204 -354 0
-204 -379 0
-204 -404 0
-204 -429 0
-204 -454 0
-204 -479 0
-204 -504 0
-204 -529 0
-204 -554 0
-204 -579 0
-204 -604 0
-229 -254 0
-229 -279 0
-229 -304 0
-229 -329 0
-229 -354 0
-229 -379 0
-229 -404 0
-229 -429 0
-229 -454 0
-229 -479 0
-229 -504 0
-229 -529 0
-229 -554 0
-229 -579 0
-229 -604 0
-254 -279 0
-254 -304 0
-254 -329 0
-254 -354 0
-254 -379 0
-254 -404 0
-254 -429 0
-254 -454 0
-254 -479 0
-254 -504 0
-254 -529 0
-254 -554 0
-254 -579 0
-254 -604 0
-279 -304 0
-279 -329 0
-279 -354 0
-279 -379 0
-279 -404 0
-279 -429 0
-279 -454 0
-279 -479 0
-279 -504 0
-279 -529 0
-279 -554 0
-279 -579 0
-279 -604 0
-304 -329 0
-304 -354 0
-304 -379 0
-304 -404 0
-304 -429 0
-304 -454 0
-304 -479 0
-304 -504 0
-304 -529 0
-304 -554 0
-304 -579 0
-304 -604 0
-329 -354 0
-329 -379 0
-329 -404 0
-329 -429 0
-329 -454 0
-329 -479 0
-329 -504 0
-329 -529 0
-329 -554 0
-329 -579 0
-329 -604 0
-354 -379 0
-354 -404 0
-354 -429 0
-354 -454 0
-354 -479 0
-354 -504 0
-354 -529 0
-354 -554 0
-354 -579 0
-354 -604 0
-379 -404 0
-379 -429 0
-379 -454 0
-379 -479 0
-379 -504 0
-379 -529 0
-379 -554 0
-379 -579 0
-379 -604 0
-404 -429 0
-404 -454 0
-404 -479 0
-404 -504 0
-404 -529 0
-404 -554 0
-404 -579 0
-404 -604 0
-429 -454 0
-429 -479 0
-429 -504 0
-429 -529 0
-429 -554 0
-429 -579 0
-429 -604 0
-454 -479 0
-454 -504 0
-454 -529 0
-454 -554 0
-454 -579 0
-454 -604 0
-479 -504 0
-479 -529 0
-479 -554 0
-479 -579 0
-479 -604 0
-504 -529 0
-504 -554 0
-504 -579 0
-504 -604 0
-529 -554 0
-529 -579 0
-529 -604 0
-554 -579 0
-554 -604 0
-579 -604 0
5 30 55 80 105 130 155 180 205 230 255 280 305 330 355 380 405 430 455 480 505 530 555 580 605 0
-5 -30 0
-5 -55 0
-5 -80 0
-5 -105 0
-5 -130 0
-5 -155 0
-5 -180 0
-5 -205 0
-5 -230 0
-5 -255 0
-5 -280 0
-5 -305 0
-5 -330 0
-5 -355 0
-5 -380 0
-5 -405 0
-5 -430 0
-5 -455 0
-5 -480 0
-5 -505 0
-5 -530 0
-5 -555 0
-5 -580 0
-5 -605 0
-30 -55 0
-30 -80 0
-30 -105 0
-30 -130 0
-30 -155 0
-30 -180 0
-30 -205 0
-30 -230 0
-30 -255 0
-30 -280 0
-30 -305 0
-30 -330 0
-30 -355 0
-30 -380 0
-30 -405 0
-30 -430 0
-30 -455 0
-30 -480 0
-30 -505 0
-30 -530 0
-30 -555 0
-30 -580 0
-30 -605 0
-55 -80 0
-55 -105 0
-55 -130 0
-55 -155 0
-55 -180 0
-55 -205 0
-55 -230 0
-55 -255 0
-55 -280 0
-55 -305 0
-55 -330 0
-55 -355 0
-55 -380 0
-55 -405 0
-55 -430 0
-55 -455 0
-55 -480 0
-55 -505 0
-55 -530 0
-55 -555 0
-55 -580 0
-55 -605 0
-80 -105 0
-80 -130 0
-80 -155 0
-80 -180 0
-80 -205 0
-80 -230 0
-80 -255 0
-80 -280 0
-80 -305 0
-80 -330 0
-80 -355 0
-80 -380 0
-80 -405 0
-80 -430 0
-80 -455 0
-80 -480 0
-80 -505 0
-80 -530 0
-80 -555 0
-80 -580 0
-80 -605 0
-105 -130 0
-105 -155 0
-105 -180 0
-105 -205 0
-105 -230 0
-105 -255 0
-105 -280 0
-105 -305 0
-105 -330 0
-105 -355 0
-105 -380 0
-105 -405 0
-105 -430 0
-105 -455 0
-105 -480 0
-105 -505 0
-105 -530 0
-105 -555 0
-105 -580 0
-105 -605 0
-130 -155 0
-130 -180 0
-130 -205 0
-130 -230 0
-130 -255 0
-130 -280 0
-130 -305 0
-130 -330 0
-130 -355 0
-130 -380 0
-130 -405 0
-130 -430 0
-130 -455 0
-130 -480 0
-130 -505 0
-130 -530 0
-130 -555 0
-130 -580 0
-130 -605 0
-155 -180 0
-155 -205 0
-155 -230 0
-155 -255 0
-155 -280 0
-155 -305 0
-155 -330 0
-155 -355 0
-155 -380 0
-155 -405 0
-155 -430 0
-155 -455 0
-155 -480 0
-155 -505 0
-155 -530 0
-155 -555 0
-155 -580 0
-155 -605 0
-180 -205 0
-180 -230 0
-180 -255 0
-180 -280 0
-180 -305 0
-180 -330 0
-180 -355 0
-180 -380 0
-180 -405 0
-180 -430 0
-180 -455 0
-180 -480 0
-180 -505 0
-180 -530 0
-180 -555 0
-180 -580 0
-180 -605 0
-205 -230 0
-205 -255 0
-205 -280 0
-205 -305 0
-205 -330 0
-205 -355 0
-205 -380 0
-205 -405 0
-205 -430 0
-205 -455 0
-205 -480 0
-205 -505 0
-205 -530 0
-205 -555 0
-205 -580 0
-205 -605 0
-230 -255 0
-230 -280 0
-230 -305 0
-230 -330 0
-230 -355 0
-230 -380 0
-230 -405 0
-230 -430 0
-230 -455 0
-230 -480 0
-230 -505 0
-230 -530 0
-230 -555 0
-230 -580 0
-230 -605 0
-255 -280 0
-255 -305 0
-255 -330 0
-255 -355 0
-255 -380 0
-255 -405 0
-255 -430 0
-255 -455 0
-255 -480 0
-255 -505 0
-255 -530 0
-255 -555 0
-255 -580 0
-255 -605 0
-280 -305 0
-280 -330 0
-280 -355 0
-280 -380 0
-280 -405 0
-280 -430 0
-280 -455 0
-280 -480 0
-280 -505 0
-280 -530 0
-280 -555 0
-280 -580 0
-280 -605 0
-305 -330 0
-305 -355 0
-305 -380 0
-305 -405 0
-305 -430 0
-305 -455 0
-305 -480 0
-305 -505 0
-305 -530 0
-305 -555 0
-305 -580 0
-305 -605 0
-330 -355 0
-330 -380 0
-330 -405 0
-330 -430 0
-330 -455 0
-330 -480 0
-330 -505 0
-330 -530 0
-330 -555 0
-330 -580 0
-330 -605 0
-355 -380 0
-355 -405 0
-355 -430 0
-355 -455 0
-355 -480 0
-355 -505 0
-355 -530 0
-355 -555 0
-355 -580 0
-355 -605 0
-380 -405 0
-380 -430 0
-380 -455 0
-380 -480 0
-380 -505 0
-380 -530 0
-380 -555 0
-380 -580 0
-380 -605 0
-405 -430 0
-405 -455 0
-405 -480 0
-405 -505 0
-405 -530 0
-405 -555 0
-405 -580 0
-405 -605 0
-430 -455 0
-430 -480 0
-430 -505 0
-430 -530 0
-430 -555 0
-430 -580 0
-430 -605 0
-455 -480 0
-455 -505 0
-455 -530 0
-455 -555 0
-455 -580 0
-455 -605 0
-480 -505 0
-480 -530 0
-480 -555 0
-480 -580 0
-480 -605 0
-505 -530 0
-505 -555 0
-505 -580 0
-505 -605 0
-530 -555 0
-530 -580 0
-530 -605 0
-555 -580 0
-555 -605 0
-580 -605 0
6 31 56 81 106 131 156 181 206 231 256 281 306 331 356 381 406 431 456 481 506 531 556 581 606 0
-6 -31 0
-6 -56 0
-6 -81 0
-6 -106 0
-6 -131 0
-6 -156 0
-6 -181 0
-6 -206 0
-6 -231 0
-6 -256 0
-6 -281 0
-6 -306 0
-6 -331 0
-6 -356 0
-6 -381 0
-6 -406 0
-6 -431 0
-6 -456 0
-6 -481 0
-6 -506 0
-6 -531 0
-6 -556 0
-6 -581 0
-6 -606 0
-31 -56 0
-31 -81 0
-31 -106 0
-31 -131 0
-31 -156 0
-31 -181 0
-31 -206 0
-31 -231 0
-31 -256 0
-31 -281 0
-31 -306 0
-31 -331 0
-31 -356 0
-31 -381 0
-31 -406 0
-31 -431 0
-31 -456 0
-31 -481 0
-31 -506 0
-31 -531 0
-31 -556 0
-31 -581 0
-31 -606 0
-56 -81 0
-56 -106 0
-56 -131 0
-56 -156 0
-56 -181 0
-56 -206 0
-56 -231 0
-56 -256 0
-56 -281 0
-56 -306 0
-56 -331 0
-56 -356 0
-56 -381 0
-56 -406 0
-56 -431 0
-56 -456 0
-56 -481 0
-56 -506 0
-56 -531 0
-56 -556 0
-56 -581 0
-56 -606 0
-81 -106 0
-81 -131 0
-81 -156 0
-81 -181 0
-81 -206 0
-81 -231 0
-81 -256 0
-81 -281 0
-81 -306 0
-81 -331 0
-81 -356 0
-81 -381 0
-81 -406 0
-81 -431 0
-81 -456 0
-81 -481 0
-81 -506 0
-81 -531 0
-81 -556 0
-81 -581 0
-81 -606 0
-106 -131 0
-106 -156 0
-106 -181 0
-106 -206 0
-106 -231 0
-106 -256 0
-106 -281 0
-106 -306 0
-106 -331 0
-106 -356 0
-106 -381 0
-106 -406 0
-106 -431 0
-106 -456 0
-106 -481 0
-106 -506 0
-106 -531 0
-106 -556 0
-106 -581 0
-106 -606 0
-131 -156 0
-131 -181 0
-131 -206 0
-131 -231 0
-131 -256 0
-131 -281 0
-131 -306 0
-131 -331 0
-131 -356 0
-131 -381 0
-131 -406 0
-131 -431 0
-131 -456 0
-131 -481 0
-131 -506 0
-131 -531 0
-131 -556 0
-131 -581 0
-131 -606 0
-156 -181 0
-156 -206 0
-156 -231 0
-156 -256 0
-156 -281 0
-156 -306 0
-156 -331 0
-156 -356 0
-156 -381 0
-156 -406 0
-156 -431 0
-156 -456 0
-156 -481 0
-156 -506 0
-156 -531 0
-156 -556 0
-156 -581 0
-156 -606 0
-181 -206 0
-181 -231 0
-181 -256 0
-181 -281 0
-181 -306 0
-181 -331 0
-181 -356 0
-181 -381 0
-181 -406 0
-181 -431 0
-181 -456 0
-181 -481 0
-181 -506 0
-181 -531 0
-181 -556 0
-181 -581 0
-181 -606 0
-206 -231 0
-206 -256 0
-206 -281 0
-206 -306 0
-206 -331 0
-206 -356 0
-206 -381 0
-206 -406 0
-206 -431 0
-206 -456 0
-206 -481 0
-206 -506 0
-206 -531 0
-206 -556 0
-206 -581 0
-206 -606 0
-231 -256 0
-231 -281 0
-231 -306 0
-231 -331 0
-231 -356 0
-231 -381 0
-231 -406 0
-231 -431 0
-231 -456 0
-231 -481 0
-231 -506 0
-231 -531 0
-231 -556 0
-231 -581 0
-231 -606 0
-256 -281 0
-256 -306 0
-256 -331 0
-256 -356 0
-256 -381 0
-256 -406 0
-256 -431 0
-256 -456 0
-256 -481 0
-256 -506 0
-256 -531 0
-256 -556 0
-256 -581 0
-256 -606 0
-281 -306 0
-281 -331 0
-281 -356 0
-281 -381 0
-281 -406 0
-281 -431 0
-281 -456 0
-281 -481 0
-281 -506 0
-281 -531 0
-281 -556 0
-281 -581 0
-281 -606 0
-306 -331 0
-306 -356 0
-306 -381 0
-306 -406 0
-306 -431 0
-306 -456 0
-306 -481 0
-306 -506 0
-306 -531 0
-306 -556 0
-306 -581 0
-306 -606 0
-331 -356 0
-331 -381 0
-331 -406 0
-331 -431 0
-331 -456 0
-331 -481 0
-331 -506 0
-331 -531 0
-331 -556 0
-331 -581 0
-331 -606 0
-356 -381 0
-356 -406 0
-356 -431 0
-356 -456 0
-356 -481 0
-356 -506 0
-356 -531 0
-356 -556 0
-356 -581 0
-356 -606 0
-381 -406 0
-381 -431 0
-381 -456 0
-381 -481 0
-381 -506 0
-381 -531 0
-381 -556 0
-381 -581 0
-381 -606 0
-406 -431 0
-406 -456 0
-406 -481 0
-406 -506 0
-406 -531 0
-406 -556 0
-406 -581 0
-406 -606 0
-431 -456 0
-431 -481 0
-431 -506 0
-431 -531 0
-431 -556 0
-431 -581 0
-431 -606 0
-456 -481 0
-456 -506 0
-456 -531 0
-456 -556 0
-456 -581 0
-456 -606 0
-481 -506 0
-481 -531 0
-481 -556 0
-481 -581 0
-481 -606 0
-506 -531 0
-506 -556 0
-506 -581 0
-506 -606 0
-531 -556 0
-531 -581 0
-531 -606 0
-556 -581 0
-556 -606 0
-581 -606 0
7 32 57 82 107 132 157 182 207 232 257 282 307 332 357 382 407 432 457 482 507 532 557 582 607 0
-7 -32 0
-7 -57 0
-7 -82 0
-7 -107 0
-7 -132 0
-7 -157 0
-7 -182 0
-7 -207 0
-7 -232 0
-7 -257 0
-7 -282 0
-7 -307 0
-7 -332 0
-7 -357 0
-7 -382 0
-7 -407 0
-7 -432 0
-7 -457 0
-7 -482 0
-7 -507 0
-7 -532 0
-7 -557 0
-7 -582 0
-7 -607 0
-32 -57 0
-32 -82 0
-32 -107 0
-32 -132 0
-32 -157 0
-32 -182 0
-32 -207 0
-32 -232 0
-32 -257 0
-32 -282 0
-32 -307 0
-32 -332 0
-32 -357 0
-32 -382 0
-32 -407 0
-32 -432 0
-32 -457 0
-32 -482 0
-32 -507 0
-32 -532 0
-32 -557 0
-32 -582 0
-32 -607 0
-57 -82 0
-57 -107 0
-57 -132 0
-57 -157 0
-57 -182 0
-57 -207 0
-57 -232 0
-57 -257 0
-57 -282 0
-57 -307 0
-57 -332 0
-57 -357 0
-57 -382 0
-57 -407 0
-57 -432 0
-57 -457 0
-57 -482 0
-57 -507 0
-57 -532 0
-57 -557 0
-57 -582 0
-57 -607 0
-82 -107 0
-82 -132 0
-82 -157 0
-82 -182 0
-82 -207 0
-82 -232 0
-82 -257 0
-82 -282 0
-82 -307 0
-82 -332 0
-82 -357 0
-82 -382 0
-82 -407 0
-82 -432 0
-82 -457 0
-82 -482 0
-82 -507 0
-82 -532 0
-82 -557 0
-82 -582 0
-82 -607 0
-107 -132 0
-107 -157 0
-107 -182 0
-107 -207 0
-107 -232 0
-107 -257 0
-107 -282 0
-107 -307 0
-107 -332 0
-107 -357 0
-107 -382 0
-107 -407 0
-107 -432 0
-107 -457 0
-107 -482 0
-107 -507 0
-107 -532 0
-107 -557 0
-107 -582 0
-107 -607 0
-132 -157 0
-132 -182 0
-132 -207 0
-132 -232 0
-132 -257 0
-132 -282 0
-132 -307 0
-132 -332 0
-132 -357 0
-132 -382 0
-132 -407 0
-132 -432 0
-132 -457 0
-132 -482 0
-132 -507 0
-132 -532 0
-132 -557 0
-132 -582 0
-132 -607 0
-157 -182 0
-157 -207 0
-157 -232 0
-157 -257 0
-157 -282 0
-157 -307 0
-157 -332 0
-157 -357 0
-157 -382 0
-157 -407 0
-157 -432 0
-157 -457 0
-157 -482 0
-157 -507 0
-157 -532 0
-157 -557 0
-157 -582 0
-157 -607 0
-182 -207 0
-182 -232 0
-182 -257 0
-182 -282 0
-182 -307 0
-182 -332 0
-182 -357 0
-182 -382 0
-182 -407 0
-182 -432 0
-182 -457 0
-182 -482 0
-182 -507 0
-182 -532 0
-182 -557 0
-182 -582 0
-182 -607 0
-207 -232 0
-207 -257 0
-207 -282 0
-207 -307 0
-207 -332 0
-207 -357 0
-207 -382 0
-207 -407 0
-207 -432 0
-207 -457 0
-207 -482 0
-207 -507 0
-207 -532 0
-207 -557 0
-207 -582 0
-207 -607 0
-232 -257 0
-232 -282 0
-232 -307 0
-232 -332 0
-232 -357 0
-232 -382 0
-232 -407 0
-232 -432 0
-232 -457 0
-232 -482 0
-232 -507 0
-232 -532 0
-232 -557 0
-232 -582 0
-232 -607 0
-257 -282 0
-257 -307 0
-257 -332 0
-257 -357 0
-257 -382 0
-257 -407 0
-257 -432 0
-257 -457 0
-257 -482 0
-257 -507 0
-257 -532 0
-257 -557 0
-257 -582 0
-257 -607 0
-282 -307 0
-282 -332 0
-282 -357 0
-282 -382 0
-282 -407 0
-282 -432 0
-282 -457 0
-282 -482 0
-282 -507 0
-282 -532 0
-282 -557 0
-282 -582 0
-282 -607 0
-307 -332 0
-307 -357 0
-307 -382 0
-307 -407 0
-307 -432 0
-307 -457 0
-307 -482 0
-307 -507 0
-307 -532 0
-307 -557 0
-307 -582 0
-307 -607 0
-332 -357 0
-332 -382 0
-332 -407 0
-332 -432 0
-332 -457 0
-332 -482 0
-332 -507 0
-332 -532 0
-332 -557 0
-332 -582 0
-332 -607 0
-357 -382 0
-357 -407 0
-357 -432 0
-357 -457 0
-357 -482 0
-357 -507 0
-357 -532 0
-357 -557 0
-357 -582 0
-357 -607 0
-382 -407 0
-382 -432 0
-382 -457 0
-382 -482 0
-382 -507 0
-382 -532 0
-382 -557 0
-382 -582 0
-382 -607 0
-407 -432 0
-407 -457 0
-407 -482 0
-407 -507 0
-407 -532 0
-407 -557 0
-407 -582 0
-407 -607 0
-432 -457 0
-432 -482 0
-432 -507 0
-432 -532 0
-432 -557 0
-432 -582 0
-432 -607 0
-457 -482 0
-457 -507 0
-457 -532 0
-457 -557 0
-457 -582 0
-457 -607 0
-482 -507 0
-482 -532 0
-482 -557 0
-482 -582 0
-482 -607 0
-507 -532 0
-507 -557 0
-507 -582 0
-507 -607 0
-532 -557 0
-532 -582 0
-532 -607 0
-557 -582 0
-557 -607 0
-582 -607 0
8 33 58 83 108 133 158 183 208 233 258 283 308 333 358 383 408 433 458 483 508 533 558 583 608 0
-8 -33 0
-8 -58 0
-8 -83 0
-8 -108 0
-8 -133 0
-8 -158 0
-8 -183 0
-8 -208 0
-8 -233 0
-8 -258 0
-8 -283 0
-8 -308 0
-8 -333 0
-8 -358 0
-8 -383 0
-8 -408 0
-8 -433 0
-8 -458 0
-8 -483 0
-8 -508 0
-8 -533 0
-8 -558 0
-8 -583 0
-8 -608 0
-33 -58 0
-33 -83 0
-33 -108 0
-33 -133 0
-33 -158 0
-33 -183 0
-33 -208 0
-33 -233 0
-33 -258 0
-33 -283 0
-33 -308 0
-33 -333 0
-33 -358 0
-33 -383 0
-33 -408 0
-33 -433 0
-33 -458 0
-33 -483 0
-33 -508 0
-33 -533 0
-33 -558 0
-33 -583 0
-33 -608 0
-58 -83 0
-58 -108 0
-58 -133 0
-58 -158 0
-58 -183 0
-58 -208 0
-58 -233 0
-58 -258 0
-58 -283 0
-58 -308 0
-58 -333 0
-58 -358 0
-58 -383 0
-58 -408 0
-58 -433 0
-58 -458 0
-58 -483 0
-58 -508 0
-58 -533 0
-58 -558 0
-58 -583 0
-58 -608 0
-83 -108 0
-83 -133 0
-83 -158 0
-83 -183 0
-83 -208 0
-83 -233 0
-83 -258 0
-83 -283 0
-83 -308 0
-83 -333 0
-83 -358 0
-83 -383 0
-83 -408 0
-83 -433 0
-83 -458 0
-83 -483 0
-83 -508 0
-83 -533 0
-83 -558 0
-83 -583 0
-83 -608 0
-108 -133 0
-108 -158 0
-108 -183 0
-108 -208 0
-108 -233 0
-108 -258 0
-108 -283 0
-108 -308 0
-108 -333 0
-108 -358 0
-108 -383 0
-108 -408 0
-108 -433 0
-108 -458 0
-108 -483 0
-108 -508 0
-108 -533 0
-108 -558 0
-108 -583 0
-108 -608 0
-133 -158 0
-133 -183 0
-133 -208 0
-133 -233 0
-133 -258 0
-133 -283 0
-133 -308 0
-133 -333 0
-133 -358 0
-133 -383 0
-133 -408 0
-133 -433 0
-133 -458 0
-133 -483 0
-133 -508 0
-133 -533 0
-133 -558 0
-133 -583 0
-133 -608 0
-158 -183 0
-158 -208 0
-158 -233 0
-158 -258 0
-158 -283 0
-158 -308 0
-158 -333 0
-158 -358 0
-158 -383 0
-158 -408 0
-158 -433 0
-158 -458 0
-158 -483 0
-158 -508 0
-158 -533 0
-158 -558 0
-158 -583 0
-158 -608 0
-183 -208 0
-183 -233 0
-183 -258 0
-183 -283 0
-183 -308 0
-183 -333 0
-183 -358 0
-183 -383 0
-183 -408 0
-183 -433 0
-183 -458 0
-183 -483 0
-183 -508 0
-183 -533 0
-183 -558 0
-183 -583 0
-183 -608 0
-208 -233 0
-208 -258 0
-208 -283 0
-208 -308 0
-208 -333 0
-208 -358 0
-208 -383 0
-208 -408 0
-208 -433 0
-208 -458 0
-208 -483 0
-208 -508 0
-208 -533 0
-208 -558 0
-208 -583 0
-208 -608 0
-233 -258 0
-233 -283 0
-233 -308 0
-233 -333 0
-233 -358 0
-233 -383 0
-233 -408 0
-233 -433 0
-233 -458 0
-233 -483 0
-233 -508 0
-233 -533 0
-233 -558 0
-233 -583 0
-233 -608 0
-258 -283 0
-258 -308 0
-258 -333 0
-258 -358 0
-258 -383 0
-258 -408 0
-258 -433 0
-258 -458 0
-258 -483 0
-258 -508 0
-258 -533 0
-258 -558 0
-258 -583 0
-258 -608 0
-283 -308 0
-283 -333 0
-283 -358 0
-283 -383 0
-283 -408 0
-283 -433 0
-283 -458 0
-283 -483 0
-283 -508 0
-283 -533 0
-283 -558 0
-283 -583 0
-283 -608 0
-308 -333 0
-308 -358 0
-308 -383 0
-308 -408 0
-308 -433 0
-308 -458 0
-308 -483 0
-308 -508 0
-308 -533 0
-308 -558 0
-308 -583 0
-308 -608 0
-333 -358 0
-333 -383 0
-333 -408 0
-333 -433 0
-333 -458 0
-333 -483 0
-333 -508 0
-333 -533 0
-333 -558 0
-333 -583 0
-333 -608 0
-358 -383 0
-358 -408 0
-358 -433 0
-358 -458 0
-358 -483 0
-358 -508 0
-358 -533 0
-358 -558 0
-358 -583 0
-358 -608 0
-383 -408 0
-383 -433 0
-383 -458 0
-383 -483 0
-383 -508 0
-383 -533 0
-383 -558 0
-383 -583 0
-383 -608 0
-408 -433 0
-408 -458 0
-408 -483 0
-408 -508 0
-408 -533 0
-408 -558 0
-408 -583 0
-408 -608 0
-433 -458 0
-433 -483 0
-433 -508 0
-433 -533 0
-433 -558 0
-433 -583 0
-433 -608 0
-458 -483 0
-458 -508 0
-458 -533 0
-458 -558 0
-458 -583 0
-458 -608 0
-483 -508 0
-483 -533 0
-483 -558 0
-483 -583 0
-483 -608 0
-508 -533 0
-508 -558 0
-508 -583 0
-508 -608 0
-533 -558 0
-533 -583 0
-533 -608 0
-558 -583 0
-558 -608 0
-583 -608 0
9 34 59 84 109 134 159 184 209 234 259 284 309 334 359 384 409 434 459 484 509 534 559 584 609 0
-9 -34 0
-9 -59 0
-9 -84 0
-9 -109 0
-9 -134 0
-9 -159 0
-9 -184 0
-9 -209 0
-9 -234 0
-9 -259 0
-9 -284 0
-9 -309 0
-9 -334 0
-9 -359 0
-9 -384 0
-9 -409 0
-9 -434 0
-9 -459 0
-9 -484 0
-9 -509 0
-9 -534 0
-9 -559 0
-9 -584 0
-9 -609 0
-34 -59 0
-34 -84 0
-34 -109 0
-34 -134 0
-34 -159 0
-34 -184 0
-34 -209 0
-34 -234 0
-34 -259 0
-34 -284 0
-34 -309 0
-34 -334 0
-34 -359 0
-34 -384 0
-34 -409 0
-34 -434 0
-34 -459 0
-34 -484 0
-34 -509 0
-34 -534 0
-34 -559 0
-34 -584 0
-34 -609 0
-59 -84 0
-59 -109 0
-59 -134 0
-59 -159 0
-59 -184 0
-59 -209 0
-59 -234 0
-59 -259 0
-59 -284 0
-59 -309 0
-59 -334 0
-59 -359 0
-59 -384 0
-59 -409 0
-59 -434 0
-59 -459 0
-59 -484 0
-59 -509 0
-59 -534 0
-59 -559 0
-59 -584 0
-59 -609 0
-84 -109 0
-84 -134 0
-84 -159 0
-84 -184 0
-84 -209 0
-84 -234 0
-84 -259 0
-84 -284 0
-84 -309 0
-84 -334 0
-84 -359 0
-84 -384 0
-84 -409 0
-84 -434 0
-84 -459 0
-84 -484 0
-84 -509 0
-84 -534 0
-84 -559 0
-84 -584 0
-84 -609 0
-109 -134 0
-109 -159 0
-109 -184 0
-109 -209 0
-109 -234 0
-109 -259 0
-109 -284 0
-109 -309 0
-109 -334 0
-109 -359 0
-109 -384 0
-109 -409 0
-109 -434 0
-109 -459 0
-109 -484 0
-109 -509 0
-109 -534 0
-109 -559 0
-109 -584 0
-109 -609 0
-134 -159 0
-134 -184 0
-134 -209 0
-134 -234 0
-134 -259 0
-134 -284 0
-134 -309 0
-134 -334 0
-134 -359 0
-134 -384 0
-134 -409 0
-134 -434 0
-134 -459 0
-134 -484 0
-134 -509 0
-134 -534 0
-134 -559 0
-134 -584 0
-134 -609 0
-159 -184 0
-159 -209 0
-159 -234 0
-159 -259 0
-159 -284 0
-159 -309 0
-159 -334 0
-159 -359 0
-159 -384 0
-159 -409 0
-159 -434 0
-159 -459 0
-159 -484 0
-159 -509 0
-159 -534 0
-159 -559 0
-159 -584 0
-159 -609 0
-184 -209 0
-184 -234 0
-184 -259 0
-184 -284 0
-184 -309 0
-184 -334 0
-184 -359 0
-184 -384 0
-184 -409 0
-184 -434 0
-184 -459 0
-184 -484 0
-184 -509 0
-184 -534 0
-184 -559 0
-184 -584 0
-184 -609 0
-209 -234 0
-209 -259 0
-209 -284 0
-209 -309 0
-209 -334 0
-209 -359 0
-209 -384 0
-209 -409 0
-209 -434 0
-209 -459 0
-209 -484 0
-209 -509 0
-209 -534 0
-209 -559 0
-209 -584 0
-209 -609 0
-234 -259 0
-234 -284 0
-234 -309 0
-234 -334 0
-234 -359 0
-234 -384 0
-234 -409 0
-234 -434 0
-234 -459 0
-234 -484 0
-234 -509 0
-234 -534 0
-234 -559 0
-234 -584 0
-234 -609 0
-259 -284 0
-259 -309 0
-259 -334 0
-259 -359 0
-259 -384 0
-259 -409 0
-259 -434 0
-259 -459 0
-259 -484 0
-259 -509 0
-259 -534 0
-259 -559 0
-259 -584 0
-259 -609 0
-284 -309 0
-284 -334 0
-284 -359 0
-284 -384 0
-284 -409 0
-284 -434 0
-284 -459 0
-284 -484 0
-284 -509 0
-284 -534 0
-284 -559 0
-284 -584 0
-284 -609 0
-309 -334 0
-309 -359 0
-309 -384 0
-309 -409 0
-309 -434 0
-309 -459 0
-309 -484 0
-309 -509 0
-309 -534 0
-309 -559 0
-309 -584 0
-309 -609 0
-334 -359 0
-334 -384 0
-334 -409 0
-334 -434 0
-334 -459 0
-334 -484 0
-334 -509 0
-334 -534 0
-334 -559 0
-334 -584 0
-334 -609 0
-359 -384 0
-359 -409 0
-359 -434 0
-359 -459 0
-359 -484 0
-359 -509 0
-359 -534 0
-359 -559 0
-359 -584 0
-359 -609 0
-384 -409 0
-384 -434 0
-384 -459 0
-384 -484 0
-384 -509 0
-384 -534 0
-384 -559 0
-384 -584 0
-384 -609 0
-409 -434 0
-409 -459 0
-409 -484 0
-409 -509 0
-409 -534 0
-409 -559 0
-409 -584 0
-409 -609 0
-434 -459 0
-434 -484 0
-434 -509 0
-434 -534 0
-434 -559 0
-434 -584 0
-434 -609 0
-459 -484 0
-459 -509 0
-459 -534 0
-459 -559 0
-459 -584 0
-459 -609 0
-484 -509 0
-484 -534 0
-484 -559 0
-484 -584 0
-484 -609 0
-509 -534 0
-509 -559 0
-509 -584 0
-509 -609 0
-534 -559 0
-534 -584 0
-534 -609 0
-559 -584 0
-559 -609 0
-584 -609 0
10 35 60 85 110 135 160 185 210 235 260 285 310 335 360 385 410 435 460 485 510 535 560 585 610 0
-10 -35 0
-10 -60 0
-10 -85 0
-10 -110 0
-10 -135 0
-10 -160 0
-10 -185 0
-10 -210 0
-10 -235 0
-10 -260 0
-10 -285 0
-10 -310 0
-10 -335 0
-10 -360 0
-10 -385 0
-10 -410 0
-10 -435 0
-10 -460 0
-10 -485 0
-10 -510 0
-10 -535 0
-10 -560 0
-10 -585 0
-10 -610 0
-35 -60 0
-35 -85 0
-35 -110 0
-35 -135 0
-35 -160 0
-35 -185 0
-35 -210 0
-35 -235 0
-35 -260 0
-35 -285 0
-35 -310 0
-35 -335 0
-35 -360 0
-35 -385 0
-35 -410 0
-35 -435 0
-35 -460 0
-35 -485 0
-35 -510 0
-35 -535 0
-35 -560 0
-35 -585 0
-35 -610 0
-60 -85 0
-60 -110 0
-60 -135 0
-60 -160 0
-60 -185 0
-60 -210 0
-60 -235 0
-60 -260 0
-60 -285 0
-60 -310 0
-60 -335 0
-60 -360 0
-60 -385 0
-60 -410 0
-60 -435 0
-60 -460 0
-60 -485 0
-60 -510 0
-60 -535 0
-60 -560 0
-60 -585 0
-60 -610 0
-85 -110 0
-85 -135 0
-85 -160 0
-85 -185 0
-85 -210 0
-85 -235 0
-85 -260 0
-85 -285 0
-85 -310 0
-85 -335 0
-85 -360 0
-85 -385 0
-85 -410 0
-85 -435 0
-85 -460 0
-85 -485 0
-85 -510 0
-85 -535 0
-85 -560 0
-85 -585 0
-85 -610 0
-110 -135 0
-110 -160 0
-110 -185 0
-110 -210 0
-110 -235 0
-110 -260 0
-110 -285 0
-110 -310 0
-110 -335 0
-110 -360 0
-110 -385 0
-110 -410 0
-110 -435 0
-110 -460 0
-110 -485 0
-110 -510 0
-110 -535 0
-110 -560 0
-110 -585 0
-110 -610 0
-135 -160 0
-135 -185 0
-135 -210 0
-135 -235 0
-135 -260 0
-135 -285 0
-135 -310 0
-135 -335 0
-135 -360 0
-135 -385 0
-135 -410 0
-135 -435 0
-135 -460 0
-135 -485 0
-135 -510 0
-135 -535 0
-135 -560 0
-135 -585 0
-135 -610 0
-160 -185 0
-160 -210 0
-160 -235 0
-160 -260 0
-160 -285 0
-160 -310 0
-160 -335 0
-160 -360 0
-160 -385 0
-160 -410 0
-160 -435 0
-160 -460 0
-160 -485 0
-160 -510 0
-160 -535 0
-160 -560 0
-160 -585 0
-160 -610 0
-185 -210 0
-185 -235 0
-185 -260 0
-185 -285 0
-185 -310 0
-185 -335 0
-185 -360 0
-185 -385 0
-185 -410 0
-185 -435 0
-185 -460 0
-185 -485 0
-185 -510 0
-185 -535 0
-185 -560 0
-185 -585 0
-185 -610 0
-210 -235 0
-210 -260 0
-210 -285 0
-210 -310 0
-210 -335 0
-210 -360 0
-210 -385 0
-210 -410 0
-210 -435 0
-210 -460 0
-210 -485 0
-210 -510 0
-210 -535 0
-210 -560 0
-210 -585 0
-210 -610 0
-235 -260 0
-235 -285 0
-235 -310 0
-235 -335 0
-235 -360 0
-235 -385 0
-235 -410 0
-235 -435 0
-235 -460 0
-235 -485 0
-235 -510 0
-235 -535 0
-235 -560 0
-235 -585 0
-235 -610 0
-260 -285 0
-260 -310 0
-260 -335 0
-260 -360 0
-260 -385 0
-260 -410 0
-260 -435 0
-260 -460 0
-260 -485 0
-260 -510 0
-260 -535 0
-260 -560 0
-260 -585 0
-260 -610 0
-285 -310 0
-285 -335 0
-285 -360 0
-285 -385 0
-285 -410 0
-285 -435 0
-285 -460 0
-285 -485 0
-285 -510 0
-285 -535 0
-285 -560 0
-285 -585 0
-285 -610 0
-310 -335 0
-310 -360 0
-310 -385 0
-310 -410 0
-310 -435 0
-310 -460 0
-310 -485 0
-310 -510 0
-310 -535 0
-310 -560 0
-310 -585 0
-310 -610 0
-335 -360 0
-335 -385 0
-335 -410 0
-335 -435 0
-335 -460 0
-335 -485 0
-335 -510 0
-335 -535 0
-335 -560 0
-335 -585 0
-335 -610 0
-360 -385 0
-360 -410 0
-360 -435 0
-360 -460 0
-360 -485 0
-360 -510 0
-360 -535 0
-360 -560 0
-360 -585 0
-360 -610 0
-385 -410 0
-385 -435 0
-385 -460 0
-385 -485 0
-385 -510 0
-385 -535 0
-385 -560 0
-385 -585 0
-385 -610 0
-410 -435 0
-410 -460 0
-410 -485 0
-410 -510 0
-410 -535 0
-410 -560 0
-410 -585 0
-410 -610 0
-435 -460 0
-435 -485 0
-435 -510 0
-435 -535 0
-435 -560 0
-435 -585 0
-435 -610 0
-460 -485 0
-460 -510 0
-460 -535 0
-460 -560 0
-460 -585 0
-460 -610 0
-485 -510 0
-485 -535 0
-485 -560 0
-485 -585 0
-485 -610 0
-510 -535 0
-510 -560 0
-510 -585 0
-510 -610 0
-535 -560 0
-535 -585 0
-535 -610 0
-560 -585 0
-560 -610 0
-585 -610 0
11 36 61 86 111 136 161 186 211 236 261 286 311 336 361 386 411 436 461 486 511 536 561 586 611 0
-11 -36 0
-11 -61 0
-11 -86 0
-11 -111 0
-11 -136 0
-11 -161 0
-11 -186 0
-11 -211 0
-11 -236 0
-11 -261 0
-11 -286 0
-11 -311 0
-11 -336 0
-11 -361 0
-11 -386 0
-11 -411 0
-11 -436 0
-11 -461 0
-11 -486 0
-11 -511 0
-11 -536 0
-11 -561 0
-11 -586 0
-11 -611 0
-36 -61 0
-36 -86 0
-36 -111 0
-36 -136 0
-36 -161 0
-36 -186 0
-36 -211 0
-36 -236 0
-36 -261 0
-36 -286 0
-36 -311 0
-36 -336 0
-36 -361 0
-36 -386 0
-36 -411 0
-36 -436 0
-36 -461 0
-36 -486 0
-36 -511 0
-36 -536 0
-36 -561 0
-36 -586 0
-36 -611 0
-61 -86 0
-61 -111 0
-61 -136 0
-61 -161 0
-61 -186 0
-61 -211 0
-61 -236 0
-61 -261 0
-61 -286 0
-61 -311 0
-61 -336 0
-61 -361 0
-61 -386 0
-61 -411 0
-61 -436 0
-61 -461 0
-61 -486 0
-61 -511 0
-61 -536 0
-61 -561 0
-61 -586 0
-61 -611 0
-86 -111 0
-86 -136 0
-86 -161 0
-86 -186 0
-86 -211 0
-86 -236 0
-86 -261 0
-86 -286 0
-86 -311 0
-86 -336 0
-86 -361 0
-86 -386 0
-86 -411 0
-86 -436 0
-86 -461 0
-86 -486 0
-86 -511 0
-86 -536 0
-86 -561 0
-86 -586 0
-86 -611 0
-111 -136 0
-111 -161 0
-111 -186 0
-111 -211 0
-111 -236 0
-111 -261 0
-111 -286 0
-111 -311 0
-111 -336 0
-111 -361 0
-111 -386 0
-111 -411 0
-111 -436 0
-111 -461 0
-111 -486 0
-111 -511 0
-111 -536 0
-111 -561 0
-111 -586 0
-111 -611 0
-136 -161 0
-136 -186 0
-136 -211 0
-136 -236 0
-136 -261 0
-136 -286 0
-136 -311 0
-136 -336 0
-136 -361 0
-136 -386 0
-136 -411 0
-136 -436 0
-136 -461 0
-136 -486 0
-136 -511 0
-136 -536 0
-136 -561 0
-136 -586 0
-136 -611 0
-161 -186 0
-161 -211 0
-161 -236 0
-161 -261 0
-161 -286 0
-161 -311 0
-161 -336 0
-161 -361 0
-161 -386 0
-161 -411 0
-161 -436 0
-161 -461 0
-161 -486 0
-161 -511 0
-161 -536 0
-161 -561 0
-161 -586 0
-161 -611 0
-186 -211 0
-186 -236 0
-186 -261 0
-186 -286 0
-186 -311 0
-186 -336 0
-186 -361 0
-186 -386 0
-186 -411 0
-186 -436 0
-186 -461 0
-186 -486 0
-186 -511 0
-186 -536 0
-186 -561 0
-186 -586 0
-186 -611 0
-211 -236 0
-211 -261 0
-211 -286 0
-211 -311 0
-211 -336 0
-211 -361 0
-211 -386 0
-211 -411 0
-211 -436 0
-211 -461 0
-211 -486 0
-211 -511 0
-211 -536 0
-211 -561 0
-211 -586 0
-211 -611 0
-236 -261 0
-236 -286 0
-236 -311 0
-236 -336 0
-236 -361 0
-236 -386 0
-236 -411 0
-236 -436 0
-236 -461 0
-236 -486 0
-236 -511 0
-236 -536 0
-236 -561 0
-236 -586 0
-236 -611 0
-261 -286 0
-261 -311 0
-261 -336 0
-261 -361 0
-261 -386 0
-261 -411 0
-261 -436 0
-261 -461 0
-261 -486 0
-261 -511 0
-261 -536 0
-261 -561 0
-261 -586 0
-261 -611 0
-286 -311 0
-286 -336 0
-286 -361 0
-286 -386 0
-286 -411 0
-286 -436 0
-286 -461 0
-286 -486 0
-286 -511 0
-286 -536 0
-286 -561 0
-286 -586 0
-286 -611 0
-311 -336 0
-311 -361 0
-311 -386 0
-311 -411 0
-311 -436 0
-311 -461 0
-311 -486 0
-311 -511 0
-311 -536 0
-311 -561 0
-311 -586 0
-311 -611 0
-336 -361 0
-336 -386 0
-336 -411 0
-336 -436 0
-336 -461 0
-336 -486 0
-336 -511 0
-336 -536 0
-336 -561 0
-336 -586 0
-336 -611 0
-361 -386 0
-361 -411 0
-361 -436 0
-361 -461 0
-361 -486 0
-361 -511 0
-361 -536 0
-361 -561 0
-361 -586 0
-361 -611 0
-386 -411 0
-386 -436 0
-386 -461 0
-386 -486 0
-386 -511 0
-386 -536 0
-386 -561 0
-386 -586 0
-386 -611 0
-411 -436 0
-411 -461 0
-411 -486 0
-411 -511 0
-411 -536 0
-411 -561 0
-411 -586 0
-411 -611 0
-436 -461 0
-436 -486 0
-436 -511 0
-436 -536 0
-436 -561 0
-436 -586 0
-436 -611 0
-461 -486 0
-461 -511 0
-461 -536 0
-461 -561 0
-461 -586 0
-461 -611 0
-486 -511 0
-486 -536 0
-486 -561 0
-486 -586 0
-486 -611 0
-511 -536 0
-511 -561 0
-511 -586 0
-511 -611 0
-536 -561 0
-536 -586 0
-536 -611 0
-561 -586 0
-561 -611 0
-586 -611 0
12 37 62 87 112 137 162 187 212 237 262 287 312 337 362 387 412 437 462 487 512 537 562 587 612 0
-12 -37 0
-12 -62 0
-12 -87 0
-12 -112 0
-12 -137 0
-12 -162 0
-12 -187 0
-12 -212 0
-12 -237 0
-12 -262 0
-12 -287 0
-12 -312 0
-12 -337 0
-12 -362 0
-12 -387 0
-12 -412 0
-12 -437 0
-12 -462 0
-12 -487 0
-12 -512 0
-12 -537 0
-12 -562 0
-12 -587 0
-12 -612 0
-37 -62 0
-37 -87 0
-37 -112 0
-37 -137 0
-37 -162 0
-37 -187 0
-37 -212 0
-37 -237 0
-37 -262 0
-37 -287 0
-37 -312 0
-37 -337 0
-37 -362 0
-37 -387 0
-37 -412 0
-37 -437 0
-37 -462 0
-37 -487 0
-37 -512 0
-37 -537 0
-37 -562 0
-37 -587 0
-37 -612 0
-62 -87 0
-62 -112 0
-62 -137 0
-62 -162 0
-62 -187 0
-62 -212 0
-62 -237 0
-62 -262 0
-62 -287 0
-62 -312 0
-62 -337 0
-62 -362 0
-62 -387 0
-62 -412 0
-62 -437 0
-62 -462 0
-62 -487 0
-62 -512 0
-62 -537 0
-62 -562 0
-62 -587 0
-62 -612 0
-87 -112 0
-87 -137 0
-87 -162 0
-87 -187 0
-87 -212 0
-87 -237 0
-87 -262 0
-87 -287 0
-87 -312 0
-87 -337 0
-87 -362 0
-87 -387 0
-87 -412 0
-87 -437 0
-87 -462 0
-87 -487 0
-87 -512 0
-87 -537 0
-87 -562 0
-87 -587 0
-87 -612 0
-112 -137 0
-112 -162 0
-112 -187 0
-112 -212 0
-112 -237 0
-112 -262 0
-112 -287 0
-112 -312 0
-112 -337 0
-112 -362 0
-112 -387 0
-112 -412 0
-112 -437 0
-112 -462 0
-112 -487 0
-112 -512 0
-112 -537 0
-112 -562 0
-112 -587 0
-112 -612 0
-137 -162 0
-137 -187 0
-137 -212 0
-137 -237 0
-137 -262 0
-137 -287 0
-137 -312 0
-137 -337 0
-137 -362 0
-137 -387 0
-137 -412 0
-137 -437 0
-137 -462 0
-137 -487 0
-137 -512 0
-137 -537 0
-137 -562 0
-137 -587 0
-137 -612 0
-162 -187 0
-162 -212 0
-162 -237 0
-162 -262 0
-162 -287 0
-162 -312 0
-162 -337 0
-162 -362 0
-162 -387 0
-162 -412 0
-162 -437 0
-162 -462 0
-162 -487 0
-162 -512 0
-162 -537 0
-162 -562 0
-162 -587 0
-162 -612 0
-187 -212 0
-187 -237 0
-187 -262 0
-187 -287 0
-187 -312 0
-187 -337 0
-187 -362 0
-187 -387 0
-187 -412 0
-187 -437 0
-187 -462 0
-187 -487 0
-187 -512 0
-187 -537 0
-187 -562 0
-187 -587 0
-187 -612 0
-212 -237 0
-212 -262 0
-212 -287 0
-212 -312 0
-212 -337 0
-212 -362 0
-212 -387 0
-212 -412 0
-212 -437 0
-212 -462 0
-212 -487 0
-212 -512 0
-212 -537 0
-212 -562 0
-212 -587 0
-212 -612 0
-237 -262 0
-237 -287 0
-237 -312 0
-237 -337 0
-237 -362 0
-237 -387 0
-237 -412 0
-237 -437 0
-237 -462 0
-237 -487 0
-237 -512 0
-237 -537 0
-237 -562 0
-237 -587 0
-237 -612 0
-262 -287 0
-262 -312 0
-262 -337 0
-262 -362 0
-262 -387 0
-262 -412 0
-262 -437 0
-262 -462 0
-262 -487 0
-262 -512 0
-262 -537 0
-262 -562 0
-262 -587 0
-262 -612 0
-287 -312 0
-287 -337 0
-287 -362 0
-287 -387 0
-287 -412 0
-287 -437 0
-287 -462 0
-287 -487 0
-287 -512 0
-287 -537 0
-287 -562 0
-287 -587 0
-287 -612 0
-312 -337 0
-312 -362 0
-312 -387 0
-312 -412 0
-312 -437 0
-312 -462 0
-312 -487 0
-312 -512 0
-312 -537 0
-312 -562 0
-312 -587 0
-312 -612 0
-337 -362 0
-337 -387 0
-337 -412 0
-337 -437 0
-337 -462 0
-337 -487 0
-337 -512 0
-337 -537 0
-337 -562 0
-337 -587 0
-337 -612 0
-362 -387 0
-362 -412 0
-362 -437 0
-362 -462 0
-362 -487 0
-362 -512 0
-362 -537 0
-362 -562 0
-362 -587 0
-362 -612 0
-387 -412 0
-387 -437 0
-387 -462 0
-387 -487 0
-387 -512 0
-387 -537 0
-387 -562 0
-387 -587 0
-387 -612 0
-412 -437 0
-412 -462 0
-412 -487 0
-412 -512 0
-412 -537 0
-412 -562 0
-412 -587 0
-412 -612 0
-437 -462 0
-437 -487 0
-437 -512 0
-437 -537 0
-437 -562 0
-437 -587 0
-437 -612 0
-462 -487 0
-462 -512 0
-462 -537 0
-462 -562 0
-462 -587 0
-462 -612 0
-487 -512 0
-487 -537 0
-487 -562 0
-487 -587 0
-487 -612 0
-512 -537 0
-512 -562 0
-512 -587 0
-512 -612 0
-537 -562 0
-537 -587 0
-537 -612 0
-562 -587 0
-562 -612 0
-587 -612 0
13 38 63 88 113 138 163 188 213 238 263 288 313 338 363 388 413 438 463 488 513 538 563 588 613 0
-13 -38 0
-13 -63 0
-13 -88 0
-13 -113 0
-13 -138 0
-13 -163 0
-13 -188 0
-13 -213 0
-13 -238 0
-13 -263 0
-13 -288 0
-13 -313 0
-13 -338 0
-13 -363 0
-13 -388 0
-13 -413 0
-13 -438 0
-13 -463 0
-13 -488 0
-13 -513 0
-13 -538 0
-13 -563 0
-13 -588 0
-13 -613 0
-38 -63 0
-38 -88 0
-38 -113 0
-38 -138 0
-38 -163 0
-38 -188 0
-38 -213 0
-38 -238 0
-38 -263 0
-38 -288 0
-38 -313 0
-38 -338 0
-38 -363 0
-38 -388 0
-38 -413 0
-38 -438 0
-38 -463 0
-38 -488 0
-38 -513 0
-38 -538 0
-38 -563 0
-38 -588 0
-38 -613 0
-63 -88 0
-63 -113 0
-63 -138 0
-63 -163 0
-63 -188 0
-63 -213 0
-63 -238 0
-63 -263 0
-63 -288 0
-63 -313 0
-63 -338 0
-63 -363 0
-63 -388 0
-63 -413 0
-63 -438 0
-63 -463 0
-63 -488 0
-63 -513 0
-63 -538 0
-63 -563 0
-63 -588 0
-63 -613 0
-88 -113 0
-88 -138 0
-88 -163 0
-88 -188 0
-88 -213 0
-88 -238 0
-88 -263 0
-88 -288 0
-88 -313 0
-88 -338 0
-88 -363 0
-88 -388 0
-88 -413 0
-88 -438 0
-88 -463 0
-88 -488 0
-88 -513 0
-88 -538 0
-88 -563 0
-88 -588 0
-88 -613 0
-113 -138 0
-113 -163 0
-113 -188 0
-113 -213 0
-113 -238 0
-113 -263 0
-113 -288 0
-113 -313 0
-113 -338 0
-113 -363 0
-113 -388 0
-113 -413 0
-113 -438 0
-113 -463 0
-113 -488 0
-113 -513 0
-113 -538 0
-113 -563 0
-113 -588 0
-113 -613 0
-138 -163 0
-138 -188 0
-138 -213 0
-138 -238 0
-138 -263 0
-138 -288 0
-138 -313 0
-138 -338 0
-138 -363 0
-138 -388 0
-138 -413 0
-138 -438 0
-138 -463 0
-138 -488 0
-138 -513 0
-138 -538 0
-138 -563 0
-138 -588 0
-138 -613 0
-163 -188 0
-163 -213 0
-163 -238 0
-163 -263 0
-163 -288 0
-163 -313 0
-163 -338 0
-163 -363 0
-163 -388 0
-163 -413 0
-163 -438 0
-163 -463 0
-163 -488 0
-163 -513 0
-163 -538 0
-163 -563 0
-163 -588 0
-163 -613 0
-188 -213 0
-188 -238 0
-188 -263 0
-188 -288 0
-188 -313 0
-188 -338 0
-188 -363 0
-188 -388 0
-188 -413 0
-188 -438 0
-188 -463 0
-188 -488 0
-188 -513 0
-188 -538 0
-188 -563 0
-188 -588 0
-188 -613 0
-213 -238 0
-213 -263 0
-213 -288 0
-213 -313 0
-213 -338 0
-213 -363 0
-213 -388 0
-213 -413 0
-213 -438 0
-213 -463 0
-213 -488 0
-213 -513 0
-213 -538 0
-213 -563 0
-213 -588 0
-213 -613 0
-238 -263 0
-238 -288 0
-238 -313 0
-238 -338 0
-238 -363 0
-238 -388 0
-238 -413 0
-238 -438 0
-238 -463 0
-238 -488 0
-238 -513 0
-238 -538 0
-238 -563 0
-238 -588 0
-238 -613 0
-263 -288 0
-263 -313 0
-263 -338 0
-263 -363 0
-263 -388 0
-263 -413 0
-263 -438 0
-263 -463 0
-263 -488 0
-263 -513 0
-263 -538 0
-263 -563 0
-263 -588 0
-263 -613 0
-288 -313 0
-288 -338 0
-288 -363 0
-288 -388 0
-288 -413 0
-288 -438 0
-288 -463 0
-288 -488 0
-288 -513 0
-288 -538 0
-288 -563 0
-288 -588 0
-288 -613 0
-313 -338 0
-313 -363 0
-313 -388 0
-313 -413 0
-313 -438 0
-313 -463 0
-313 -488 0
-313 -513 0
-313 -538 0
-313 -563 0
-313 -588 0
-313 -613 0
-338 -363 0
-338 -388 0
-338 -413 0
-338 -438 0
-338 -463 0
-338 -488 0
-338 -513 0
-338 -538 0
-338 -563 0
-338 -588 0
-338 -613 0
-363 -388 0
-363 -413 0
-363 -438 0
-363 -463 0
-363 -488 0
-363 -513 0
-363 -538 0
-363 -563 0
-363 -588 0
-363 -613 0
-388 -413 0
-388 -438 0
-388 -463 0
-388 -488 0
-388 -513 0
-388 -538 0
-388 -563 0
-388 -588 0
-388 -613 0
-413 -438 0
-413 -463 0
-413 -488 0
-413 -513 0
-413 -538 0
-413 -563 0
-413 -588 0
-413 -613 0
-438 -463 0
-438 -488 0
-438 -513 0
-438 -538 0
-438 -563 0
-438 -588 0
-438 -613 0
-463 -488 0
-463 -513 0
-463 -538 0
-463 -563 0
-463 -588 0
-463 -613 0
-488 -513 0
-488 -538 0
-488 -563 0
-488 -588 0
-488 -613 0
-513 -538 0
-513 -563 0
-513 -588 0
-513 -613 0
-538 -563 0
-538 -588 0
-538 -613 0
-563 -588 0
-563 -613 0
-588 -613 0
14 39 64 89 114 139 164 189 214 239 264 289 314 339 364 389 414 439 464 489 514 539 564 589 614 0
-14 -39 0
-14 -64 0
-14 -89 0
-14 -114 0
-14 -139 0
-14 -164 0
-14 -189 0
-14 -214 0
-14 -239 0
-14 -264 0
-14 -289 0
-14 -314 0
-14 -339 0
-14 -364 0
-14 -389 0
-14 -414 0
-14 -439 0
-14 -464 0
-14 -489 0
-14 -514 0
-14 -539 0
-14 -564 0
-14 -589 0
-14 -614 0
-39 -64 0
-39 -89 0
-39 -114 0
-39 -139 0
-39 -164 0
-39 -189 0
-39 -214 0
-39 -239 0
-39 -264 0
-39 -289 0
-39 -314 0
-39 -339 0
-39 -364 0
-39 -389 0
-39 -414 0
-39 -439 0
-39 -464 0
-39 -489 0
-39 -514 0
-39 -539 0
-39 -564 0
-39 -589 0
-39 -614 0
-64 -89 0
-64 -114 0
-64 -139 0
-64 -164 0
-64 -189 0
-64 -214 0
-64 -239 0
-64 -264 0
-64 -289 0
-64 -314 0
-64 -339 0
-64 -364 0
-64 -389 0
-64 -414 0
-64 -439 0
-64 -464 0
-64 -489 0
-64 -514 0
-64 -539 0
-64 -564 0
-64 -589 0
-64 -614 0
-89 -114 0
-89 -139 0
-89 -164 0
-89 -189 0
-89 -214 0
-89 -239 0
-89 -264 0
-89 -289 0
-89 -314 0
-89 -339 0
-89 -364 0
-89 -389 0
-89 -414 0
-89 -439 0
-89 -464 0
-89 -489 0
-89 -514 0
-89 -539 0
-89 -564 0
-89 -589 0
-89 -614 0
-114 -139 0
-114 -164 0
-114 -189 0
-114 -214 0
-114 -239 0
-114 -264 0
-114 -289 0
-114 -314 0
-114 -339 0
-114 -364 0
-114 -389 0
-114 -414 0
-114 -439 0
-114 -464 0
-114 -489 0
-114 -514 0
-114 -539 0
-114 -564 0
-114 -589 0
-114 -614 0
-139 -164 0
-139 -189 0
-139 -214 0
-139 -239 0
-139 -264 0
-139 -289 0
-139 -314 0
-139 -339 0
-139 -364 0
-139 -389 0
-139 -414 0
-139 -439 0
-139 -464 0
-139 -489 0
-139 -514 0
-139 -539 0
-139 -564 0
-139 -589 0
-139 -614 0
-164 -189 0
-164 -214 0
-164 -239 0
-164 -264 0
-164 -289 0
-164 -314 0
-164 -339 0
-164 -364 0
-164 -389 0
-164 -414 0
-164 -439 0
-164 -464 0
-164 -489 0
-164 -514 0
-164 -539 0
-164 -564 0
-164 -589 0
-164 -614 0
-189 -214 0
-189 -239 0
-189 -264 0
-189 -289 0
-189 -314 0
-189 -339 0
-189 -364 0
-189 -389 0
-189 -414 0
-189 -439 0
-189 -464 0
-189 -489 0
-189 -514 0
-189 -539 0
-189 -564 0
-189 -589 0
-189 -614 0
-214 -239 0
-214 -264 0
-214 -289 0
-214 -314 0
-214 -339 0
-214 -364 0
-214 -389 0
-214 -414 0
-214 -439 0
-214 -464 0
-214 -489 0
-214 -514 0
-214 -539 0
-214 -564 0
-214 -589 0
-214 -614 0
-239 -264 0
-239 -289 0
-239 -314 0
-239 -339 0
-239 -364 0
-239 -389 0
-239 -414 0
-239 -439 0
-239 -464 0
-239 -489 0
-239 -514 0
-239 -539 0
-239 -564 0
-239 -589 0
-239 -614 0
-264 -289 0
-264 -314 0
-264 -339 0
-264 -364 0
-264 -389 0
-264 -414 0
-264 -439 0
-264 -464 0
-264 -489 0
-264 -514 0
-264 -539 0
-264 -564 0
-264 -589 0
-264 -614 0
-289 -314 0
-289 -339 0
-289 -364 0
-289 -389 0
-289 -414 0
-289 -439 0
-289 -464 0
-289 -489 0
-289 -514 0
-289 -539 0
-289 -564 0
-289 -589 0
-289 -614 0
-314 -339 0
-314 -364 0
-314 -389 0
-314 -414 0
-314 -439 0
-314 -464 0
-314 -489 0
-314 -514 0
-314 -539 0
-314 -564 0
-314 -589 0
-314 -614 0
-339 -364 0
-339 -389 0
-339 -414 0
-339 -439 0
-339 -464 0
-339 -489 0
-339 -514 0
-339 -539 0
-339 -564 0
-339 -589 0
-339 -614 0
-364 -389 0
-364 -414 0
-364 -439 0
-364 -464 0
-364 -489 0
-364 -514 0
-364 -539 0
-364 -564 0
-364 -589 0
-364 -614 0
-389 -414 0
-389 -439 0
-389 -464 0
-389 -489 0
-389 -514 0
-389 -539 0
-389 -564 0
-389 -589 0
-389 -614 0
-414 -439 0
-414 -464 0
-414 -489 0
-414 -514 0
-414 -539 0
-414 -564 0
-414 -589 0
-414 -614 0
-439 -464 0
-439 -489 0
-439 -514 0
-439 -539 0
-439 -564 0
-439 -589 0
-439 -614 0
-464 -489 0
-464 -514 0
-464 -539 0
-464 -564 0
-464 -589 0
-464 -614 0
-489 -514 0
-489 -539 0
-489 -564 0
-489 -589 0
-489 -614 0
-514 -539 0
-514 -564 0
-514 -589 0
-514 -614 0
-539 -564 0
-539 -589 0
-539 -614 0
-564 -589 0
-564 -614 0
-589 -614 0
15 40 65 90 115 140 165 190 215 240 265 290 315 340 365 390 415 440 465 490 515 540 565 590 615 0
-15 -40 0
-15 -65 0
-15 -90 0
-15 -115 0
-15 -140 0
-15 -165 0
-15 -190 0
-15 -215 0
-15 -240 0
-15 -265 0
-15 -290 0
-15 -315 0
-15 -340 0
-15 -365 0
-15 -390 0
-15 -415 0
-15 -440 0
-15 -465 0
-15 -490 0
-15 -515 0
-15 -540 0
-15 -565 0
-15 -590 0
-15 -615 0
-40 -65 0
-40 -90 0
-40 -115 0
-40 -140 0
-40 -165 0
-40 -190 0
-40 -215 0
-40 -240 0
-40 -265 0
-40 -290 0
-40 -315 0
-40 -340 0
-40 -365 0
-40 -390 0
-40 -415 0
-40 -440 0
-40 -465 0
-40 -490 0
-40 -515 0
-40 -540 0
-40 -565 0
-40 -590 0
-40 -615 0
-65 -90 0
-65 -115 0
-65 -140 0
-65 -165 0
-65 -190 0
-65 -215 0
-65 -240 0
-65 -265 0
-65 -290 0
-65 -315 0
-65 -340 0
-65 -365 0
-65 -390 0
-65 -415 0
-65 -440 0
-65 -465 0
-65 -490 0
-65 -515 0
-65 -540 0
-65 -565 0
-65 -590 0
-65 -615 0
-90 -115 0
-90 -140 0
-90 -165 0
-90 -190 0
-90 -215 0
-90 -240 0
-90 -265 0
-90 -290 0
-90 -315 0
-90 -340 0
-90 -365 0
-90 -390 0
-90 -415 0
-90 -440 0
-90 -465 0
-90 -490 0
-90 -515 0
-90 -540 0
-90 -565 0
-90 -590 0
-90 -615 0
-115 -140 0
-115 -165 0
-115 -190 0
-115 -215 0
-115 -240 0
-115 -265 0
-115 -290 0
-115 -315 0
-115 -340 0
-115 -365 0
-115 -390 0
-115 -415 0
-115 -440 0
-115 -465 0
-115 -490 0
-115 -515 0
-115 -540 0
-115 -565 0
-115 -590 0
-115 -615 0
-140 -165 0
-140 -190 0
-140 -215 0
-140 -240 0
-140 -265 0
-140 -290 0
-140 -315 0
-140 -340 0
-140 -365 0
-140 -390 0
-140 -415 0
-140 -440 0
-140 -465 0
-140 -490 0
-140 -515 0
-140 -540 0
-140 -565 0
-140 -590 0
-140 -615 0
-165 -190 0
-165 -215 0
-165 -240 0
-165 -265 0
-165 -290 0
-165 -315 0
-165 -340 0
-165 -365 0
-165 -390 0
-165 -415 0
-165 -440 0
-165 -465 0
-165 -490 0
-165 -515 0
-165 -540 0
-165 -565 0
-165 -590 0
-165 -615 0
-190 -215 0
-190 -240 0
-190 -265 0
-190 -290 0
-190 -315 0
-190 -340 0
-190 -365 0
-190 -390 0
-190 -415 0
-190 -440 0
-190 -465 0
-190 -490 0
-190 -515 0
-190 -540 0
-190 -565 0
-190 -590 0
-190 -615 0
-215 -240 0
-215 -265 0
-215 -290 0
-215 -315 0
-215 -340 0
-215 -365 0
-215 -390 0
-215 -415 0
-215 -440 0
-215 -465 0
-215 -490 0
-215 -515 0
-215 -540 0
-215 -565 0
-215 -590 0
-215 -615 0
-240 -265 0
-240 -290 0
-240 -315 0
-240 -340 0
-240 -365 0
-240 -390 0
-240 -415 0
-240 -440 0
-240 -465 0
-240 -490 0
-240 -515 0
-240 -540 0
-240 -565 0
-240 -590 0
-240 -615 0
-265 -290 0
-265 -315 0
-265 -340 0
-265 -365 0
-265 -390 0
-265 -415 0
-265 -440 0
-265 -465 0
-265 -490 0
-265 -515 0
-265 -540 0
-265 -565 0
-265 -590 0
-265 -615 0
-290 -315 0
-290 -340 0
-290 -365 0
-290 -390 0
-290 -415 0
-290 -440 0
-290 -465 0
-290 -490 0
-290 -515 0
-290 -540 0
-290 -565 0
-290 -590 0
-290 -615 0
-315 -340 0
-315 -365 0
-315 -390 0
-315 -415 0
-315 -440 0
-315 -465 0
-315 -490 0
-315 -515 0
-315 -540 0
-315 -565 0
-315 -590 0
-315 -615 0
-340 -365 0
-340 -390 0
-340 -415 0
-340 -440 0
-340 -465 0
-340 -490 0
-340 -515 0
-340 -540 0
-340 -565 0
-340 -590 0
-340 -615 0
-365 -390 0
-365 -415 0
-365 -440 0
-365 -465 0
-365 -490 0
-365 -515 0
-365 -540 0
-365 -565 0
-365 -590 0
-365 -615 0
-390 -415 0
-390 -440 0
-390 -465 0
-390 -490 0
-390 -515 0
-390 -540 0
-390 -565 0
-390 -590 0
-390 -615 0
-415 -440 0
-415 -465 0
-415 -490 0
-415 -515 0
-415 -540 0
-415 -565 0
-415 -590 0
-415 -615 0
-440 -465 0
-440 -490 0
-440 -515 0
-440 -540 0
-440 -565 0
-440 -590 0
-440 -615 0
-465 -490 0
-465 -515 0
-465 -540 0
-465 -565 0
-465 -590 0
-465 -615 0
-490 -515 0
-490 -540 0
-490 -565 0
-490 -590 0
-490 -615 0
-515 -540 0
-515 -565 0
-515 -590 0
-515 -615 0
-540 -565 0
-540 -590 0
-540 -615 0
-565 -590 0
-565 -615 0
-590 -615 0
16 41 66 91 116 141 166 191 216 241 266 291 316 341 366 391 416 441 466 491 516 541 566 591 616 0
-16 -41 0
-16 -66 0
-16 -91 0
-16 -116 0
-16 -141 0
-16 -166 0
-16 -191 0
-16 -216 0
-16 -241 0
-16 -266 0
-16 -291 0
-16 -316 0
-16 -341 0
-16 -366 0
-16 -391 0
-16 -416 0
-16 -441 0
-16 -466 0
-16 -491 0
-16 -516 0
-16 -541 0
-16 -566 0
-16 -591 0
-16 -616 0
-41 -66 0
-41 -91 0
-41 -116 0
-41 -141 0
-41 -166 0
-41 -191 0
-41 -216 0
-41 -241 0
-41 -266 0
-41 -291 0
-41 -316 0
-41 -341 0
-41 -366 0
-41 -391 0
-41 -416 0
-41 -441 0
-41 -466 0
-41 -491 0
-41 -516 0
-41 -541 0
-41 -566 0
-41 -591 0
-41 -616 0
-66 -91 0
-66 -116 0
-66 -141 0
-66 -166 0
-66 -191 0
-66 -216 0
-66 -241 0
-66 -266 0
-66 -291 0
-66 -316 0
-66 -341 0
-66 -366 0
-66 -391 0
-66 -416 0
-66 -441 0
-66 -466 0
-66 -491 0
-66 -516 0
-66 -541 0
-66 -566 0
-66 -591 0
-66 -616 0
-91 -116 0
-91 -141 0
-91 -166 0
-91 -191 0
-91 -216 0
-91 -241 0
-91 -266 0
-91 -291 0
-91 -316 0
-91 -341 0
-91 -366 0
-91 -391 0
-91 -416 0
-91 -441 0
-91 -466 0
-91 -491 0
-91 -516 0
-91 -541 0
-91 -566 0
-91 -591 0
-91 -616 0
-116 -141 0
-116 -166 0
-116 -191 0
-116 -216 0
-116 -241 0
-116 -266 0
-116 -291 0
-116 -316 0
-116 -341 0
-116 -366 0
-116 -391 0
-116 -416 0
-116 -441 0
-116 -466 0
-116 -491 0
-116 -516 0
-116 -541 0
-116 -566 0
-116 -591 0
-116 -616 0
-141 -166 0
-141 -191 0
-141 -216 0
-141 -241 0
-141 -266 0
-141 -291 0
-141 -316 0
-141 -341 0
-141 -366 0
-141 -391 0
-141 -416 0
-141 -441 0
-141 -466 0
-141 -491 0
-141 -516 0
-141 -541 0
-141 -566 0
-141 -591 0
-141 -616 0
-166 -191 0
-166 -216 0
-166 -241 0
-166 -266 0
-166 -291 0
-166 -316 0
-166 -341 0
-166 -366 0
-166 -391 0
-166 -416 0
-166 -441 0
-166 -466 0
-166 -491 0
-166 -516 0
-166 -541 0
-166 -566 0
-166 -591 0
-166 -616 0
-191 -216 0
-191 -241 0
-191 -266 0
-191 -291 0
-191 -316 0
-191 -341 0
-191 -366 0
-191 -391 0
-191 -416 0
-191 -441 0
-191 -466 0
-191 -491 0
-191 -516 0
-191 -541 0
-191 -566 0
-191 -591 0
-191 -616 0
-216 -241 0
-216 -266 0
-216 -291 0
-216 -316 0
-216 -341 0
-216 -366 0
-216 -391 0
-216 -416 0
-216 -441 0
-216 -466 0
-216 -491 0
-216 -516 0
-216 -541 0
-216 -566 0
-216 -591 0
-216 -616 0
-241 -266 0
-241 -291 0
-241 -316 0
-241 -341 0
-241 -366 0
-241 -391 0
-241 -416 0
-241 -441 0
-241 -466 0
-241 -491 0
-241 -516 0
-241 -541 0
-241 -566 0
-241 -591 0
-241 -616 0
-266 -291 0
-266 -316 0
-266 -341 0
-266 -366 0
-266 -391 0
-266 -416 0
-266 -441 0
-266 -466 0
-266 -491 0
-266 -516 0
-266 -541 0
-266 -566 0
-266 -591 0
-266 -616 0
-291 -316 0
-291 -341 0
-291 -366 0
-291 -391 0
-291 -416 0
-291 -441 0
-291 -466 0
-291 -491 0
-291 -516 0
-291 -541 0
-291 -566 0
-291 -591 0
-291 -616 0
-316 -341 0
-316 -366 0
-316 -391 0
-316 -416 0
-316 -441 0
-316 -466 0
-316 -491 0
-316 -516 0
-316 -541 0
-316 -566 0
-316 -591 0
-316 -616 0
-341 -366 0
-341 -391 0
-341 -416 0
-341 -441 0
-341 -466 0
-341 -491 0
-341 -516 0
-341 -541 0
-341 -566 0
-341 -591 0
-341 -616 0
-366 -391 0
-366 -416 0
-366 -441 0
-366 -466 0
-366 -491 0
-366 -516 0
-366 -541 0
-366 -566 0
-366 -591 0
-366 -616 0
-391 -416 0
-391 -441 0
-391 -466 0
-391 -491 0
-391 -516 0
-391 -541 0
-391 -566 0
-391 -591 0
-391 -616 0
-416 -441 0
-416 -466 0
-416 -491 0
-416 -516 0
-416 -541 0
-416 -566 0
-416 -591 0
-416 -616 0
-441 -466 0
-441 -491 0
-441 -516 0
-441 -541 0
-441 -566 0
-441 -591 0
-441 -616 0
-466 -491 0
-466 -516 0
-466 -541 0
-466 -566 0
-466 -591 0
-466 -616 0
-491 -516 0
-491 -541 0
-491 -566 0
-491 -591 0
-491 -616 0
-516 -541 0
-516 -566 0
-516 -591 0
-516 -616 0
-541 -566 0
-541 -591 0
-541 -616 0
-566 -591 0
-566 -616 0
-591 -616 0
17 42 67 92 117 142 167 192 217 242 267 292 317 342 367 392 417 442 467 492 517 542 567 592 617 0
-17 -42 0
-17 -67 0
-17 -92 0
-17 -117 0
-17 -142 0
-17 -167 0
-17 -192 0
-17 -217 0
-17 -242 0
-17 -267 0
-17 -292 0
-17 -317 0
-17 -342 0
-17 -367 0
-17 -392 0
-17 -417 0
-17 -442 0
-17 -467 0
-17 -492 0
-17 -517 0
-17 -542 0
-17 -567 0
-17 -592 0
-17 -617 0
-42 -67 0
-42 -92 0
-42 -117 0
-42 -142 0
-42 -167 0
-42 -192 0
-42 -217 0
-42 -242 0
-42 -267 0
-42 -292 0
-42 -317 0
-42 -342 0
-42 -367 0
-42 -392 0
-42 -417 0
-42 -442 0
-42 -467 0
-42 -492 0
-42 -517 0
-42 -542 0
-42 -567 0
-42 -592 0
-42 -617 0
-67 -92 0
-67 -117 0
-67 -142 0
-67 -167 0
-67 -192 0
-67 -217 0
-67 -242 0
-67 -267 0
-67 -292 0
-67 -317 0
-67 -342 0
-67 -367 0
-67 -392 0
-67 -417 0
-67 -442 0
-67 -467 0
-67 -492 0
-67 -517 0
-67 -542 0
-67 -567 0
-67 -592 0
-67 -617 0
-92 -117 0
-92 -142 0
-92 -167 0
-92 -192 0
-92 -217 0
-92 -242 0
-92 -267 0
-92 -292 0
-92 -317 0
-92 -342 0
-92 -367 0
-92 -392 0
-92 -417 0
-92 -442 0
-92 -467 0
-92 -492 0
-92 -517 0
-92 -542 0
-92 -567 0
-92 -592 0
-92 -617 0
-117 -142 0
-117 -167 0
-117 -192 0
-117 -217 0
-117 -242 0
-117 -267 0
-117 -292 0
-117 -317 0
-117 -342 0
-117 -367 0
-117 -392 0
-117 -417 0
-117 -442 0
-117 -467 0
-117 -492 0
-117 -517 0
-117 -542 0
-117 -567 0
-117 -592 0
-117 -617 0
-142 -167 0
-142 -192 0
-142 -217 0
-142 -242 0
-142 -267 0
-142 -292 0
-142 -317 0
-142 -342 0
-142 -367 0
-142 -392 0
-142 -417 0
-142 -442 0
-142 -467 0
-142 -492 0
-142 -517 0
-142 -542 0
-142 -567 0
-142 -592 0
-142 -617 0
-167 -192 0
-167 -217 0
-167 -242 0
-167 -267 0
-167 -292 0
-167 -317 0
-167 -342 0
-167 -367 0
-167 -392 0
-167 -417 0
-167 -442 0
-167 -467 0
-167 -492 0
-167 -517 0
-167 -542 0
-167 -567 0
-167 -592 0
-167 -617 0
-192 -217 0
-192 -242 0
-192 -267 0
-192 -292 0
-192 -317 0
-192 -342 0
-192 -367 0
-192 -392 0
-192 -417 0
-192 -442 0
-192 -467 0
-192 -492 0
-192 -517 0
-192 -542 0
-192 -567 0
-192 -592 0
-192 -617 0
-217 -242 0
-217 -267 0
-217 -292 0
-217 -317 0
-217 -342 0
-217 -367 0
-217 -392 0
-217 -417 0
-217 -442 0
-217 -467 0
-217 -492 0
-217 -517 0
-217 -542 0
-217 -567 0
-217 -592 0
-217 -617 0
-242 -267 0
-242 -292 0
-242 -317 0
-242 -342 0
-242 -367 0
-242 -392 0
-242 -417 0
-242 -442 0
-242 -467 0
-242 -492 0
-242 -517 0
-242 -542 0
-242 -567 0
-242 -592 0
-242 -617 0
-267 -292 0
-267 -317 0
-267 -342 0
-267 -367 0
-267 -392 0
-267 -417 0
-267 -442 0
-267 -467 0
-267 -492 0
-267 -517 0
-267 -542 0
-267 -567 0
-267 -592 0
-267 -617 0
-292 -317 0
-292 -342 0
-292 -367 0
-292 -392 0
-292 -417 0
-292 -442 0
-292 -467 0
-292 -492 0
-292 -517 0
-292 -542 0
-292 -567 0
-292 -592 0
-292 -617 0
-317 -342 0
-317 -367 0
-317 -392 0
-317 -417 0
-317 -442 0
-317 -467 0
-317 -492 0
-317 -517 0
-317 -542 0
-317 -567 0
-317 -592 0
-317 -617 0
-342 -367 0
-342 -392 0
-342 -417 0
-342 -442 0
-342 -467 0
-342 -492 0
-342 -517 0
-342 -542 0
-342 -567 0
-342 -592 0
-342 -617 0
-367 -392 0
-367 -417 0
-367 -442 0
-367 -467 0
-367 -492 0
-367 -517 0
-367 -542 0
-367 -567 0
-367 -592 0
-367 -617 0
-392 -417 0
-392 -442 0
-392 -467 0
-392 -492 0
-392 -517 0
-392 -542 0
-392 -567 0
-392 -592 0
-392 -617 0
-417 -442 0
-417 -467 0
-417 -492 0
-417 -517 0
-417 -542 0
-417 -567 0
-417 -592 0
-417 -617 0
-442 -467 0
-442 -492 0
-442 -517 0
-442 -542 0
-442 -567 0
-442 -592 0
-442 -617 0
-467 -492 0
-467 -517 0
-467 -542 0
-467 -567 0
-467 -592 0
-467 -617 0
-492 -517 0
-492 -542 0
-492 -567 0
-492 -592 0
-492 -617 0
-517 -542 0
-517 -567 0
-517 -592 0
-517 -617 0
-542 -567 0
-542 -592 0
-542 -617 0
-567 -592 0
-567 -617 0
-592 -617 0
18 43 68 93 118 143 168 193 218 243 268 293 318 343 368 393 418 443 468 493 518 543 568 593 618 0
-18 -43 0
-18 -68 0
-18 -93 0
-18 -118 0
-18 -143 0
-18 -168 0
-18 -193 0
-18 -218 0
-18 -243 0
-18 -268 0
-18 -293 0
-18 -318 0
-18 -343 0
-18 -368 0
-18 -393 0
-18 -418 0
-18 -443 0
-18 -468 0
-18 -493 0
-18 -518 0
-18 -543 0
-18 -568 0
-18 -593 0
-18 -618 0
-43 -68 0
-43 -93 0
-43 -118 0
-43 -143 0
-43 -168 0
-43 -193 0
-43 -218 0
-43 -243 0
-43 -268 0
-43 -293 0
-43 -318 0
-43 -343 0
-43 -368 0
-43 -393 0
-43 -418 0
-43 -443 0
-43 -468 0
-43 -493 0
-43 -518 0
-43 -543 0
-43 -568 0
-43 -593 0
-43 -618 0
-68 -93 0
-68 -118 0
-68 -143 0
-68 -168 0
-68 -193 0
-68 -218 0
-68 -243 0
-68 -268 0
-68 -293 0
-68 -318 0
-68 -343 0
-68 -368 0
-68 -393 0
-68 -418 0
-68 -443 0
-68 -468 0
-68 -493 0
-68 -518 0
-68 -543 0
-68 -568 0
-68 -593 0
-68 -618 0
-93 -118 0
-93 -143 0
-93 -168 0
-93 -193 0
-93 -218 0
-93 -243 0
-93 -268 0
-93 -293 0
-93 -318 0
-93 -343 0
-93 -368 0
-93 -393 0
-93 -418 0
-93 -443 0
-93 -468 0
-93 -493 0
-93 -518 0
-93 -543 0
-93 -568 0
-93 -593 0
-93 -618 0
-118 -143 0
-118 -168 0
-118 -193 0
-118 -218 0
-118 -243 0
-118 -268 0
-118 -293 0
-118 -318 0
-118 -343 0
-118 -368 0
-118 -393 0
-118 -418 0
-118 -443 0
-118 -468 0
-118 -493 0
-118 -518 0
-118 -543 0
-118 -568 0
-118 -593 0
-118 -618 0
-143 -168 0
-143 -193 0
-143 -218 0
-143 -243 0
-143 -268 0
-143 -293 0
-143 -318 0
-143 -343 0
-143 -368 0
-143 -393 0
-143 -418 0
-143 -443 0
-143 -468 0
-143 -493 0
-143 -518 0
-143 -543 0
-143 -568 0
-143 -593 0
-143 -618 0
-168 -193 0
-168 -218 0
-168 -243 0
-168 -268 0
-168 -293 0
-168 -318 0
-168 -343 0
-168 -368 0
-168 -393 0
-168 -418 0
-168 -443 0
-168 -468 0
-168 -493 0
-168 -518 0
-168 -543 0
-168 -568 0
-168 -593 0
-168 -618 0
-193 -218 0
-193 -243 0
-193 -268 0
-193 -293 0
-193 -318 0
-193 -343 0
-193 -368 0
-193 -393 0
-193 -418 0
-193 -443 0
-193 -468 0
-193 -493 0
-193 -518 0
-193 -543 0
-193 -568 0
-193 -593 0
-193 -618 0
-218 -243 0
-218 -268 0
-218 -293 0
-218 -318 0
-218 -343 0
-218 -368 0
-218 -393 0
-218 -418 0
-218 -443 0
-218 -468 0
-218 -493 0
-218 -518 0
-218 -543 0
-218 -568 0
-218 -593 0
-218 -618 0
-243 -268 0
-243 -293 0
-243 -318 0
-243 -343 0
-243 -368 0
-243 -393 0
-243 -418 0
-243 -443 0
-243 -468 0
-243 -493 0
-243 -518 0
-243 -543 0
-243 -568 0
-243 -593 0
-243 -618 0
-268 -293 0
-268 -318 0
-268 -343 0
-268 -368 0
-268 -393 0
-268 -418 0
-268 -443 0
-268 -468 0
-268 -493 0
-268 -518 0
-268 -543 0
-268 -568 0
-268 -593 0
-268 -618 0
-293 -318 0
-293 -343 0
-293 -368 0
-293 -393 0
-293 -418 0
-293 -443 0
-293 -468 0
-293 -493 0
-293 -518 0
-293 -543 0
-293 -568 0
-293 -593 0
-293 -618 0
-318 -343 0
-318 -368 0
-318 -393 0
-318 -418 0
-318 -443 0
-318 -468 0
-318 -493 0
-318 -518 0
-318 -543 0
-318 -568 0
-318 -593 0
-318 -618 0
-343 -368 0
-343 -393 0
-343 -418 0
-343 -443 0
-343 -468 0
-343 -493 0
-343 -518 0
-343 -543 0
-343 -568 0
-343 -593 0
-343 -618 0
-368 -393 0
-368 -418 0
-368 -443 0
-368 -468 0
-368 -493 0
-368 -518 0
-368 -543 0
-368 -568 0
-368 -593 0
-368 -618 0
-393 -418 0
-393 -443 0
-393 -468 0
-393 -493 0
-393 -518 0
-393 -543 0
-393 -568 0
-393 -593 0
-393 -618 0
-418 -443 0
-418 -468 0
-418 -493 0
-418 -518 0
-418 -543 0
-418 -568 0
-418 -593 0
-418 -618 0
-443 -468 0
-443 -493 0
-443 -518 0
-443 -543 0
-443 -568 0
-443 -593 0
-443 -618 0
-468 -493 0
-468 -518 0
-468 -543 0
-468 -568 0
-468 -593 0
-468 -618 0
-493 -518 0
-493 -543 0
-493 -568 0
-493 -593 0
-493 -618 0
-518 -543 0
-518 -568 0
-518 -593 0
-518 -618 0
-543 -568 0
-543 -593 0
-543 -618 0
-568 -593 0
-568 -618 0
-593 -618 0
19 44 69 94 119 144 169 194 219 244 269 294 319 344 369 394 419 444 469 494 519 544 569 594 619 0
-19 -44 0
-19 -69 0
-19 -94 0
-19 -119 0
-19 -144 0
-19 -169 0
-19 -194 0
-19 -219 0
-19 -244 0
-19 -269 0
-19 -294 0
-19 -319 0
-19 -344 0
-19 -369 0
-19 -394 0
-19 -419 0
-19 -444 0
-19 -469 0
-19 -494 0
-19 -519 0
-19 -544 0
-19 -569 0
-19 -594 0
-19 -619 0
-44 -69 0
-44 -94 0
-44 -119 0
-44 -144 0
-44 -169 0
-44 -194 0
-44 -219 0
-44 -244 0
-44 -269 0
-44 -294 0
-44 -319 0
-44 -344 0
-44 -369 0
-44 -394 0
-44 -419 0
-44 -444 0
-44 -469 0
-44 -494 0
-44 -519 0
-44 -544 0
-44 -569 0
-44 -594 0
-44 -619 0
-69 -94 0
-69 -119 0
-69 -144 0
-69 -169 0
-69 -194 0
-69 -219 0
-69 -244 0
-69 -269 0
-69 -294 0
-69 -319 0
-69 -344 0
-69 -369 0
-69 -394 0
-69 -419 0
-69 -444 0
-69 -469 0
-69 -494 0
-69 -519 0
-69 -544 0
-69 -569 0
-69 -594 0
-69 -619 0
-94 -119 0
-94 -144 0
-94 -169 0
-94 -194 0
-94 -219 0
-94 -244 0
-94 -269 0
-94 -294 0
-94 -319 0
-94 -344 0
-94 -369 0
-94 -394 0
-94 -419 0
-94 -444 0
-94 -469 0
-94 -494 0
-94 -519 0
-94 -544 0
-94 -569 0
-94 -594 0
-94 -619 0
-119 -144 0
-119 -169 0
-119 -194 0
-119 -219 0
-119 -244 0
-119 -269 0
-119 -294 0
-119 -319 0
-119 -344 0
-119 -369 0
-119 -394 0
-119 -419 0
-119 -444 0
-119 -469 0
-119 -494 0
-119 -519 0
-119 -544 0
-119 -569 0
-119 -594 0
-119 -619 0
-144 -169 0
-144 -194 0
-144 -219 0
-144 -244 0
-144 -269 0
-144 -294 0
-144 -319 0
-144 -344 0
-144 -369 0
-144 -394 0
-144 -419 0
-144 -444 0
-144 -469 0
-144 -494 0
-144 -519 0
-144 -544 0
-144 -569 0
-144 -594 0
-144 -619 0
-169 -194 0
-169 -219 0
-169 -244 0
-169 -269 0
-169 -294 0
-169 -319 0
-169 -344 0
-169 -369 0
-169 -394 0
-169 -419 0
-169 -444 0
-169 -469 0
-169 -494 0
-169 -519 0
-169 -544 0
-169 -569 0
-169 -594 0
-169 -619 0
-194 -219 0
-194 -244 0
-194 -269 0
-194 -294 0
-194 -319 0
-194 -344 0
-194 -369 0
-194 -394 0
-194 -419 0
-194 -444 0
-194 -469 0
-194 -494 0
-194 -519 0
-194 -544 0
-194 -569 0
-194 -594 0
-194 -619 0
-219 -244 0
-219 -269 0
-219 -294 0
-219 -319 0
-219 -344 0
-219 -369 0
-219 -394 0
-219 -419 0
-219 -444 0
-219 -469 0
-219 -494 0
-219 -519 0
-219 -544 0
-219 -569 0
-219 -594 0
-219 -619 0
-244 -269 0
-244 -294 0
-244 -319 0
-244 -344 0
-244 -369 0
-244 -394 0
-244 -419 0
-244 -444 0
-244 -469 0
-244 -494 0
-244 -519 0
-244 -544 0
-244 -569 0
-244 -594 0
-244 -619 0
-269 -294 0
-269 -319 0
-269 -344 0
-269 -369 0
-269 -394 0
-269 -419 0
-269 -444 0
-269 -469 0
-269 -494 0
-269 -519 0
-269 -544 0
-269 -569 0
-269 -594 0
-269 -619 0
-294 -319 0
-294 -344 0
-294 -369 0
-294 -394 0
-294 -419 0
-294 -444 0
-294 -469 0
-294 -494 0
-294 -519 0
-294 -544 0
-294 -569 0
-294 -594 0
-294 -619 0
-319 -344 0
-319 -369 0
-319 -394 0
-319 -419 0
-319 -444 0
-319 -469 0
-319 -494 0
-319 -519 0
-319 -544 0
-319 -569 0
-319 -594 0
-319 -619 0
-344 -369 0
-344 -394 0
-344 -419 0
-344 -444 0
-344 -469 0
-344 -494 0
-344 -519 0
-344 -544 0
-344 -569 0
-344 -594 0
-344 -619 0
-369 -394 0
-369 -419 0
-369 -444 0
-369 -469 0
-369 -494 0
-369 -519 0
-369 -544 0
-369 -569 0
-369 -594 0
-369 -619 0
-394 -419 0
-394 -444 0
-394 -469 0
-394 -494 0
-394 -519 0
-394 -544 0
-394 -569 0
-394 -594 0
-394 -619 0
-419 -444 0
-419 -469 0
-419 -494 0
-419 -519 0
-419 -544 0
-419 -569 0
-419 -594 0
-419 -619 0
-444 -469 0
-444 -494 0
-444 -519 0
-444 -544 0
-444 -569 0
-444 -594 0
-444 -619 0
-469 -494 0
-469 -519 0
-469 -544 0
-469 -569 0
-469 -594 0
-469 -619 0
-494 -519 0
-494 -544 0
-494 -569 0
-494 -594 0
-494 -619 0
-519 -544 0
-519 -569 0
-519 -594 0
-519 -619 0
-544 -569 0
-544 -594 0
-544 -619 0
-569 -594 0
-569 -619 0
-594 -619 0
20 45 70 95 120 145 170 195 220 245 270 295 320 345 370 395 420 445 470 495 520 545 570 595 620 0
-20 -45 0
-20 -70 0
-20 -95 0
-20 -120 0
-20 -145 0
-20 -170 0
-20 -195 0
-20 -220 0
-20 -245 0
-20 -270 0
-20 -295 0
-20 -320 0
-20 -345 0
-20 -370 0
-20 -395 0
-20 -420 0
-20 -445 0
-20 -470 0
-20 -495 0
-20 -520 0
-20 -545 0
-20 -570 0
-20 -595 0
-20 -620 0
-45 -70 0
-45 -95 0
-45 -120 0
-45 -145 0
-45 -170 0
-45 -195 0
-45 -220 0
-45 -245 0
-45 -270 0
-45 -295 0
-45 -320 0
-45 -345 0
-45 -370 0
-45 -395 0
-45 -420 0
-45 -445 0
-45 -470 0
-45 -495 0
-45 -520 0
-45 -545 0
-45 -570 0
-45 -595 0
-45 -620 0
-70 -95 0
-70 -120 0
-70 -145 0
-70 -170 0
-70 -195 0
-70 -220 0
-70 -245 0
-70 -270 0
-70 -295 0
-70 -320 0
-70 -345 0
-70 -370 0
-70 -395 0
-70 -420 0
-70 -445 0
-70 -470 0
-70 -495 0
-70 -520 0
-70 -545 0
-70 -570 0
-70 -595 0
-70 -620 0
-95 -120 0
-95 -145 0
-95 -170 0
-95 -195 0
-95 -220 0
-95 -245 0
-95 -270 0
-95 -295 0
-95 -320 0
-95 -345 0
-95 -370 0
-95 -395 0
-95 -420 0
-95 -445 0
-95 -470 0
-95 -495 0
-95 -520 0
-95 -545 0
-95 -570 0
-95 -595 0
-95 -620 0
-120 -145 0
-120 -170 0
-120 -195 0
-120 -220 0
-120 -245 0
-120 -270 0
-120 -295 0
-120 -320 0
-120 -345 0
-120 -370 0
-120 -395 0
-120 -420 0
-120 -445 0
-120 -470 0
-120 -495 0
-120 -520 0
-120 -545 0
-120 -570 0
-120 -595 0
-120 -620 0
-145 -170 0
-145 -195 0
-145 -220 0
-145 -245 0
-145 -270 0
-145 -295 0
-145 -320 0
-145 -345 0
-145 -370 0
-145 -395 0
-145 -420 0
-145 -445 0
-145 -470 0
-145 -495 0
-145 -520 0
-145 -545 0
-145 -570 0
-145 -595 0
-145 -620 0
-170 -195 0
-170 -220 0
-170 -245 0
-170 -270 0
-170 -295 0
-170 -320 0
-170 -345 0
-170 -370 0
-170 -395 0
-170 -420 0
-170 -445 0
-170 -470 0
-170 -495 0
-170 -520 0
-170 -545 0
-170 -570 0
-170 -595 0
-170 -620 0
-195 -220 0
-195 -245 0
-195 -270 0
-195 -295 0
-195 -320 0
-195 -345 0
-195 -370 0
-195 -395 0
-195 -420 0
-195 -445 0
-195 -470 0
-195 -495 0
-195 -520 0
-195 -545 0
-195 -570 0
-195 -595 0
-195 -620 0
-220 -245 0
-220 -270 0
-220 -295 0
-220 -320 0
-220 -345 0
-220 -370 0
-220 -395 0
-220 -420 0
-220 -445 0
-220 -470 0
-220 -495 0
-220 -520 0
-220 -545 0
-220 -570 0
-220 -595 0
-220 -620 0
-245 -270 0
-245 -295 0
-245 -320 0
-245 -345 0
-245 -370 0
-245 -395 0
-245 -420 0
-245 -445 0
-245 -470 0
-245 -495 0
-245 -520 0
-245 -545 0
-245 -570 0
-245 -595 0
-245 -620 0
-270 -295 0
-270 -320 0
-270 -345 0
-270 -370 0
-270 -395 0
-270 -420 0
-270 -445 0
-270 -470 0
-270 -495 0
-270 -520 0
-270 -545 0
-270 -570 0
-270 -595 0
-270 -620 0
-295 -320 0
-295 -345 0
-295 -370 0
-295 -395 0
-295 -420 0
-295 -445 0
-295 -470 0
-295 -495 0
-295 -520 0
-295 -545 0
-295 -570 0
-295 -595 0
-295 -620 0
-320 -345 0
-320 -370 0
-320 -395 0
-320 -420 0
-320 -445 0
-320 -470 0
-320 -495 0
-320 -520 0
-320 -545 0
-320 -570 0
-320 -595 0
-320 -620 0
-345 -370 0
-345 -395 0
-345 -420 0
-345 -445 0
-345 -470 0
-345 -495 0
-345 -520 0
-345 -545 0
-345 -570 0
-345 -595 0
-345 -620 0
-370 -395 0
-370 -420 0
-370 -445 0
-370 -470 0
-370 -495 0
-370 -520 0
-370 -545 0
-370 -570 0
-370 -595 0
-370 -620 0
-395 -420 0
-395 -445 0
-395 -470 0
-395 -495 0
-395 -520 0
-395 -545 0
-395 -570 0
-395 -595 0
-395 -620 0
-420 -445 0
-420 -470 0
-420 -495 0
-420 -520 0
-420 -545 0
-420 -570 0
-420 -595 0
-420 -620 0
-445 -470 0
-445 -495 0
-445 -520 0
-445 -545 0
-445 -570 0
-445 -595 0
-445 -620 0
-470 -495 0
-470 -520 0
-470 -545 0
-470 -570 0
-470 -595 0
-470 -620 0
-495 -520 0
-495 -545 0
-495 -570 0
-495 -595 0
-495 -620 0
-520 -545 0
-520 -570 0
-520 -595 0
-520 -620 0
-545 -570 0
-545 -595 0
-545 -620 0
-570 -595 0
-570 -620 0
-595 -620 0
21 46 71 96 121 146 171 196 221 246 271 296 321 346 371 396 421 446 471 496 521 546 571 596 621 0
-21 -46 0
-21 -71 0
-21 -96 0
-21 -121 0
-21 -146 0
-21 -171 0
-21 -196 0
-21 -221 0
-21 -246 0
-21 -271 0
-21 -296 0
-21 -321 0
-21 -346 0
-21 -371 0
-21 -396 0
-21 -421 0
-21 -446 0
-21 -471 0
-21 -496 0
-21 -521 0
-21 -546 0
-21 -571 0
-21 -596 0
-21 -621 0
-46 -71 0
-46 -96 0
-46 -121 0
-46 -146 0
-46 -171 0
-46 -196 0
-46 -221 0
-46 -246 0
-46 -271 0
-46 -296 0
-46 -321 0
-46 -346 0
-46 -371 0
-46 -396 0
-46 -421 0
-46 -446 0
-46 -471 0
-46 -496 0
-46 -521 0
-46 -546 0
-46 -571 0
-46 -596 0
-46 -621 0
-71 -96 0
-71 -121 0
-71 -146 0
-71 -171 0
-71 -196 0
-71 -221 0
-71 -246 0
-71 -271 0
-71 -296 0
-71 -321 0
-71 -346 0
-71 -371 0
-71 -396 0
-71 -421 0
-71 -446 0
-71 -471 0
-71 -496 0
-71 -521 0
-71 -546 0
-71 -571 0
-71 -596 0
-71 -621 0
-96 -121 0
-96 -146 0
-96 -171 0
-96 -196 0
-96 -221 0
-96 -246 0
-96 -271 0
-96 -296 0
-96 -321 0
-96 -346 0
-96 -371 0
-96 -396 0
-96 -421 0
-96 -446 0
-96 -471 0
-96 -496 0
-96 -521 0
-96 -546 0
-96 -571 0
-96 -596 0
-96 -621 0
-121 -146 0
-121 -171 0
-121 -196 0
-121 -221 0
-121 -246 0
-121 -271 0
-121 -296 0
-121 -321 0
-121 -346 0
-121 -371 0
-121 -396 0
-121 -421 0
-121 -446 0
-121 -471 0
-121 -496 0
-121 -521 0
-121 -546 0
-121 -571 0
-121 -596 0
-121 -621 0
-146 -171 0
-146 -196 0
-146 -221 0
-146 -246 0
-146 -271 0
-146 -296 0
-146 -321 0
-146 -346 0
-146 -371 0
-146 -396 0
-146 -421 0
-146 -446 0
-146 -471 0
-146 -496 0
-146 -521 0
-146 -546 0
-146 -571 0
-146 -596 0
-146 -621 0
-171 -196 0
-171 -221 0
-171 -246 0
-171 -271 0
-171 -296 0
-171 -321 0
-171 -346 0
-171 -371 0
-171 -396 0
-171 -421 0
-171 -446 0
-171 -471 0
-171 -496 0
-171 -521 0
-171 -546 0
-171 -571 0
-171 -596 0
-171 -621 0
-196 -221 0
-196 -246 0
-196 -271 0
-196 -296 0
-196 -321 0
-196 -346 0
-196 -371 0
-196 -396 0
-196 -421 0
-196 -446 0
-196 -471 0
-196 -496 0
-196 -521 0
-196 -546 0
-196 -571 0
-196 -596 0
-196 -621 0
-221 -246 0
-221 -271 0
-221 -296 0
-221 -321 0
-221 -346 0
-221 -371 0
-221 -396 0
-221 -421 0
-221 -446 0
-221 -471 0
-221 -496 0
-221 -521 0
-221 -546 0
-221 -571 0
-221 -596 0
-221 -621 0
-246 -271 0
-246 -296 0
-246 -321 0
-246 -346 0
-246 -371 0
-246 -396 0
-246 -421 0
-246 -446 0
-246 -471 0
-246 -496 0
-246 -521 0
-246 -546 0
-246 -571 0
-246 -596 0
-246 -621 0
-271 -296 0
-271 -321 0
-271 -346 0
-271 -371 0
-271 -396 0
-271 -421 0
-271 -446 0
-271 -471 0
-271 -496 0
-271 -521 0
-271 -546 0
-271 -571 0
-271 -596 0
-271 -621 0
-296 -321 0
-296 -346 0
-296 -371 0
-296 -396 0
-296 -421 0
-296 -446 0
-296 -471 0
-296 -496 0
-296 -521 0
-296 -546 0
-296 -571 0
-296 -596 0
-296 -621 0
-321 -346 0
-321 -371 0
-321 -396 0
-321 -421 0
-321 -446 0
-321 -471 0
-321 -496 0
-321 -521 0
-321 -546 0
-321 -571 0
-321 -596 0
-321 -621 0
-346 -371 0
-346 -396 0
-346 -421 0
-346 -446 0
-346 -471 0
-346 -496 0
-346 -521 0
-346 -546 0
-346 -571 0
-346 -596 0
-346 -621 0
-371 -396 0
-371 -421 0
-371 -446 0
-371 -471 0
-371 -496 0
-371 -521 0
-371 -546 0
-371 -571 0
-371 -596 0
-371 -621 0
-396 -421 0
-396 -446 0
-396 -471 0
-396 -496 0
-396 -521 0
-396 -546 0
-396 -571 0
-396 -596 0
-396 -621 0
-421 -446 0
-421 -471 0
-421 -496 0
-421 -521 0
-421 -546 0
-421 -571 0
-421 -596 0
-421 -621 0
-446 -471 0
-446 -496 0
-446 -521 0
-446 -546 0
-446 -571 0
-446 -596 0
-446 -621 0
-471 -496 0
-471 -521 0
-471 -546 0
-471 -571 0
-471 -596 0
-471 -621 0
-496 -521 0
-496 -546 0
-496 -571 0
-496 -596 0
-496 -621 0
-521 -546 0
-521 -571 0
-521 -596 0
-521 -621 0
-546 -571 0
-546 -596 0
-546 -621 0
-571 -596 0
-571 -621 0
-596 -621 0
22 47 72 97 122 147 172 197 222 247 272 297 322 347 372 397 422 447 472 497 522 547 572 597 622 0
-22 -47 0
-22 -72 0
-22 -97 0
-22 -122 0
-22 -147 0
-22 -172 0
-22 -197 0
-22 -222 0
-22 -247 0
-22 -272 0
-22 -297 0
-22 -322 0
-22 -347 0
-22 -372 0
-22 -397 0
-22 -422 0
-22 -447 0
-22 -472 0
-22 -497 0
-22 -522 0
-22 -547 0
-22 -572 0
-22 -597 0
-22 -622 0
-47 -72 0
-47 -97 0
-47 -122 0
-47 -147 0
-47 -172 0
-47 -197 0
-47 -222 0
-47 -247 0
-47 -272 0
-47 -297 0
-47 -322 0
-47 -347 0
-47 -372 0
-47 -397 0
-47 -422 0
-47 -447 0
-47 -472 0
-47 -497 0
-47 -522 0
-47 -547 0
-47 -572 0
-47 -597 0
-47 -622 0
-72 -97 0
-72 -122 0
-72 -147 0
-72 -172 0
-72 -197 0
-72 -222 0
-72 -247 0
-72 -272 0
-72 -297 0
-72 -322 0
-72 -347 0
-72 -372 0
-72 -397 0
-72 -422 0
-72 -447 0
-72 -472 0
-72 -497 0
-72 -522 0
-72 -547 0
-72 -572 0
-72 -597 0
-72 -622 0
-97 -122 0
-97 -147 0
-97 -172 0
-97 -197 0
-97 -222 0
-97 -247 0
-97 -272 0
-97 -297 0
-97 -322 0
-97 -347 0
-97 -372 0
-97 -397 0
-97 -422 0
-97 -447 0
-97 -472 0
-97 -497 0
-97 -522 0
-97 -547 0
-97 -572 0
-97 -597 0
-97 -622 0
-122 -147 0
-122 -172 0
-122 -197 0
-122 -222 0
-122 -247 0
-122 -272 0
-122 -297 0
-122 -322 0
-122 -347 0
-122 -372 0
-122 -397 0
-122 -422 0
-122 -447 0
-122 -472 0
-122 -497 0
-122 -522 0
-122 -547 0
-122 -572 0
-122 -597 0
-122 -622 0
-147 -172 0
-147 -197 0
-147 -222 0
-147 -247 0
-147 -272 0
-147 -297 0
-147 -322 0
-147 -347 0
-147 -372 0
-147 -397 0
-147 -422 0
-147 -447 0
-147 -472 0
-147 -497 0
-147 -522 0
-147 -547 0
-147 -572 0
-147 -597 0
-147 -622 0
-172 -197 0
-172 -222 0
-172 -247 0
-172 -272 0
-172 -297 0
-172 -322 0
-172 -347 0
-172 -372 0
-172 -397 0
-172 -422 0
-172 -447 0
-172 -472 0
-172 -497 0
-172 -522 0
-172 -547 0
-172 -572 0
-172 -597 0
-172 -622 0
-197 -222 0
-197 -247 0
-197 -272 0
-197 -297 0
-197 -322 0
-197 -347 0
-197 -372 0
-197 -397 0
-197 -422 0
-197 -447 0
-197 -472 0
-197 -497 0
-197 -522 0
-197 -547 0
-197 -572 0
-197 -597 0
-197 -622 0
-222 -247 0
-222 -272 0
-222 -297 0
-222 -322 0
-222 -347 0
-222 -372 0
-222 -397 0
-222 -422 0
-222 -447 0
-222 -472 0
-222 -497 0
-222 -522 0
-222 -547 0
-222 -572 0
-222 -597 0
-222 -622 0
-247 -272 0
-247 -297 0
-247 -322 0
-247 -347 0
-247 -372 0
-247 -397 0
-247 -422 0
-247 -447 0
-247 -472 0
-247 -497 0
-247 -522 0
-247 -547 0
-247 -572 0
-247 -597 0
-247 -622 0
-272 -297 0
-272 -322 0
-272 -347 0
-272 -372 0
-272 -397 0
-272 -422 0
-272 -447 0
-272 -472 0
-272 -497 0
-272 -522 0
-272 -547 0
-272 -572 0
-272 -597 0
-272 -622 0
-297 -322 0
-297 -347 0
-297 -372 0
-297 -397 0
-297 -422 0
-297 -447 0
-297 -472 0
-297 -497 0
-297 -522 0
-297 -547 0
-297 -572 0
-297 -597 0
-297 -622 0
-322 -347 0
-322 -372 0
-322 -397 0
-322 -422 0
-322 -447 0
-322 -472 0
-322 -497 0
-322 -522 0
-322 -547 0
-322 -572 0
-322 -597 0
-322 -622 0
-347 -372 0
-347 -397 0
-347 -422 0
-347 -447 0
-347 -472 0
-347 -497 0
-347 -522 0
-347 -547 0
-347 -572 0
-347 -597 0
-347 -622 0
-372 -397 0
-372 -422 0
-372 -447 0
-372 -472 0
-372 -497 0
-372 -522 0
-372 -547 0
-372 -572 0
-372 -597 0
-372 -622 0
-397 -422 0
-397 -447 0
-397 -472 0
-397 -497 0
-397 -522 0
-397 -547 0
-397 -572 0
-397 -597 0
-397 -622 0
-422 -447 0
-422 -472 0
-422 -497 0
-422 -522 0
-422 -547 0
-422 -572 0
-422 -597 0
-422 -622 0
-447 -472 0
-447 -497 0
-447 -522 0
-447 -547 0
-447 -572 0
-447 -597 0
-447 -622 0
-472 -497 0
-472 -522 0
-472 -547 0
-472 -572 0
-472 -597 0
-472 -622 0
-497 -522 0
-497 -547 0
-497 -572 0
-497 -597 0
-497 -622 0
-522 -547 0
-522 -572 0
-522 -597 0
-522 -622 0
-547 -572 0
-547 -597 0
-547 -622 0
-572 -597 0
-572 -622 0
-597 -622 0
23 48 73 98 123 148 173 198 223 248 273 298 323 348 373 398 423 448 473 498 523 548 573 598 623 0
-23 -48 0
-23 -73 0
-23 -98 0
-23 -123 0
-23 -148 0
-23 -173 0
-23 -198 0
-23 -223 0
-23 -248 0
-23 -273 0
-23 -298 0
-23 -323 0
-23 -348 0
-23 -373 0
-23 -398 0
-23 -423 0
-23 -448 0
-23 -473 0
-23 -498 0
-23 -523 0
-23 -548 0
-23 -573 0
-23 -598 0
-23 -623 0
-48 -73 0
-48 -98 0
-48 -123 0
-48 -148 0
-48 -173 0
-48 -198 0
-48 -223 0
-48 -248 0
-48 -273 0
-48 -298 0
-48 -323 0
-48 -348 0
-48 -373 0
-48 -398 0
-48 -423 0
-48 -448 0
-48 -473 0
-48 -498 0
-48 -523 0
-48 -548 0
-48 -573 0
-48 -598 0
-48 -623 0
-73 -98 0
-73 -123 0
-73 -148 0
-73 -173 0
-73 -198 0
-73 -223 0
-73 -248 0
-73 -273 0
-73 -298 0
-73 -323 0
-73 -348 0
-73 -373 0
-73 -398 0
-73 -423 0
-73 -448 0
-73 -473 0
-73 -498 0
-73 -523 0
-73 -548 0
-73 -573 0
-73 -598 0
-73 -623 0
-98 -123 0
-98 -148 0
-98 -173 0
-98 -198 0
-98 -223 0
-98 -248 0
-98 -273 0
-98 -298 0
-98 -323 0
-98 -348 0
-98 -373 0
-98 -398 0
-98 -423 0
-98 -448 0
-98 -473 0
-98 -498 0
-98 -523 0
-98 -548 0
-98 -573 0
-98 -598 0
-98 -623 0
-123 -148 0
-123 -173 0
-123 -198 0
-123 -223 0
-123 -248 0
-123 -273 0
-123 -298 0
-123 -323 0
-123 -348 0
-123 -373 0
-123 -398 0
-123 -423 0
-123 -448 0
-123 -473 0
-123 -498 0
-123 -523 0
-123 -548 0
-123 -573 0
-123 -598 0
-123 -623 0
-148 -173 0
-148 -198 0
-148 -223 0
-148 -248 0
-148 -273 0
-148 -298 0
-148 -323 0
-148 -348 0
-148 -373 0
-148 -398 0
-148 -423 0
-148 -448 0
-148 -473 0
-148 -498 0
-148 -523 0
-148 -548 0
-148 -573 0
-148 -598 0
-148 -623 0
-173 -198 0
-173 -223 0
-173 -248 0
-173 -273 0
-173 -298 0
-173 -323 0
-173 -348 0
-173 -373 0
-173 -398 0
-173 -423 0
-173 -448 0
-173 -473 0
-173 -498 0
-173 -523 0
-173 -548 0
-173 -573 0
-173 -598 0
-173 -623 0
-198 -223 0
-198 -248 0
-198 -273 0
-198 -298 0
-198 -323 0
-198 -348 0
-198 -373 0
-198 -398 0
-198 -423 0
-198 -448 0
-198 -473 0
-198 -498 0
-198 -523 0
-198 -548 0
-198 -573 0
-198 -598 0
-198 -623 0
-223 -248 0
-223 -273 0
-223 -298 0
-223 -323 0
-223 -348 0
-223 -373 0
-223 -398 0
-223 -423 0
-223 -448 0
-223 -473 0
-223 -498 0
-223 -523 0
-223 -548 0
-223 -573 0
-223 -598 0
-223 -623 0
-248 -273 0
-248 -298 0
-248 -323 0
-248 -348 0
-248 -373 0
-248 -398 0
-248 -423 0
-248 -448 0
-248 -473 0
-248 -498 0
-248 -523 0
-248 -548 0
-248 -573 0
-248 -598 0
-248 -623 0
-273 -298 0
-273 -323 0
-273 -348 0
-273 -373 0
-273 -398 0
-273 -423 0
-273 -448 0
-273 -473 0
-273 -498 0
-273 -523 0
-273 -548 0
-273 -573 0
-273 -598 0
-273 -623 0
-298 -323 0
-298 -348 0
-298 -373 0
-298 -398 0
-298 -423 0
-298 -448 0
-298 -473 0
-298 -498 0
-298 -523 0
-298 -548 0
-298 -573 0
-298 -598 0
-298 -623 0
-323 -348 0
-323 -373 0
-323 -398 0
-323 -423 0
-323 -448 0
-323 -473 0
-323 -498 0
-323 -523 0
-323 -548 0
-323 -573 0
-323 -598 0
-323 -623 0
-348 -373 0
-348 -398 0
-348 -423 0
-348 -448 0
-348 -473 0
-348 -498 0
-348 -523 0
-348 -548 0
-348 -573 0
-348 -598 0
-348 -623 0
-373 -398 0
-373 -423 0
-373 -448 0
-373 -473 0
-373 -498 0
-373 -523 0
-373 -548 0
-373 -573 0
-373 -598 0
-373 -623 0
-398 -423 0
-398 -448 0
-398 -473 0
-398 -498 0
-398 -523 0
-398 -548 0
-398 -573 0
-398 -598 0
-398 -623 0
-423 -448 0
-423 -473 0
-423 -498 0
-423 -523 0
-423 -548 0
-423 -573 0
-423 -598 0
-423 -623 0
-448 -473 0
-448 -498 0
-448 -523 0
-448 -548 0
-448 -573 0
-448 -598 0
-448 -623 0
-473 -498 0
-473 -523 0
-473 -548 0
-473 -573 0
-473 -598 0
-473 -623 0
-498 -523 0
-498 -548 0
-498 -573 0
-498 -598 0
-498 -623 0
-523 -548 0
-523 -573 0
-523 -598 0
-523 -623 0
-548 -573 0
-548 -598 0
-548 -623 0
-573 -598 0
-573 -623 0
-598 -623 0
24 49 74 99 124 149 174 199 224 249 274 299 324 349 374 399 424 449 474 499 524 549 574 599 624 0
-24 -49 0
-24 -74 0
-24 -99 0
-24 -124 0
-24 -149 0
-24 -174 0
-24 -199 0
-24 -224 0
-24 -249 0
-24 -274 0
-24 -299 0
-24 -324 0
-24 -349 0
-24 -374 0
-24 -399 0
-24 -424 0
-24 -449 0
-24 -474 0
-24 -499 0
-24 -524 0
-24 -549 0
-24 -574 0
-24 -599 0
-24 -624 0
-49 -74 0
-49 -99 0
-49 -124 0
-49 -149 0
-49 -174 0
-49 -199 0
-49 -224 0
-49 -249 0
-49 -274 0
-49 -299 0
-49 -324 0
-49 -349 0
-49 -374 0
-49 -399 0
-49 -424 0
-49 -449 0
-49 -474 0
-49 -499 0
-49 -524 0
-49 -549 0
-49 -574 0
-49 -599 0
-49 -624 0
-74 -99 0
-74 -124 0
-74 -149 0
-74 -174 0
-74 -199 0
-74 -224 0
-74 -249 0
-74 -274 0
-74 -299 0
-74 -324 0
-74 -349 0
-74 -374 0
-74 -399 0
-74 -424 0
-74 -449 0
-74 -474 0
-74 -499 0
-74 -524 0
-74 -549 0
-74 -574 0
-74 -599 0
-74 -624 0
-99 -124 0
-99 -149 0
-99 -174 0
-99 -199 0
-99 -224 0
-99 -249 0
-99 -274 0
-99 -299 0
-99 -324 0
-99 -349 0
-99 -374 0
-99 -399 0
-99 -424 0
-99 -449 0
-99 -474 0
-99 -499 0
-99 -524 0
-99 -549 0
-99 -574 0
-99 -599 0
-99 -624 0
-124 -149 0
-124 -174 0
-124 -199 0
-124 -224 0
-124 -249 0
-124 -274 0
-124 -299 0
-124 -324 0
-124 -349 0
-124 -374 0
-124 -399 0
-124 -424 0
-124 -449 0
-124 -474 0
-124 -499 0
-124 -524 0
-124 -549 0
-124 -574 0
-124 -599 0
-124 -624 0
-149 -174 0
-149 -199 0
-149 -224 0
-149 -249 0
-149 -274 0
-149 -299 0
-149 -324 0
-149 -349 0
-149 -374 0
-149 -399 0
-149 -424 0
-149 -449 0
-149 -474 0
-149 -499 0
-149 -524 0
-149 -549 0
-149 -574 0
-149 -599 0
-149 -624 0
-174 -199 0
-174 -224 0
-174 -249 0
-174 -274 0
-174 -299 0
-174 -324 0
-174 -349 0
-174 -374 0
-174 -399 0
-174 -424 0
-174 -449 0
-174 -474 0
-174 -499 0
-174 -524 0
-174 -549 0
-174 -574 0
-174 -599 0
-174 -624 0
-199 -224 0
-199 -249 0
-199 -274 0
-199 -299 0
-199 -324 0
-199 -349 0
-199 -374 0
-199 -399 0
-199 -424 0
-199 -449 0
-199 -474 0
-199 -499 0
-199 -524 0
-199 -549 0
-199 -574 0
-199 -599 0
-199 -624 0
-224 -249 0
-224 -274 0
-224 -299 0
-224 -324 0
-224 -349 0
-224 -374 0
-224 -399 0
-224 -424 0
-224 -449 0
-224 -474 0
-224 -499 0
-224 -524 0
-224 -549 0
-224 -574 0
-224 -599 0
-224 -624 0
-249 -274 0
-249 -299 0
-249 -324 0
-249 -349 0
-249 -374 0
-249 -399 0
-249 -424 0
-249 -449 0
-249 -474 0
-249 -499 0
-249 -524 0
-249 -549 0
-249 -574 0
-249 -599 0
-249 -624 0
-274 -299 0
-274 -324 0
-274 -349 0
-274 -374 0
-274 -399 0
-274 -424 0
-274 -449 0
-274 -474 0
-274 -499 0
-274 -524 0
-274 -549 0
-274 -574 0
-274 -599 0
-274 -624 0
-299 -324 0
-299 -349 0
-299 -374 0
-299 -399 0
-299 -424 0
-299 -449 0
-299 -474 0
-299 -499 0
-299 -524 0
-299 -549 0
-299 -574 0
-299 -599 0
-299 -624 0
-324 -349 0
-324 -374 0
-324 -399 0
-324 -424 0
-324 -449 0
-324 -474 0
-324 -499 0
-324 -524 0
-324 -549 0
-324 -574 0
-324 -599 0
-324 -624 0
-349 -374 0
-349 -399 0
-349 -424 0
-349 -449 0
-349 -474 0
-349 -499 0
-349 -524 0
-349 -549 0
-349 -574 0
-349 -599 0
-349 -624 0
-374 -399 0
-374 -424 0
-374 -449 0
-374 -474 0
-374 -499 0
-374 -524 0
-374 -549 0
-374 -574 0
-374 -599 0
-374 -624 0
-399 -424 0
-399 -449 0
-399 -474 0
-399 -499 0
-399 -524 0
-399 -549 0
-399 -574 0
-399 -599 0
-399 -624 0
-424 -449 0
-424 -474 0
-424 -499 0
-424 -524 0
-424 -549 0
-424 -574 0
-424 -599 0
-424 -624 0
-449 -474 0
-449 -499 0
-449 -524 0
-449 -549 0
-449 -574 0
-449 -599 0
-449 -624 0
-474 -499 0
-474 -524 0
-474 -549 0
-474 -574 0
-474 -599 0
-474 -624 0
-499 -524 0
-499 -549 0
-499 -574 0
-499 -599 0
-499 -624 0
-524 -549 0
-524 -574 0
-524 -599 0
-524 -624 0
-549 -574 0
-549 -599 0
-549 -624 0
-574 -599 0
-574 -624 0
-599 -624 0
25 50 75 100 125 150 175 200 225 250 275 300 325 350 375 400 425 450 475 500 525 550 575 600 625 0
-25 -50 0
-25 -75 0
-25 -100 0
-25 -125 0
-25 -150 0
-25 -175 0
-25 -200 0
-25 -225 0
-25 -250 0
-25 -275 0
-25 -300 0
-25 -325 0
-25 -350 0
-25 -375 0
-25 -400 0
-25 -425 0
-25 -450 0
-25 -475 0
-25 -500 0
-25 -525 0
-25 -550 0
-25 -575 0
-25 -600 0
-25 -625 0
-50 -75 0
-50 -100 0
-50 -125 0
-50 -150 0
-50 -175 0
-50 -200 0
-50 -225 0
-50 -250 0
-50 -275 0
-50 -300 0
-50 -325 0
-50 -350 0
-50 -375 0
-50 -400 0
-50 -425 0
-50 -450 0
-50 -475 0
-50 -500 0
-50 -525 0
-50 -550 0
-50 -575 0
-50 -600 0
-50 -625 0
-75 -100 0
-75 -125 0
-75 -150 0
-75 -175 0
-75 -200 0
-75 -225 0
-75 -250 0
-75 -275 0
-75 -300 0
-75 -325 0
-75 -350 0
-75 -375 0
-75 -400 0
-75 -425 0
-75 -450 0
-75 -475 0
-75 -500 0
-75 -525 0
-75 -550 0
-75 -575 0
-75 -600 0
-75 -625 0
-100 -125 0
-100 -150 0
-100 -175 0
-100 -200 0
-100 -225 0
-100 -250 0
-100 -275 0
-100 -300 0
-100 -325 0
-100 -350 0
-100 -375 0
-100 -400 0
-100 -425 0
-100 -450 0
-100 -475 0
-100 -500 0
-100 -525 0
-100 -550 0
-100 -575 0
-100 -600 0
-100 -625 0
-125 -150 0
-125 -175 0
-125 -200 0
-125 -225 0
-125 -250 0
-125 -275 0
-125 -300 0
-125 -325 0
-125 -350 0
-125 -375 0
-125 -400 0
-125 -425 0
-125 -450 0
-125 -475 0
-125 -500 0
-125 -525 0
-125 -550 0
-125 -575 0
-125 -600 0
-125 -625 0
-150 -175 0
-150 -200 0
-150 -225 0
-150 -250 0
-150 -275 0
-150 -300 0
-150 -325 0
-150 -350 0
-150 -375 0
-150 -400 0
-150 -425 0
-150 -450 0
-150 -475 0
-150 -500 0
-150 -525 0
-150 -550 0
-150 -575 0
-150 -600 0
-150 -625 0
-175 -200 0
-175 -225 0
-175 -250 0
-175 -275 0
-175 -300 0
-175 -325 0
-175 -350 0
-175 -375 0
-175 -400 0
-175 -425 0
-175 -450 0
-175 -475 0
-175 -500 0
-175 -525 0
-175 -550 0
-175 -575 0
-175 -600 0
-175 -625 0
-200 -225 0
-200 -250 0
-200 -275 0
-200 -300 0
-200 -325 0
-200 -350 0
-200 -375 0
-200 -400 0
-200 -425 0
-200 -450 0
-200 -475 0
-200 -500 0
-200 -525 0
-200 -550 0
-200 -575 0
-200 -600 0
-200 -625 0
-225 -250 0
-225 -275 0
-225 -300 0
-225 -325 0
-225 -350 0
-225 -375 0
-225 -400 0
-225 -425 0
-225 -450 0
-225 -475 0
-225 -500 0
-225 -525 0
-225 -550 0
-225 -575 0
-225 -600 0
-225 -625 0
-250 -275 0
-250 -300 0
-250 -325 0
-250 -350 0
-250 -375 0
-250 -400 0
-250 -425 0
-250 -450 0
-250 -475 0
-250 -500 0
-250 -525 0
-250 -550 0
-250 -575 0
-250 -600 0
-250 -625 0
-275 -300 0
-275 -325 0
-275 -350 0
-275 -375 0
-275 -400 0
-275 -425 0
-275 -450 0
-275 -475 0
-275 -500 0
-275 -525 0
-275 -550 0
-275 -575 0
-275 -600 0
-275 -625 0
-300 -325 0
-300 -350 0
-300 -375 0
-300 -400 0
-300 -425 0
-300 -450 0
-300 -475 0
-300 -500 0
-300 -525 0
-300 -550 0
-300 -575 0
-300 -600 0
-300 -625 0
-325 -350 0
-325 -375 0
-325 -400 0
-325 -425 0
-325 -450 0
-325 -475 0
-325 -500 0
-325 -525 0
-325 -550 0
-325 -575 0
-325 -600 0
-325 -625 0
-350 -375 0
-350 -400 0
-350 -425 0
-350 -450 0
-350 -475 0
-350 -500 0
-350 -525 0
-350 -550 0
-350 -575 0
-350 -600 0
-350 -625 0
-375 -400 0
-375 -425 0
-375 -450 0
-375 -475 0
-375 -500 0
-375 -525 0
-375 -550 0
-375 -575 0
-375 -600 0
-375 -625 0
-400 -425 0
-400 -450 0
-400 -475 0
-400 -500 0
-400 -525 0
-400 -550 0
-400 -575 0
-400 -600 0
-400 -625 0
-425 -450 0
-425 -475 0
-425 -500 0
-425 -525 0
-425 -550 0
-425 -575 0
-425 -600 0
-425 -625 0
-450 -475 0
-450 -500 0
-450 -525 0
-450 -550 0
-450 -575 0
-450 -600 0
-450 -625 0
-475 -500 0
-475 -525 0
-475 -550 0
-475 -575 0
-475 -600 0
-475 -625 0
-500 -525 0
-500 -550 0
-500 -575 0
-500 -600 0
-500 -625 0
-525 -550 0
-525 -575 0
-525 -600 0
-525 -625 0
-550 -575 0
-550 -600 0
-550 -625 0
-575 -600 0
-575 -625 0
-600 -625 0
