c family: balanced planted random 3-SAT
c known_status: SAT
c difficulty_level: hard
c description: larger near-threshold SAT 3-CNF with hidden balanced assignment
c generated: deterministic complex CNF training pack
p cnf 260 1108
-229 233 254 0
-222 -224 227 0
-217 -234 -252 0
-216 221 247 0
-210 -239 240 0
-206 -212 237 0
-201 -210 230 0
-196 -199 251 0
-190 246 -258 0
-189 251 -253 0
-188 191 -217 0
-180 -220 -247 0
-177 -225 -226 0
-173 -227 -251 0
-173 -202 211 0
-168 -183 -227 0
-164 236 -260 0
-163 219 -229 0
-161 -190 195 0
-159 191 248 0
-157 163 228 0
-154 -162 -194 0
-153 159 -214 0
-153 200 -225 0
-152 229 259 0
-151 197 236 0
-150 -162 166 0
-147 -191 192 0
-147 156 226 0
-147 158 -239 0
-147 186 -259 0
-147 229 233 0
-145 -202 205 0
-145 176 -202 0
-143 214 -240 0
-142 -157 259 0
-141 -159 -160 0
-140 -218 -246 0
-139 141 -181 0
-138 -215 220 0
-138 146 -207 0
-138 196 -205 0
-138 209 -230 0
-137 -213 230 0
-137 -141 -225 0
-136 -169 233 0
-135 -147 223 0
-135 142 225 0
-132 -163 -239 0
-131 149 192 0
-131 169 -253 0
-130 171 224 0
-130 190 -259 0
-130 208 224 0
-129 -184 200 0
-129 135 -209 0
-128 -216 -222 0
-127 -189 249 0
-127 -129 176 0
-127 148 -206 0
-125 -126 184 0
-124 -129 -134 0
-124 -128 152 0
-123 -243 252 0
-123 -198 -226 0
-123 -193 -210 0
-122 216 243 0
-119 -188 -247 0
-119 183 223 0
-119 230 231 0
-118 -183 209 0
-118 -131 193 0
-118 207 -245 0
-117 137 213 0
-117 208 238 0
-116 165 255 0
-114 -148 154 0
-112 -185 -256 0
-112 178 -194 0
-111 -184 207 0
-111 141 -242 0
-108 -148 -196 0
-108 159 -181 0
-107 -170 224 0
-106 -200 227 0
-106 -157 -212 0
-105 133 210 0
-105 157 -202 0
-104 -153 -207 0
-104 -110 -203 0
-104 129 -161 0
-103 -170 185 0
-103 203 220 0
-102 -134 167 0
-100 -168 176 0
-100 190 -209 0
-99 -209 242 0
-99 -100 -235 0
-98 -170 -235 0
-98 -160 217 0
-97 -111 193 0
-97 116 -120 0
-97 117 -236 0
-97 123 128 0
-97 129 143 0
-96 -201 247 0
-96 -149 163 0
-96 158 -224 0
-95 100 -224 0
-95 129 179 0
-94 -129 210 0
-94 -104 -116 0
-94 130 -145 0
-93 -173 256 0
-93 -129 -208 0
-93 101 -128 0
-92 -166 254 0
-92 182 -239 0
-92 205 -222 0
-92 250 255 0
-91 159 208 0
-90 -155 250 0
-90 -149 178 0
-90 98 -144 0
-90 103 104 0
-90 121 -135 0
-89 -201 -251 0
-89 -176 180 0
-89 -152 194 0
-89 -120 171 0
-89 131 214 0
-88 -171 -253 0
-88 -95 -185 0
-87 -174 -181 0
-86 -157 -226 0
-85 -124 232 0
-85 -98 175 0
-85 -93 -225 0
-85 228 254 0
-84 -216 -254 0
-84 -102 -196 0
-84 92 217 0
-84 148 196 0
-83 -137 157 0
-83 -102 123 0
-83 -92 188 0
-83 -87 117 0
-83 139 254 0
-82 -160 -187 0
-82 -136 -154 0
-82 116 117 0
-82 120 -138 0
-82 126 -239 0
-82 212 248 0
-82 249 -250 0
-81 -124 126 0
-81 -84 -150 0
-81 113 122 0
-80 -228 257 0
-80 -148 247 0
-80 -98 239 0
-80 -82 -91 0
-80 202 -240 0
-80 230 -258 0
-79 -193 227 0
-79 -86 138 0
-79 -84 -227 0
-78 -189 -233 0
-78 -121 -124 0
-78 -116 237 0
-78 -110 -245 0
-78 136 -248 0
-77 95 192 0
-77 114 139 0
-77 173 212 0
-77 186 -229 0
-76 -93 243 0
-76 99 -188 0
-75 -158 214 0
-75 -106 132 0
-75 -80 162 0
-75 97 -139 0
-74 -230 247 0
-74 -225 252 0
-74 83 -136 0
-74 94 -148 0
-74 124 220 0
-73 -179 257 0
-73 -118 253 0
-73 -108 -121 0
-73 91 -222 0
-73 102 174 0
-72 -145 171 0
-72 85 134 0
-71 -99 212 0
-71 112 127 0
-70 -203 220 0
-70 -97 216 0
-70 101 -160 0
-70 181 -231 0
-69 -107 -180 0
-69 92 156 0
-69 104 164 0
-69 164 -194 0
-68 -121 170 0
-68 -92 161 0
-68 -82 185 0
-68 -81 -128 0
-68 78 226 0
-68 162 166 0
-67 -188 -250 0
-67 -108 132 0
-67 -81 138 0
-66 -216 221 0
-66 -123 -161 0
-66 -80 -158 0
-66 -76 185 0
-66 -72 -123 0
-66 102 125 0
-66 203 227 0
-65 -117 174 0
-65 -108 126 0
-65 -84 -87 0
-64 -107 254 0
-64 67 -121 0
-64 80 165 0
-63 -105 -106 0
-63 -83 260 0
-63 -71 -124 0
-62 -76 227 0
-62 63 92 0
-62 85 -169 0
-61 109 148 0
-61 121 -131 0
-61 121 157 0
-60 -86 243 0
-60 73 150 0
-60 88 -209 0
-59 -194 -228 0
-59 -144 258 0
-59 73 182 0
-59 94 -125 0
-59 124 160 0
-59 235 249 0
-58 -208 -256 0
-58 -188 -205 0
-58 -115 221 0
-58 -90 -138 0
-58 68 -73 0
-58 159 248 0
-57 -222 240 0
-57 -209 -243 0
-57 -172 205 0
-57 122 -183 0
-57 218 259 0
-56 -214 -257 0
-56 -115 145 0
-56 -73 -250 0
-56 -63 207 0
-56 61 -85 0
-56 144 -260 0
-55 -125 182 0
-55 -100 -110 0
-55 108 205 0
-55 123 -255 0
-54 -64 146 0
-54 112 186 0
-54 118 -154 0
-53 -217 -248 0
-53 -174 258 0
-53 -157 -172 0
-53 63 -123 0
-53 78 -180 0
-53 128 -174 0
-53 224 250 0
-52 128 232 0
-51 -132 -194 0
-51 -120 152 0
-51 -94 154 0
-51 -68 -214 0
-51 -64 107 0
-51 -62 -89 0
-51 110 -124 0
-50 54 150 0
-50 86 -227 0
-49 -191 207 0
-49 101 118 0
-49 157 -162 0
-48 105 -160 0
-48 129 -145 0
-47 -215 -239 0
-47 58 -110 0
-47 75 94 0
-47 131 246 0
-47 184 -208 0
-46 -125 204 0
-46 -120 170 0
-46 130 210 0
-45 -174 219 0
-45 -134 220 0
-45 -126 -202 0
-45 -46 119 0
-45 162 252 0
-45 203 -212 0
-44 -108 216 0
-44 -88 153 0
-44 -50 108 0
-44 -48 142 0
-44 81 -179 0
-44 99 -157 0
-44 157 200 0
-43 -125 -232 0
-43 48 -183 0
-43 59 152 0
-43 126 176 0
-42 -212 -225 0
-42 56 170 0
-42 82 -241 0
-42 144 -177 0
-41 -173 252 0
-41 -128 -193 0
-41 84 -121 0
-41 165 -230 0
-40 48 -204 0
-40 84 -180 0
-40 94 183 0
-40 113 226 0
-40 155 -167 0
-39 64 -137 0
-39 74 -259 0
-39 100 -182 0
-39 105 200 0
-39 137 -230 0
-38 41 86 0
-38 46 173 0
-38 93 173 0
-38 109 -154 0
-37 -119 -229 0
-37 -90 237 0
-37 -58 -156 0
-37 -38 180 0
-37 61 -172 0
-37 159 -165 0
-36 -218 -226 0
-36 -168 205 0
-36 -141 209 0
-36 61 107 0
-36 68 -81 0
-36 69 -181 0
-36 192 229 0
-35 -44 -251 0
-35 48 227 0
-35 72 -181 0
-35 102 163 0
-34 -203 -209 0
-34 -80 -170 0
-34 -70 95 0
-34 42 252 0
-34 146 -239 0
-33 -108 230 0
-33 49 -184 0
-33 70 -245 0
-33 91 101 0
-32 38 54 0
-32 46 206 0
-32 53 -61 0
-32 94 -127 0
-31 -69 205 0
-31 -32 -94 0
-31 33 116 0
-31 33 257 0
-31 46 -89 0
-30 -171 247 0
-30 -119 220 0
-30 -116 -166 0
-30 -91 -129 0
-30 138 -159 0
-30 156 252 0
-30 168 -202 0
-30 202 256 0
-29 -36 -50 0
-29 63 -145 0
-28 -182 -231 0
-28 -163 -238 0
-28 -123 171 0
-28 -116 -258 0
-28 -96 98 0
-28 -55 -168 0
-28 -45 91 0
-28 74 138 0
-28 179 254 0
-28 210 254 0
-27 -81 -164 0
-27 -65 -198 0
-27 -61 257 0
-27 -37 186 0
-27 102 -212 0
-27 128 -135 0
-27 155 211 0
-27 168 181 0
-26 -188 -256 0
-26 -171 -230 0
-26 -81 -135 0
-26 109 128 0
-26 141 195 0
-26 249 -257 0
-25 -195 252 0
-25 -125 -247 0
-25 -91 183 0
-25 -55 -260 0
-25 39 134 0
-25 42 151 0
-25 68 -103 0
-25 110 158 0
-25 165 -252 0
-24 -205 -241 0
-24 28 -124 0
-24 55 -160 0
-24 173 -205 0
-23 -237 -254 0
-23 -134 -253 0
-23 -102 115 0
-23 97 -165 0
-22 -122 -176 0
-22 -44 58 0
-22 -42 -224 0
-22 35 -163 0
-22 48 -99 0
-22 48 255 0
-22 73 -81 0
-22 140 -169 0
-21 -154 -176 0
-21 132 253 0
-20 -146 -167 0
-20 -28 246 0
-20 55 172 0
-20 209 -236 0
-20 227 -257 0
-19 -230 249 0
-19 -125 -222 0
-19 -119 -171 0
-19 34 88 0
-19 62 127 0
-19 123 -130 0
-18 -232 251 0
-18 -148 260 0
-18 -66 -218 0
-18 23 70 0
-18 129 186 0
-17 -45 179 0
-17 32 -178 0
-17 57 -200 0
-16 -156 183 0
-16 20 -226 0
-16 60 -136 0
-16 199 -249 0
-16 199 -207 0
-16 234 239 0
-15 -169 -228 0
-15 -137 -214 0
-15 -124 -182 0
-15 -97 -247 0
-15 28 -32 0
-15 54 56 0
-15 94 159 0
-15 151 163 0
-14 -134 -190 0
-14 -131 -171 0
-14 -114 -194 0
-14 -111 -185 0
-14 -99 235 0
-14 -63 -191 0
-14 -26 250 0
-13 -165 -253 0
-13 -154 -169 0
-13 -150 -210 0
-13 -147 260 0
-13 -73 211 0
-13 58 -131 0
-13 67 140 0
-12 -171 -220 0
-12 -165 181 0
-12 -124 233 0
-12 -123 224 0
-12 -105 -249 0
-12 -89 222 0
-12 29 -111 0
-12 100 130 0
-12 112 119 0
-12 168 -206 0
-11 -116 -192 0
-10 -201 240 0
-10 -177 -241 0
-10 -157 192 0
-10 -37 82 0
-10 32 52 0
-10 54 -207 0
-10 116 -147 0
-10 169 257 0
-9 -24 159 0
-9 46 139 0
-9 111 -236 0
-8 -199 -246 0
-8 -69 114 0
-8 45 135 0
-8 120 219 0
-8 126 -153 0
-7 -25 -139 0
-7 -22 127 0
-7 73 -210 0
-7 168 234 0
-7 200 -238 0
-6 -148 178 0
-6 41 -138 0
-5 -86 137 0
-5 -8 246 0
-5 29 163 0
-5 75 -243 0
-5 95 181 0
-5 139 197 0
-5 240 -258 0
-4 -172 -202 0
-4 -141 235 0
-4 -124 -241 0
-4 -115 -185 0
-4 -76 116 0
-4 -12 -246 0
-4 -7 40 0
-4 51 72 0
-4 76 164 0
-4 201 -244 0
-3 -151 235 0
-3 -109 126 0
-3 -103 -132 0
-3 42 -156 0
-3 73 -105 0
-3 116 154 0
-2 -146 230 0
-2 -135 -177 0
-2 -130 -176 0
-2 -50 -229 0
-2 -42 229 0
-2 -39 81 0
-2 7 -202 0
-2 16 136 0
-2 17 -219 0
-2 104 -147 0
-2 172 214 0
-1 -236 258 0
-1 -160 203 0
-1 -127 -161 0
-1 -62 -249 0
-1 20 109 0
-1 42 -140 0
-1 68 -202 0
-1 80 -113 0
1 -143 175 0
1 -19 201 0
1 -18 32 0
1 12 218 0
1 77 203 0
2 -136 205 0
2 -75 -112 0
2 -68 208 0
2 -42 60 0
2 -10 233 0
2 33 113 0
2 228 257 0
3 -83 186 0
3 -55 128 0
3 28 -226 0
3 64 202 0
3 80 -256 0
4 -134 -230 0
4 -77 246 0
4 -53 65 0
4 -52 252 0
4 -11 -39 0
4 10 247 0
4 23 -161 0
4 24 202 0
4 180 -199 0
5 -114 164 0
5 -108 -236 0
5 39 237 0
5 40 -114 0
6 -246 260 0
6 -143 192 0
6 -104 -223 0
6 -34 65 0
6 33 -163 0
6 54 -222 0
6 106 -126 0
6 245 259 0
7 -109 -164 0
7 -98 -180 0
7 57 -224 0
7 154 250 0
7 175 -216 0
7 219 257 0
8 -159 -163 0
8 -158 -252 0
8 -97 220 0
8 -60 -107 0
8 -26 179 0
8 82 215 0
8 143 237 0
9 -259 -260 0
9 -155 -190 0
9 -82 161 0
9 49 61 0
9 86 135 0
9 96 156 0
9 111 -138 0
9 136 -169 0
9 188 253 0
9 236 246 0
10 -113 -123 0
10 -64 -213 0
10 -27 -87 0
10 22 -202 0
10 162 -232 0
11 -160 161 0
11 -156 -158 0
11 -73 214 0
11 -61 111 0
11 -60 233 0
11 21 -51 0
11 104 145 0
12 -71 -76 0
12 -47 -132 0
12 23 187 0
12 53 -204 0
13 -237 255 0
13 -124 -223 0
13 -105 150 0
13 -69 -178 0
13 -16 -203 0
13 65 140 0
13 79 178 0
13 94 252 0
13 117 129 0
13 182 214 0
14 -92 -96 0
14 -69 -203 0
14 26 -117 0
14 51 184 0
14 77 -259 0
14 123 -215 0
14 133 -259 0
15 -40 -135 0
15 64 211 0
15 90 120 0
15 103 171 0
16 -210 -227 0
16 -147 -179 0
16 21 30 0
16 28 -45 0
16 31 -104 0
16 88 -117 0
16 105 -187 0
16 159 247 0
16 219 232 0
17 -157 -174 0
17 -91 -259 0
17 -40 -197 0
17 44 -106 0
17 79 219 0
17 108 -235 0
18 -165 241 0
18 -130 -166 0
18 -91 198 0
18 40 68 0
18 77 -211 0
19 -128 222 0
19 -69 203 0
19 -46 -239 0
19 77 -152 0
19 107 -133 0
19 125 234 0
19 146 -213 0
19 169 -254 0
20 -89 110 0
20 36 -236 0
20 142 -200 0
21 -93 246 0
21 136 161 0
22 -199 259 0
22 -107 -136 0
22 -87 187 0
22 -75 97 0
22 -68 -137 0
22 -31 117 0
22 -30 218 0
22 58 -207 0
22 93 -210 0
23 41 -138 0
23 48 142 0
23 63 -171 0
23 131 -238 0
23 145 215 0
23 175 -227 0
24 -124 -237 0
24 -123 260 0
24 33 -117 0
24 35 245 0
24 95 203 0
24 101 167 0
24 182 234 0
25 -183 -201 0
25 -149 -218 0
25 -82 135 0
25 -55 176 0
25 -51 207 0
25 43 237 0
25 71 -207 0
25 144 -204 0
26 -150 -173 0
26 -132 -196 0
26 -64 -238 0
26 32 142 0
26 147 -194 0
27 -153 239 0
27 -99 115 0
27 67 -214 0
27 86 -102 0
27 92 -159 0
28 -174 177 0
28 -171 -210 0
28 -75 -235 0
28 77 133 0
28 166 209 0
29 -71 247 0
29 -47 -245 0
30 -109 -211 0
30 -34 99 0
30 31 -198 0
30 46 -191 0
30 47 229 0
30 65 239 0
30 78 93 0
30 130 -190 0
30 185 225 0
31 -221 -247 0
31 -152 -238 0
31 -146 164 0
31 -98 -179 0
31 -49 -81 0
31 -45 -70 0
31 -43 -131 0
31 -42 46 0
31 104 -134 0
32 -150 228 0
32 -138 238 0
32 -96 -256 0
32 -45 -54 0
32 154 -244 0
33 -205 218 0
33 -41 232 0
33 44 180 0
33 52 178 0
33 85 124 0
33 93 -113 0
33 108 -135 0
33 192 222 0
34 -69 152 0
34 45 118 0
35 -141 148 0
36 -177 244 0
36 -175 221 0
36 -140 233 0
36 -101 230 0
36 -51 -61 0
36 69 -191 0
36 132 -194 0
37 -197 -230 0
37 -92 -103 0
37 -87 -176 0
37 83 234 0
38 -191 250 0
38 -170 -232 0
38 -40 87 0
39 -104 157 0
39 -73 -144 0
39 -44 -57 0
39 40 145 0
39 42 -45 0
39 46 -147 0
40 -42 -151 0
40 95 -154 0
41 -247 -248 0
41 -159 -187 0
41 -77 217 0
42 -171 224 0
42 -155 -216 0
42 -133 -260 0
42 -85 -246 0
42 -74 -218 0
42 -68 148 0
42 -52 238 0
42 94 108 0
42 95 250 0
42 111 115 0
42 143 -221 0
43 -50 -71 0
43 91 124 0
43 95 155 0
43 111 123 0
44 -214 246 0
44 -159 204 0
44 -85 -149 0
44 48 235 0
44 73 94 0
45 80 -100 0
46 -191 213 0
46 -96 -102 0
46 55 -222 0
47 -111 173 0
47 59 -65 0
47 72 -160 0
47 77 -78 0
47 239 259 0
48 -219 -257 0
48 -88 -257 0
48 65 99 0
48 69 -230 0
48 149 255 0
49 -148 195 0
49 -88 171 0
49 -56 -169 0
49 111 -161 0
50 -109 -240 0
51 92 251 0
52 -207 218 0
52 87 -176 0
52 98 -184 0
52 144 -255 0
52 173 185 0
53 -166 -206 0
53 -100 -154 0
53 65 -181 0
53 107 -194 0
53 140 -215 0
53 155 -206 0
53 175 178 0
54 -218 -256 0
54 -190 216 0
54 -78 233 0
54 117 165 0
54 136 145 0
54 158 -170 0
54 184 246 0
55 -136 -251 0
55 -105 254 0
55 -77 -165 0
55 -73 150 0
55 109 219 0
56 -172 238 0
56 -75 -219 0
58 202 250 0
59 -116 221 0
59 -79 233 0
59 -78 236 0
59 60 135 0
59 106 260 0
59 153 -165 0
59 212 232 0
60 -181 -214 0
60 179 -211 0
60 182 -190 0
61 -82 149 0
61 205 -240 0
62 -94 -167 0
62 -85 247 0
62 -70 -128 0
63 235 -260 0
64 -226 260 0
64 -178 201 0
64 -136 191 0
64 77 218 0
65 -82 -112 0
65 182 240 0
66 -103 -178 0
66 116 120 0
66 122 156 0
66 145 -204 0
67 -171 212 0
67 -145 249 0
67 70 234 0
68 -149 161 0
68 79 -181 0
68 95 -109 0
68 188 231 0
69 -162 215 0
69 -119 130 0
69 -92 -99 0
69 -78 135 0
69 -70 103 0
69 -70 230 0
70 -121 155 0
70 213 221 0
71 122 -172 0
72 -139 213 0
72 130 -195 0
73 -126 231 0
73 -104 -208 0
73 80 171 0
74 160 -187 0
74 185 240 0
75 106 -130 0
76 114 -179 0
76 157 -247 0
77 -212 -229 0
77 -121 221 0
77 89 -115 0
77 97 -152 0
78 -111 182 0
78 99 185 0
78 106 -164 0
78 192 246 0
79 -221 253 0
79 -112 -132 0
79 81 259 0
80 -131 -191 0
80 125 -205 0
81 -232 241 0
81 -211 218 0
81 -155 -196 0
82 -127 -229 0
82 -87 173 0
82 120 -234 0
82 166 209 0
83 -149 -153 0
83 -89 -110 0
83 114 -233 0
83 167 -193 0
84 -212 216 0
84 -158 -162 0
84 107 -202 0
84 143 165 0
85 96 -192 0
86 -225 238 0
86 105 -213 0
86 118 144 0
86 175 257 0
87 98 -196 0
87 161 214 0
87 187 204 0
89 -107 -184 0
89 162 -218 0
89 180 -222 0
90 -113 132 0
90 136 -241 0
90 150 185 0
91 -160 -214 0
91 112 -163 0
91 208 220 0
92 172 206 0
93 -180 210 0
93 -123 190 0
93 -109 141 0
93 121 149 0
94 -101 222 0
94 118 260 0
94 151 169 0
94 202 242 0
94 240 252 0
95 -114 -202 0
95 -103 209 0
95 -96 -163 0
97 -200 -259 0
97 -138 166 0
97 -99 -226 0
97 156 -181 0
97 166 199 0
98 -243 256 0
98 118 148 0
99 -180 -257 0
99 -159 185 0
99 144 249 0
99 217 246 0
100 -107 247 0
101 166 -228 0
101 195 227 0
101 222 -230 0
102 -198 250 0
102 140 184 0
103 -154 173 0
103 184 -196 0
105 -142 181 0
105 125 -136 0
106 -109 215 0
107 -246 -254 0
107 -143 233 0
107 201 250 0
107 217 232 0
108 -151 -211 0
108 158 203 0
109 125 140 0
109 184 -246 0
110 -166 -255 0
110 -132 -174 0
110 -119 193 0
110 -119 224 0
111 -126 -161 0
111 232 251 0
112 130 -172 0
113 -181 -208 0
113 241 246 0
114 -134 256 0
115 -129 -183 0
115 235 -255 0
116 -232 254 0
116 -167 -180 0
116 132 156 0
117 -123 -168 0
117 -118 169 0
117 133 -178 0
117 142 -207 0
117 212 -220 0
118 -126 246 0
118 -124 -152 0
118 167 238 0
119 213 230 0
120 -164 -165 0
120 151 155 0
120 199 -232 0
121 -217 240 0
121 122 -201 0
121 178 222 0
121 253 -260 0
122 -149 170 0
123 -140 -144 0
124 158 201 0
124 202 245 0
125 -176 -204 0
125 -141 -163 0
126 -155 185 0
127 -143 196 0
128 -187 -200 0
129 -163 207 0
129 164 208 0
131 -249 257 0
131 -175 -232 0
132 -203 215 0
133 -224 231 0
135 169 -189 0
136 -241 247 0
139 184 -250 0
140 -162 175 0
140 -146 200 0
141 147 170 0
141 226 -230 0
142 -183 254 0
146 -174 -187 0
146 -160 164 0
147 -150 -172 0
147 158 -245 0
147 160 -162 0
149 -166 -208 0
150 -214 234 0
150 -153 -155 0
151 -202 -229 0
152 -171 -220 0
152 174 -177 0
154 181 -216 0
156 -211 258 0
157 -182 209 0
157 186 257 0
159 174 236 0
160 -195 -249 0
161 180 -193 0
162 -204 231 0
162 -183 -220 0
163 -166 -175 0
164 -236 -248 0
164 -219 -223 0
165 -180 258 0
165 173 -195 0
166 219 -254 0
168 -190 -207 0
168 -185 244 0
168 192 222 0
169 177 -252 0
169 187 -200 0
169 191 243 0
170 -178 -204 0
171 173 -197 0
173 194 217 0
177 186 232 0
181 208 -260 0
186 -235 257 0
190 -216 230 0
190 -204 -237 0
196 -221 242 0
198 -215 -242 0
198 224 -229 0
203 -219 227 0
203 -211 -252 0
207 -244 -259 0
210 -218 -245 0
212 228 245 0
216 -224 -260 0
223 255 -260 0
225 233 236 0
227 -234 -238 0
234 -238 -249 0
241 247 -249 0
