c family: balanced planted random 3-SAT
c known_status: SAT
c difficulty_level: hard
c description: larger near-threshold SAT 3-CNF with hidden balanced assignment
c generated: deterministic complex CNF training pack
p cnf 400 1704
-367 -375 -394 0
-358 363 367 0
-355 -362 388 0
-323 -358 360 0
-323 -328 -369 0
-321 -346 -368 0
-315 349 -400 0
-314 -329 364 0
-310 -370 -398 0
-309 381 391 0
-307 -329 -354 0
-302 -329 369 0
-302 -311 -346 0
-301 363 388 0
-300 -361 -385 0
-296 306 -334 0
-286 307 -374 0
-283 302 359 0
-283 321 -336 0
-282 362 -388 0
-281 -288 368 0
-281 301 395 0
-281 377 398 0
-279 280 307 0
-278 -299 -400 0
-270 376 -378 0
-269 -329 350 0
-267 -377 400 0
-265 -285 -376 0
-265 287 -362 0
-264 -337 -392 0
-264 -269 -290 0
-263 320 343 0
-261 -299 -365 0
-261 282 329 0
-261 328 353 0
-260 313 368 0
-259 -370 400 0
-258 -360 -391 0
-258 -301 389 0
-258 275 300 0
-257 284 303 0
-255 258 335 0
-255 303 -359 0
-254 -336 -393 0
-254 -284 -302 0
-253 303 -318 0
-251 -361 374 0
-250 -356 -368 0
-250 276 -344 0
-248 -325 377 0
-248 -271 296 0
-245 -246 -329 0
-244 -314 -398 0
-243 -322 -352 0
-242 -333 -365 0
-242 253 382 0
-241 -361 367 0
-241 303 378 0
-235 303 -309 0
-233 -245 249 0
-232 241 380 0
-231 -333 -347 0
-231 -258 -342 0
-231 237 -359 0
-230 -326 397 0
-228 -267 -380 0
-227 -308 -321 0
-226 256 391 0
-225 291 -343 0
-223 -321 -400 0
-223 -286 -321 0
-223 -250 351 0
-222 -254 -367 0
-221 235 319 0
-220 -267 363 0
-220 -225 266 0
-220 277 -279 0
-218 275 -354 0
-218 297 324 0
-217 -252 270 0
-217 244 -252 0
-217 254 -361 0
-215 -380 400 0
-214 321 360 0
-213 -325 -337 0
-213 -313 358 0
-213 -276 -296 0
-213 270 -276 0
-212 276 -355 0
-211 -256 264 0
-209 259 289 0
-209 274 301 0
-208 -291 -390 0
-205 -260 -279 0
-204 -251 399 0
-204 250 -344 0
-204 267 -362 0
-204 289 -324 0
-203 -250 -338 0
-203 313 369 0
-202 -211 -238 0
-201 -256 -344 0
-201 -252 385 0
-200 -312 -353 0
-200 -301 315 0
-200 -245 -256 0
-200 209 -250 0
-200 316 379 0
-198 -227 247 0
-195 -232 377 0
-195 219 -303 0
-195 320 -324 0
-194 255 -269 0
-194 262 -334 0
-193 -305 -338 0
-192 223 -295 0
-191 -271 -275 0
-190 -307 388 0
-190 -212 -255 0
-189 279 -346 0
-188 -398 -399 0
-188 -245 -307 0
-187 -201 229 0
-186 -268 -275 0
-186 235 264 0
-186 265 281 0
-185 -392 393 0
-183 -234 278 0
-183 -223 311 0
-183 -186 -322 0
-182 218 -232 0
-182 323 341 0
-180 -279 284 0
-180 236 -254 0
-179 244 -258 0
-179 249 -254 0
-178 -228 314 0
-178 -197 -379 0
-178 246 318 0
-177 -323 -342 0
-177 -238 294 0
-177 208 -219 0
-177 355 -373 0
-176 -342 361 0
-176 180 -372 0
-176 280 351 0
-175 304 372 0
-174 -271 272 0
-174 -262 -287 0
-174 259 -319 0
-173 -231 256 0
-172 173 -233 0
-172 255 259 0
-171 -181 -397 0
-171 203 211 0
-171 241 346 0
-170 -255 342 0
-170 -199 -226 0
-169 -328 -381 0
-168 -198 -271 0
-168 171 337 0
-167 -309 349 0
-167 223 -377 0
-167 271 -288 0
-166 -167 239 0
-165 -327 361 0
-164 182 -299 0
-164 211 381 0
-164 300 -355 0
-164 385 394 0
-162 -303 313 0
-162 192 -277 0
-161 -237 278 0
-161 307 -322 0
-160 -267 337 0
-160 -247 -311 0
-160 247 -379 0
-160 248 -369 0
-159 194 327 0
-158 -309 -347 0
-158 202 386 0
-157 -178 322 0
-156 -263 -313 0
-156 -191 230 0
-156 159 350 0
-155 -237 -266 0
-155 -231 -389 0
-155 -218 243 0
-155 -212 303 0
-155 173 381 0
-155 213 -235 0
-154 -194 397 0
-154 281 -310 0
-152 249 -314 0
-151 -268 -395 0
-151 -176 250 0
-151 -152 -177 0
-150 -223 -373 0
-150 -168 273 0
-150 -157 -323 0
-150 196 392 0
-150 247 366 0
-149 -170 295 0
-149 196 310 0
-149 201 -206 0
-148 -262 361 0
-148 287 -293 0
-147 -318 334 0
-147 -179 249 0
-147 215 351 0
-146 -285 -298 0
-146 -171 175 0
-145 -235 292 0
-145 199 318 0
-145 224 240 0
-144 -149 383 0
-143 -344 396 0
-143 -163 175 0
-143 205 -257 0
-143 239 -278 0
-143 252 -390 0
-143 272 362 0
-142 208 280 0
-142 233 -311 0
-141 -294 -321 0
-141 -272 -367 0
-140 -315 316 0
-140 -254 298 0
-140 -208 -215 0
-140 -177 -327 0
-139 -242 -265 0
-139 -203 302 0
-139 -152 245 0
-138 -139 366 0
-138 263 -359 0
-137 -285 -329 0
-137 -222 294 0
-137 -172 206 0
-137 148 -301 0
-136 -216 -358 0
-136 -154 190 0
-136 161 399 0
-136 182 -293 0
-136 278 393 0
-135 173 389 0
-134 -339 394 0
-133 -209 288 0
-133 -153 -293 0
-132 -217 298 0
-132 -134 -386 0
-132 219 246 0
-131 210 375 0
-131 267 328 0
-130 379 396 0
-129 -247 -397 0
-129 143 -339 0
-129 234 -392 0
-128 -195 -249 0
-128 138 -361 0
-128 149 -386 0
-128 166 -324 0
-128 218 387 0
-127 163 309 0
-126 -195 -375 0
-126 176 -278 0
-126 194 -199 0
-125 -161 -356 0
-125 240 350 0
-124 -206 -254 0
-124 -188 -365 0
-123 132 -146 0
-123 188 -252 0
-123 214 -230 0
-123 324 -358 0
-122 210 -213 0
-120 -255 313 0
-119 -301 351 0
-119 -175 324 0
-119 -124 282 0
-119 217 310 0
-119 229 320 0
-119 257 -347 0
-119 288 338 0
-119 348 360 0
-118 -135 160 0
-117 -356 382 0
-117 140 395 0
-117 146 333 0
-117 211 226 0
-117 226 -290 0
-116 170 174 0
-116 186 -194 0
-116 297 -321 0
-116 312 -340 0
-116 375 -395 0
-115 -220 -231 0
-114 -240 -303 0
-114 -145 276 0
-114 352 -373 0
-113 -292 -323 0
-113 -290 -346 0
-113 -230 -351 0
-113 122 299 0
-113 185 197 0
-113 219 -295 0
-113 335 357 0
-112 247 -318 0
-112 374 -378 0
-111 -184 188 0
-111 112 -300 0
-111 124 -257 0
-111 128 -344 0
-111 332 396 0
-110 -138 296 0
-110 131 283 0
-110 303 -376 0
-109 -121 -344 0
-109 134 260 0
-109 157 359 0
-109 260 379 0
-108 -160 268 0
-108 229 -283 0
-108 307 -359 0
-108 332 365 0
-108 355 385 0
-107 125 -304 0
-107 192 285 0
-107 205 -243 0
-106 -138 -153 0
-106 139 -328 0
-106 263 352 0
-105 -260 -323 0
-105 -223 -224 0
-105 -138 -318 0
-105 -125 324 0
-105 -123 129 0
-105 112 202 0
-105 245 -315 0
-103 -167 286 0
-102 -148 -232 0
-102 271 -337 0
-101 -294 -388 0
-101 198 -386 0
-100 -297 355 0
-100 -266 -353 0
-100 -126 -391 0
-100 132 -134 0
-100 177 -273 0
-99 -239 325 0
-99 -231 -367 0
-99 -105 302 0
-99 291 379 0
-98 -221 390 0
-98 159 323 0
-98 189 -225 0
-97 -111 -299 0
-97 173 -396 0
-96 -219 302 0
-95 -265 284 0
-95 117 -209 0
-95 126 281 0
-94 -245 356 0
-94 159 -187 0
-93 -272 348 0
-93 -246 255 0
-93 -106 -261 0
-93 136 215 0
-93 203 -214 0
-92 -232 -398 0
-92 -170 -266 0
-92 -159 -239 0
-92 114 -294 0
-92 160 337 0
-91 -355 387 0
-91 -267 -282 0
-91 -154 -386 0
-91 143 221 0
-91 179 207 0
-89 -320 336 0
-89 -105 136 0
-89 165 293 0
-89 188 -375 0
-89 206 229 0
-89 245 -316 0
-89 364 373 0
-88 -317 356 0
-88 -148 -268 0
-87 -130 -249 0
-87 159 346 0
-86 -244 342 0
-86 -183 383 0
-86 -142 215 0
-86 161 -326 0
-86 293 349 0
-85 -195 324 0
-85 -114 -379 0
-85 175 320 0
-84 -174 -280 0
-83 -159 -382 0
-83 114 -184 0
-83 158 -230 0
-83 192 -326 0
-82 -144 159 0
-82 129 -400 0
-81 -245 -308 0
-81 -244 -336 0
-81 -113 -279 0
-81 95 157 0
-81 129 -378 0
-81 309 -318 0
-80 -306 -308 0
-80 84 -140 0
-80 109 -180 0
-80 145 275 0
-80 296 -365 0
-79 -324 340 0
-79 -94 349 0
-79 -81 364 0
-79 160 -348 0
-78 -203 -300 0
-78 350 -392 0
-77 -276 -292 0
-77 -215 -357 0
-77 -206 -305 0
-77 -206 226 0
-77 90 -309 0
-77 104 -390 0
-77 162 -252 0
-77 233 -253 0
-76 -105 294 0
-75 -361 -365 0
-75 -255 -399 0
-75 -165 359 0
-75 120 -399 0
-75 168 223 0
-75 316 -389 0
-75 360 369 0
-74 89 307 0
-74 179 209 0
-74 244 -382 0
-73 -222 369 0
-73 -91 178 0
-73 198 227 0
-73 369 378 0
-72 -260 325 0
-72 82 -355 0
-71 -356 -382 0
-71 -113 -170 0
-71 79 -104 0
-71 93 99 0
-71 159 237 0
-71 241 264 0
-70 -110 -285 0
-70 -102 158 0
-70 -94 322 0
-70 -80 229 0
-70 -71 -328 0
-70 116 279 0
-70 179 -281 0
-69 -340 378 0
-69 -336 352 0
-69 -270 -330 0
-69 -208 248 0
-69 -101 204 0
-69 -94 -165 0
-68 -138 -298 0
-68 -117 -201 0
-68 -112 -280 0
-68 108 274 0
-68 261 -363 0
-67 -85 100 0
-67 -76 262 0
-67 202 -290 0
-67 258 -325 0
-66 -268 301 0
-66 -183 232 0
-66 -102 -222 0
-66 230 373 0
-65 -317 348 0
-65 79 92 0
-65 132 288 0
-65 143 -323 0
-65 210 238 0
-65 297 300 0
-64 -173 335 0
-64 108 -198 0
-64 260 -273 0
-63 -251 -312 0
-63 -154 345 0
-63 -117 184 0
-63 -100 -348 0
-63 -64 318 0
-62 -337 385 0
-62 -137 143 0
-62 99 -375 0
-62 118 -200 0
-62 134 231 0
-62 241 332 0
-61 -248 -367 0
-61 -184 286 0
-61 -163 188 0
-61 293 386 0
-60 -310 332 0
-60 -224 -392 0
-60 -207 -346 0
-60 -206 365 0
-60 -112 289 0
-60 -64 103 0
-60 -63 -397 0
-60 90 151 0
-60 108 260 0
-60 192 -327 0
-60 203 -341 0
-59 -143 232 0
-59 -92 397 0
-59 189 -364 0
-58 -216 347 0
-58 -123 310 0
-58 -112 -246 0
-58 150 -222 0
-58 205 234 0
-58 230 -362 0
-57 79 82 0
-57 91 -268 0
-57 209 -387 0
-57 246 373 0
-57 256 386 0
-57 311 349 0
-56 -253 396 0
-56 -188 243 0
-56 -103 -390 0
-56 -100 379 0
-56 116 -394 0
-56 164 -331 0
-56 208 -400 0
-56 331 364 0
-55 -268 395 0
-55 -172 326 0
-55 -97 203 0
-54 -214 220 0
-54 -214 340 0
-54 94 137 0
-54 193 -318 0
-54 236 253 0
-54 316 348 0
-53 -340 379 0
-53 -184 296 0
-53 -122 -279 0
-53 -110 -140 0
-53 73 356 0
-53 173 332 0
-53 277 334 0
-52 -166 -246 0
-52 -90 -167 0
-52 -79 310 0
-52 60 305 0
-52 80 -135 0
-52 111 294 0
-52 132 -272 0
-52 153 -213 0
-52 240 270 0
-51 -298 -371 0
-51 -139 145 0
-51 131 200 0
-51 155 -315 0
-51 219 -277 0
-50 -374 394 0
-50 -110 287 0
-50 -104 222 0
-50 51 -173 0
-50 60 180 0
-50 107 -151 0
-50 148 310 0
-50 196 386 0
-50 246 -400 0
-50 321 357 0
-49 -79 161 0
-49 128 317 0
-49 129 -294 0
-48 155 -331 0
-48 218 -261 0
-48 222 343 0
-48 298 -394 0
-48 352 398 0
-47 379 392 0
-46 -138 259 0
-46 -112 -262 0
-46 -106 -300 0
-46 261 -315 0
-46 273 331 0
-45 -268 292 0
-45 -77 -129 0
-44 -210 377 0
-44 -78 -81 0
-44 -77 331 0
-44 204 368 0
-43 -305 387 0
-43 -123 -144 0
-43 -44 -310 0
-43 64 -297 0
-43 84 -328 0
-43 189 244 0
-43 189 350 0
-42 -238 340 0
-42 -136 225 0
-42 -61 -182 0
-42 94 253 0
-42 102 342 0
-42 127 -241 0
-42 151 -361 0
-42 159 -208 0
-41 -363 -395 0
-41 -90 206 0
-41 -88 268 0
-41 191 -394 0
-41 321 -383 0
-40 -182 351 0
-40 -104 -388 0
-40 -76 282 0
-40 -55 365 0
-40 243 346 0
-40 384 387 0
-39 -294 -366 0
-39 -262 300 0
-39 -256 310 0
-39 -120 -263 0
-39 -106 241 0
-39 47 -378 0
-39 168 188 0
-38 -204 312 0
-38 -182 -254 0
-38 -140 217 0
-38 -109 126 0
-37 -160 -362 0
-37 91 119 0
-37 97 204 0
-37 124 299 0
-37 156 -306 0
-37 258 -379 0
-37 349 -398 0
-36 -229 -362 0
-36 86 146 0
-36 97 164 0
-36 119 147 0
-36 218 339 0
-36 252 -368 0
-36 252 379 0
-35 -209 -392 0
-35 -161 292 0
-35 -69 -143 0
-35 -57 339 0
-35 60 -384 0
-35 226 -234 0
-34 81 231 0
-34 92 198 0
-34 198 -329 0
-33 -253 -389 0
-33 -144 313 0
-33 -110 -226 0
-33 -41 -297 0
-33 43 104 0
-33 48 -176 0
-33 58 324 0
-33 141 311 0
-33 144 -149 0
-33 145 -383 0
-33 176 225 0
-33 250 -298 0
-32 -272 -296 0
-32 -261 -283 0
-32 -191 393 0
-32 -54 350 0
-32 74 -321 0
-32 256 265 0
-31 -233 -395 0
-31 -190 315 0
-31 -92 -199 0
-31 -47 251 0
-31 91 165 0
-31 171 352 0
-31 339 -383 0
-30 -247 -323 0
-30 -222 -364 0
-30 -153 -265 0
-30 98 -203 0
-30 135 207 0
-30 311 339 0
-29 -153 -316 0
-29 -84 200 0
-29 40 -372 0
-29 284 -303 0
-28 -319 -389 0
-28 -318 -380 0
-28 -130 -314 0
-28 -101 183 0
-28 52 -244 0
-28 71 337 0
-28 161 222 0
-28 242 270 0
-27 -182 -190 0
-27 -94 129 0
-27 54 -109 0
-27 116 -287 0
-27 222 -356 0
-27 358 -366 0
-26 -72 374 0
-26 -54 -272 0
-26 50 213 0
-26 77 -210 0
-26 121 229 0
-26 153 -218 0
-25 -115 -263 0
-25 -84 101 0
-25 99 313 0
-25 164 173 0
-24 26 -241 0
-24 37 -38 0
-24 40 -275 0
-24 53 300 0
-24 107 -190 0
-24 177 244 0
-23 81 -156 0
-23 84 -167 0
-23 111 254 0
-23 167 344 0
-23 232 235 0
-23 244 268 0
-22 -294 361 0
-22 -254 399 0
-22 -43 -77 0
-22 80 236 0
-22 134 -348 0
-21 105 -247 0
-20 -86 296 0
-20 138 -189 0
-20 152 -393 0
-20 164 400 0
-20 312 -382 0
-19 -372 -378 0
-19 -77 286 0
-19 -32 -87 0
-19 62 -94 0
-19 147 -175 0
-19 171 -294 0
-19 201 382 0
-18 -67 231 0
-18 -45 328 0
-18 105 -244 0
-18 121 247 0
-18 168 -182 0
-18 272 298 0
-18 320 -333 0
-17 -236 -345 0
-17 -85 112 0
-17 42 -220 0
-17 185 -244 0
-17 196 -361 0
-17 207 211 0
-16 -185 -308 0
-16 40 269 0
-16 113 -174 0
-16 216 -302 0
-15 41 108 0
-15 76 282 0
-15 239 359 0
-15 250 -333 0
-14 30 -257 0
-14 222 -329 0
-14 231 -332 0
-13 -43 -197 0
-13 73 -374 0
-13 143 222 0
-13 154 218 0
-13 202 390 0
-13 316 367 0
-13 334 -376 0
-12 -160 173 0
-12 -88 393 0
-12 50 -164 0
-11 -207 -265 0
-11 -86 -306 0
-11 96 -112 0
-11 217 251 0
-11 286 302 0
-11 358 380 0
-10 -36 -187 0
-10 11 -339 0
-10 294 -344 0
-9 -127 205 0
-9 -110 375 0
-9 -97 247 0
-9 -94 -252 0
-9 -86 -244 0
-9 -84 300 0
-9 74 -95 0
-9 112 300 0
-8 -43 -360 0
-8 335 -384 0
-7 -352 -380 0
-7 -316 -382 0
-7 -226 -389 0
-7 180 189 0
-7 205 -312 0
-7 326 -362 0
-6 37 305 0
-6 162 -210 0
-5 -167 213 0
-5 -28 304 0
-5 116 -345 0
-4 74 328 0
-4 80 294 0
-4 119 -333 0
-3 -229 -298 0
-3 -191 332 0
-3 -185 365 0
-3 16 104 0
-2 -223 388 0
-2 -126 259 0
-2 -124 -278 0
-2 8 -244 0
-2 71 -354 0
-2 157 354 0
-1 -207 379 0
-1 -154 -266 0
-1 -141 -185 0
-1 16 -178 0
-1 108 187 0
-1 137 -331 0
-1 166 -357 0
-1 178 -252 0
-1 193 327 0
-1 204 -233 0
-1 320 -376 0
1 -60 -305 0
1 -43 368 0
1 -15 82 0
1 17 217 0
1 20 -250 0
1 184 -345 0
1 264 -275 0
2 -272 -303 0
2 -183 321 0
2 -84 142 0
2 26 -101 0
2 274 -293 0
2 315 -353 0
2 315 386 0
3 -286 387 0
3 -271 297 0
3 -133 -171 0
3 -27 305 0
3 -12 260 0
3 35 -302 0
3 113 -395 0
3 147 171 0
3 313 326 0
4 -359 386 0
4 -265 286 0
4 -105 -388 0
5 -238 384 0
5 -130 -271 0
5 -84 273 0
5 -11 302 0
5 18 163 0
5 103 -290 0
5 254 393 0
6 -147 -363 0
6 -133 -279 0
6 15 274 0
6 136 -257 0
6 206 -286 0
6 248 -394 0
7 -240 -399 0
7 -173 322 0
7 -113 260 0
7 18 -57 0
7 152 -328 0
8 -279 -340 0
8 -123 281 0
8 -53 140 0
8 85 -107 0
8 231 292 0
9 -357 -372 0
9 -291 301 0
9 -218 -324 0
9 -191 -354 0
9 -180 238 0
9 -119 261 0
9 -70 280 0
9 -49 266 0
9 22 -227 0
9 56 -361 0
9 95 -122 0
9 225 -390 0
9 276 389 0
10 -99 327 0
10 -49 -69 0
10 122 195 0
10 181 -394 0
10 201 225 0
11 -308 345 0
11 -177 245 0
11 -160 197 0
11 -124 -368 0
12 -226 -274 0
12 -167 363 0
12 -142 353 0
12 -142 382 0
12 -124 167 0
12 -87 203 0
12 -31 -300 0
12 42 264 0
12 59 -183 0
12 118 314 0
13 -244 348 0
13 -103 126 0
13 -69 258 0
13 54 -252 0
13 123 -217 0
14 -231 324 0
14 -109 -377 0
14 -95 135 0
14 110 -216 0
14 221 -273 0
15 -383 398 0
15 -315 -337 0
15 -290 -333 0
15 -246 -271 0
15 -186 -346 0
15 -27 -258 0
15 23 95 0
15 111 385 0
16 -199 242 0
16 -103 -314 0
16 58 319 0
16 79 -171 0
16 87 -168 0
17 -212 277 0
17 -201 246 0
17 -189 204 0
17 77 -124 0
17 245 -314 0
18 -193 -248 0
18 -103 -270 0
18 80 129 0
18 137 168 0
18 290 336 0
19 -221 257 0
19 -220 -364 0
19 -122 -214 0
19 98 371 0
19 100 -150 0
19 108 219 0
19 150 315 0
19 161 292 0
19 260 -345 0
20 -346 -400 0
20 -232 384 0
20 147 -186 0
20 154 228 0
20 214 -266 0
20 346 354 0
21 -298 322 0
21 -228 -320 0
21 -69 -395 0
21 -57 282 0
21 -56 -137 0
21 -40 -115 0
21 22 31 0
21 54 188 0
21 62 225 0
21 101 -119 0
21 210 234 0
21 216 -363 0
21 259 288 0
21 324 375 0
22 -182 -224 0
22 -158 282 0
22 -84 -325 0
22 -77 362 0
22 80 334 0
22 302 367 0
23 -183 223 0
23 -146 -221 0
23 -38 -266 0
23 -28 -148 0
23 77 -276 0
23 108 -139 0
23 127 -348 0
23 185 363 0
24 -170 -325 0
24 -164 -193 0
24 -151 364 0
25 51 -241 0
25 115 233 0
25 161 -392 0
25 192 264 0
25 208 315 0
25 267 -358 0
26 -214 -238 0
26 29 44 0
26 185 -226 0
26 201 -251 0
26 257 -346 0
27 -251 377 0
27 -197 -354 0
27 -129 341 0
27 -55 -259 0
27 44 299 0
27 111 -299 0
27 184 -306 0
27 185 -379 0
27 249 -257 0
28 -240 -301 0
28 357 381 0
29 194 313 0
29 206 -246 0
29 344 -371 0
30 -197 -314 0
30 51 106 0
30 196 388 0
31 97 213 0
31 123 288 0
31 260 269 0
31 376 -382 0
32 -96 254 0
32 47 -170 0
32 63 -226 0
32 94 -387 0
32 113 183 0
32 151 197 0
33 -116 -376 0
33 41 -196 0
33 104 132 0
34 -357 -377 0
34 -158 332 0
34 -105 223 0
34 -103 -305 0
34 -77 143 0
34 -76 398 0
34 48 -359 0
34 104 250 0
34 152 -336 0
34 193 373 0
34 310 360 0
35 -159 -280 0
35 -150 -155 0
35 -61 -261 0
35 -58 -336 0
35 41 -80 0
35 56 107 0
35 96 255 0
35 187 226 0
35 268 367 0
36 -191 -254 0
36 -110 -252 0
36 -52 -114 0
36 -40 77 0
36 62 389 0
36 132 -319 0
37 -122 387 0
37 -66 265 0
37 -46 -73 0
38 -217 -336 0
38 -161 318 0
38 62 -357 0
38 210 315 0
38 309 374 0
39 -207 -287 0
39 -187 -319 0
39 -184 -225 0
39 -134 174 0
39 -117 -206 0
39 -51 215 0
39 161 269 0
39 250 -254 0
40 -296 -360 0
40 -119 364 0
40 90 121 0
40 135 186 0
40 157 -275 0
40 259 360 0
41 -183 -185 0
41 -43 213 0
41 109 -297 0
41 164 166 0
41 239 -265 0
42 -313 -394 0
42 -284 346 0
42 -243 -323 0
42 -180 -194 0
42 -133 -373 0
42 -81 281 0
42 70 192 0
42 126 -225 0
42 140 368 0
42 190 193 0
42 276 -390 0
43 -186 198 0
43 -57 -386 0
43 89 348 0
43 253 -361 0
44 -252 321 0
44 -155 -326 0
44 -148 326 0
44 -75 -210 0
44 -74 -385 0
44 92 366 0
44 164 -259 0
45 -167 -174 0
45 -155 -295 0
45 61 -202 0
45 74 127 0
45 199 -266 0
46 -373 376 0
46 -245 380 0
46 54 300 0
46 80 -305 0
46 212 397 0
46 279 345 0
47 -205 -237 0
47 -100 -239 0
47 -97 -190 0
47 -56 303 0
47 52 -118 0
47 71 -128 0
47 131 -261 0
48 -275 338 0
48 -61 -239 0
48 71 94 0
48 115 -311 0
48 115 -116 0
49 -242 270 0
49 -209 378 0
49 -145 -235 0
49 -98 -112 0
49 76 152 0
49 89 -332 0
49 90 -248 0
49 95 339 0
49 109 253 0
49 138 152 0
50 -286 365 0
50 -241 -339 0
50 -148 173 0
50 -94 -312 0
50 62 95 0
50 150 -263 0
50 194 -355 0
50 295 -326 0
51 -112 -233 0
51 -72 244 0
51 61 -311 0
51 122 360 0
51 136 -297 0
51 150 -197 0
52 -314 318 0
52 -214 -319 0
52 -122 335 0
52 -81 190 0
52 -76 358 0
52 71 382 0
52 106 117 0
53 -278 395 0
53 -58 -366 0
53 146 178 0
53 296 358 0
54 -73 -152 0
54 192 257 0
54 285 -318 0
55 -289 -303 0
55 -60 303 0
55 86 -314 0
55 96 341 0
55 173 283 0
55 175 349 0
55 294 310 0
56 -206 -217 0
56 -70 -349 0
56 192 373 0
57 -334 -397 0
57 -58 195 0
57 71 323 0
57 110 -217 0
57 134 -361 0
57 185 -357 0
57 186 -261 0
57 188 -312 0
57 342 399 0
58 -135 336 0
58 62 -277 0
58 165 395 0
59 -281 296 0
59 -131 261 0
59 -71 127 0
59 162 384 0
60 -143 -247 0
60 -75 379 0
60 149 302 0
60 225 -264 0
61 -374 -382 0
61 -269 274 0
61 -111 -360 0
61 76 381 0
61 100 141 0
61 104 279 0
61 306 -326 0
62 -76 310 0
62 90 290 0
62 252 -319 0
62 298 331 0
63 -138 232 0
63 -107 -377 0
63 -104 -267 0
63 87 117 0
64 -211 -213 0
64 -196 -317 0
64 88 358 0
65 -251 278 0
65 -200 290 0
65 -162 -206 0
65 144 -356 0
65 294 -389 0
65 306 -383 0
66 -283 379 0
66 83 208 0
66 348 -358 0
67 -247 313 0
67 -142 -312 0
67 -82 150 0
67 190 372 0
67 254 364 0
67 329 -391 0
68 -199 -355 0
68 101 -184 0
68 202 -307 0
68 252 -353 0
69 186 265 0
70 82 -245 0
70 87 -311 0
71 -161 -164 0
71 -79 120 0
71 165 384 0
72 -149 -258 0
72 -135 -206 0
72 -80 -250 0
72 -78 -321 0
72 80 -185 0
72 154 -338 0
73 -265 -286 0
73 208 385 0
73 212 -314 0
74 -303 -360 0
74 75 -162 0
74 155 -228 0
74 270 -381 0
75 -256 294 0
75 -182 -395 0
75 -172 190 0
75 -162 -295 0
75 -125 355 0
75 97 209 0
76 -344 376 0
76 -195 -380 0
76 197 -328 0
76 238 -254 0
77 -134 303 0
77 146 201 0
77 155 -283 0
77 233 -254 0
77 240 -334 0
78 -82 327 0
78 118 327 0
78 203 360 0
78 376 -386 0
79 -174 351 0
79 -100 -191 0
79 99 -232 0
79 119 386 0
79 190 343 0
80 -160 216 0
80 -91 -259 0
80 97 -281 0
80 148 165 0
80 258 281 0
81 -301 351 0
81 118 -174 0
81 276 360 0
82 172 -272 0
82 205 -288 0
82 250 379 0
83 211 315 0
83 213 -217 0
84 -165 295 0
84 -109 -275 0
84 114 316 0
84 128 -400 0
84 143 342 0
86 166 291 0
86 285 393 0
87 -100 -191 0
87 95 -181 0
87 135 -157 0
87 138 -242 0
87 140 283 0
88 -152 -296 0
88 -100 257 0
88 156 349 0
88 176 322 0
88 255 286 0
89 -104 -150 0
89 324 -395 0
90 -355 399 0
90 -302 -358 0
90 -120 -296 0
90 167 357 0
91 -312 -313 0
91 -97 346 0
91 186 -373 0
91 220 235 0
92 -204 -292 0
93 -392 -395 0
93 -341 388 0
93 -300 334 0
93 -133 -232 0
93 -127 149 0
93 133 -377 0
94 -270 283 0
94 -240 303 0
95 -188 252 0
95 -182 398 0
95 271 378 0
96 -312 378 0
96 -265 -287 0
96 -250 -297 0
96 97 -397 0
96 198 339 0
97 -257 317 0
97 -173 -376 0
97 -172 227 0
97 -119 -313 0
97 146 237 0
99 -105 169 0
99 157 -253 0
99 189 209 0
99 277 398 0
100 -266 341 0
100 -158 214 0
100 134 -369 0
101 -256 -329 0
101 -109 -229 0
101 133 -253 0
101 154 -380 0
102 -272 301 0
102 -244 -385 0
102 -237 345 0
102 214 -217 0
102 222 328 0
103 -267 -338 0
103 -165 265 0
103 149 373 0
104 145 -372 0
104 183 -283 0
105 110 -187 0
105 152 -274 0
105 152 159 0
105 198 -394 0
106 -250 384 0
106 -175 185 0
108 -262 324 0
108 -203 -235 0
108 113 -342 0
109 -278 300 0
109 -207 -220 0
110 -317 360 0
110 -219 -276 0
110 -199 -339 0
110 -149 -306 0
110 -146 -217 0
110 -119 -195 0
110 193 -358 0
110 217 232 0
110 288 -374 0
111 -282 -338 0
111 -181 -386 0
111 -150 -169 0
111 -123 358 0
111 113 -252 0
112 -329 -380 0
112 -172 283 0
112 137 -198 0
112 226 232 0
112 313 333 0
113 -337 -395 0
113 -281 -396 0
113 -197 338 0
113 143 259 0
113 220 366 0
115 145 -191 0
116 -120 -210 0
117 -148 388 0
117 119 -202 0
117 188 220 0
117 207 352 0
118 -165 -387 0
118 -130 -188 0
119 -295 -359 0
119 -250 377 0
119 -148 240 0
119 -145 -265 0
119 -132 -251 0
119 177 -355 0
120 225 347 0
120 255 -365 0
120 274 -299 0
120 302 -307 0
121 -259 -322 0
121 -211 247 0
121 136 -357 0
121 192 313 0
121 203 -263 0
121 216 232 0
122 -350 388 0
122 209 264 0
123 213 -361 0
123 333 373 0
124 -286 -324 0
124 -275 -345 0
124 198 -274 0
126 -210 -355 0
126 156 259 0
127 -152 -360 0
127 -138 -349 0
128 -323 -331 0
128 -226 299 0
128 132 235 0
129 -195 225 0
129 -178 228 0
130 -310 -317 0
131 -281 -383 0
131 182 -396 0
131 245 -385 0
132 150 -196 0
132 172 -259 0
133 -299 -376 0
133 -236 356 0
133 -179 -233 0
133 -168 186 0
133 211 356 0
134 135 207 0
134 139 -143 0
134 170 217 0
134 231 -250 0
134 339 -377 0
135 -174 -282 0
135 327 379 0
136 -242 -315 0
136 -165 203 0
136 -151 380 0
137 -152 186 0
137 315 -382 0
138 -208 210 0
138 -163 -338 0
139 -290 350 0
139 -165 397 0
139 141 -233 0
140 147 331 0
140 189 380 0
140 204 372 0
140 221 248 0
140 223 383 0
141 -199 364 0
141 -166 -283 0
141 154 392 0
141 159 165 0
142 -287 -300 0
142 -169 -230 0
142 145 260 0
142 170 200 0
142 348 -374 0
142 348 349 0
143 -317 358 0
143 228 376 0
143 256 283 0
143 310 339 0
144 -148 251 0
144 214 241 0
145 -197 -334 0
145 -163 -181 0
146 -319 -384 0
146 -303 323 0
146 -232 -265 0
146 305 -383 0
147 -211 355 0
147 -179 251 0
147 285 -375 0
148 247 -359 0
149 -281 356 0
149 203 -400 0
150 176 195 0
150 329 363 0
151 -186 -226 0
152 -210 228 0
152 -170 312 0
153 214 319 0
154 -260 274 0
154 -238 276 0
154 270 -352 0
154 295 -382 0
155 -239 -274 0
155 184 251 0
157 -199 270 0
157 -186 -375 0
157 180 -298 0
158 -340 398 0
158 -228 -367 0
158 199 -376 0
158 268 -355 0
159 -342 359 0
159 172 231 0
161 -234 321 0
161 -184 -249 0
161 173 243 0
161 258 -299 0
162 343 -359 0
163 -356 396 0
163 -348 -360 0
163 223 298 0
163 246 295 0
164 -301 346 0
164 -257 333 0
165 -335 -361 0
165 -179 220 0
167 -214 -276 0
167 -209 284 0
167 178 -352 0
167 260 -299 0
168 -282 354 0
168 176 -392 0
168 235 318 0
169 218 -371 0
169 264 273 0
169 307 400 0
170 -286 -373 0
170 -193 377 0
171 -212 227 0
171 -197 -390 0
171 233 321 0
172 -224 -388 0
172 173 -210 0
173 -327 -380 0
174 277 -317 0
174 299 314 0
176 -340 342 0
176 -267 -380 0
176 216 301 0
177 -315 -362 0
177 219 252 0
178 -259 -323 0
178 248 395 0
180 221 -312 0
182 -326 370 0
182 201 -310 0
183 -272 291 0
183 195 -232 0
183 265 327 0
183 278 399 0
184 273 -274 0
185 195 -228 0
186 -289 -321 0
188 -323 -390 0
188 -304 392 0
188 207 -396 0
188 212 290 0
188 334 389 0
189 -332 -372 0
190 228 -286 0
191 202 -242 0
191 262 372 0
192 -352 -374 0
193 -262 -269 0
193 -233 -337 0
194 264 334 0
195 203 250 0
196 -208 316 0
197 263 322 0
197 382 388 0
198 -356 -395 0
199 241 -391 0
199 299 353 0
201 -218 231 0
202 283 290 0
204 -282 -337 0
204 -235 244 0
205 208 -243 0
205 242 374 0
206 -308 -335 0
207 209 -253 0
207 225 374 0
207 226 396 0
208 -218 -318 0
209 -228 -339 0
209 -220 240 0
209 224 -268 0
211 -296 324 0
211 -285 352 0
211 -230 -336 0
211 239 -246 0
213 -291 309 0
213 247 -277 0
214 -272 -327 0
214 -265 381 0
214 -244 280 0
214 231 -322 0
215 264 -319 0
216 -228 -328 0
216 235 256 0
216 263 -317 0
216 264 -319 0
216 314 342 0
216 353 394 0
217 -339 -368 0
217 -317 -323 0
220 260 341 0
221 231 370 0
221 244 251 0
222 -363 374 0
223 -296 -312 0
223 -259 273 0
224 -250 271 0
225 296 337 0
226 350 -388 0
228 230 -350 0
229 -303 -318 0
230 -254 -395 0
231 303 318 0
233 243 297 0
233 290 325 0
234 -298 -376 0
234 -236 -384 0
236 241 -289 0
237 311 369 0
239 255 354 0
240 -364 -384 0
240 -305 307 0
240 -268 -381 0
240 -257 315 0
243 286 330 0
244 -295 -380 0
246 -307 338 0
247 307 -332 0
249 -273 391 0
254 -372 379 0
255 345 394 0
256 -332 -347 0
256 -257 -373 0
257 304 305 0
258 -279 -314 0
258 292 335 0
258 336 338 0
259 353 357 0
261 266 -373 0
261 343 349 0
262 -288 -299 0
263 -275 313 0
265 341 393 0
267 -295 -301 0
267 273 328 0
269 -272 -293 0
269 287 -332 0
270 304 352 0
274 282 392 0
274 328 333 0
275 302 -326 0
277 -298 -303 0
278 346 -374 0
279 392 398 0
281 299 387 0
283 -305 316 0
284 -354 -369 0
284 -299 349 0
284 -288 312 0
284 370 381 0
287 -365 372 0
288 -332 349 0
289 325 359 0
291 -308 -398 0
292 -293 -362 0
292 311 322 0
296 -303 351 0
306 -342 375 0
309 357 365 0
311 345 -361 0
321 386 394 0
322 384 -389 0
323 324 383 0
325 -326 374 0
335 344 367 0
338 -372 385 0
339 -346 349 0
341 -373 -380 0
342 -343 351 0
348 -354 -377 0
