c family: planted graph coloring
c known_status: SAT
c difficulty_level: hard
c description: larger dense k-colorable graph with hidden coloring
c generated: deterministic complex CNF training pack
p cnf 600 24798
1 2 3 4 0
-1 -2 0
-1 -3 0
-1 -4 0
-2 -3 0
-2 -4 0
-3 -4 0
5 6 7 8 0
-5 -6 0
-5 -7 0
-5 -8 0
-6 -7 0
-6 -8 0
-7 -8 0
9 10 11 12 0
-9 -10 0
-9 -11 0
-9 -12 0
-10 -11 0
-10 -12 0
-11 -12 0
13 14 15 16 0
-13 -14 0
-13 -15 0
-13 -16 0
-14 -15 0
-14 -16 0
-15 -16 0
17 18 19 20 0
-17 -18 0
-17 -19 0
-17 -20 0
-18 -19 0
-18 -20 0
-19 -20 0
21 22 23 24 0
-21 -22 0
-21 -23 0
-21 -24 0
-22 -23 0
-22 -24 0
-23 -24 0
25 26 27 28 0
-25 -26 0
-25 -27 0
-25 -28 0
-26 -27 0
-26 -28 0
-27 -28 0
29 30 31 32 0
-29 -30 0
-29 -31 0
-29 -32 0
-30 -31 0
-30 -32 0
-31 -32 0
33 34 35 36 0
-33 -34 0
-33 -35 0
-33 -36 0
-34 -35 0
-34 -36 0
-35 -36 0
37 38 39 40 0
-37 -38 0
-37 -39 0
-37 -40 0
-38 -39 0
-38 -40 0
-39 -40 0
41 42 43 44 0
-41 -42 0
-41 -43 0
-41 -44 0
-42 -43 0
-42 -44 0
-43 -44 0
45 46 47 48 0
-45 -46 0
-45 -47 0
-45 -48 0
-46 -47 0
-46 -48 0
-47 -48 0
49 50 51 52 0
-49 -50 0
-49 -51 0
-49 -52 0
-50 -51 0
-50 -52 0
-51 -52 0
53 54 55 56 0
-53 -54 0
-53 -55 0
-53 -56 0
-54 -55 0
-54 -56 0
-55 -56 0
57 58 59 60 0
-57 -58 0
-57 -59 0
-57 -60 0
-58 -59 0
-58 -60 0
-59 -60 0
61 62 63 64 0
-61 -62 0
-61 -63 0
-61 -64 0
-62 -63 0
-62 -64 0
-63 -64 0
65 66 67 68 0
-65 -66 0
-65 -67 0
-65 -68 0
-66 -67 0
-66 -68 0
-67 -68 0
69 70 71 72 0
-69 -70 0
-69 -71 0
-69 -72 0
-70 -71 0
-70 -72 0
-71 -72 0
73 74 75 76 0
-73 -74 0
-73 -75 0
-73 -76 0
-74 -75 0
-74 -76 0
-75 -76 0
77 78 79 80 0
-77 -78 0
-77 -79 0
-77 -80 0
-78 -79 0
-78 -80 0
-79 -80 0
81 82 83 84 0
-81 -82 0
-81 -83 0
-81 -84 0
-82 -83 0
-82 -84 0
-83 -84 0
85 86 87 88 0
-85 -86 0
-85 -87 0
-85 -88 0
-86 -87 0
-86 -88 0
-87 -88 0
89 90 91 92 0
-89 -90 0
-89 -91 0
-89 -92 0
-90 -91 0
-90 -92 0
-91 -92 0
93 94 95 96 0
-93 -94 0
-93 -95 0
-93 -96 0
-94 -95 0
-94 -96 0
-95 -96 0
97 98 99 100 0
-97 -98 0
-97 -99 0
-97 -100 0
-98 -99 0
-98 -100 0
-99 -100 0
101 102 103 104 0
-101 -102 0
-101 -103 0
-101 -104 0
-102 -103 0
-102 -104 0
-103 -104 0
105 106 107 108 0
-105 -106 0
-105 -107 0
-105 -108 0
-106 -107 0
-106 -108 0
-107 -108 0
109 110 111 112 0
-109 -110 0
-109 -111 0
-109 -112 0
-110 -111 0
-110 -112 0
-111 -112 0
113 114 115 116 0
-113 -114 0
-113 -115 0
-113 -116 0
-114 -115 0
-114 -116 0
-115 -116 0
117 118 119 120 0
-117 -118 0
-117 -119 0
-117 -120 0
-118 -119 0
-118 -120 0
-119 -120 0
121 122 123 124 0
-121 -122 0
-121 -123 0
-121 -124 0
-122 -123 0
-122 -124 0
-123 -124 0
125 126 127 128 0
-125 -126 0
-125 -127 0
-125 -128 0
-126 -127 0
-126 -128 0
-127 -128 0
129 130 131 132 0
-129 -130 0
-129 -131 0
-129 -132 0
-130 -131 0
-130 -132 0
-131 -132 0
133 134 135 136 0
-133 -134 0
-133 -135 0
-133 -136 0
-134 -135 0
-134 -136 0
-135 -136 0
137 138 139 140 0
-137 -138 0
-137 -139 0
-137 -140 0
-138 -139 0
-138 -140 0
-139 -140 0
141 142 143 144 0
-141 -142 0
-141 -143 0
-141 -144 0
-142 -143 0
-142 -144 0
-143 -144 0
145 146 147 148 0
-145 -146 0
-145 -147 0
-145 -148 0
-146 -147 0
-146 -148 0
-147 -148 0
149 150 151 152 0
-149 -150 0
-149 -151 0
-149 -152 0
-150 -151 0
-150 -152 0
-151 -152 0
153 154 155 156 0
-153 -154 0
-153 -155 0
-153 -156 0
-154 -155 0
-154 -156 0
-155 -156 0
157 158 159 160 0
-157 -158 0
-157 -159 0
-157 -160 0
-158 -159 0
-158 -160 0
-159 -160 0
161 162 163 164 0
-161 -162 0
-161 -163 0
-161 -164 0
-162 -163 0
-162 -164 0
-163 -164 0
165 166 167 168 0
-165 -166 0
-165 -167 0
-165 -168 0
-166 -167 0
-166 -168 0
-167 -168 0
169 170 171 172 0
-169 -170 0
-169 -171 0
-169 -172 0
-170 -171 0
-170 -172 0
-171 -172 0
173 174 175 176 0
-173 -174 0
-173 -175 0
-173 -176 0
-174 -175 0
-174 -176 0
-175 -176 0
177 178 179 180 0
-177 -178 0
-177 -179 0
-177 -180 0
-178 -179 0
-178 -180 0
-179 -180 0
181 182 183 184 0
-181 -182 0
-181 -183 0
-181 -184 0
-182 -183 0
-182 -184 0
-183 -184 0
185 186 187 188 0
-185 -186 0
-185 -187 0
-185 -188 0
-186 -187 0
-186 -188 0
-187 -188 0
189 190 191 192 0
-189 -190 0
-189 -191 0
-189 -192 0
-190 -191 0
-190 -192 0
-191 -192 0
193 194 195 196 0
-193 -194 0
-193 -195 0
-193 -196 0
-194 -195 0
-194 -196 0
-195 -196 0
197 198 199 200 0
-197 -198 0
-197 -199 0
-197 -200 0
-198 -199 0
-198 -200 0
-199 -200 0
201 202 203 204 0
-201 -202 0
-201 -203 0
-201 -204 0
-202 -203 0
-202 -204 0
-203 -204 0
205 206 207 208 0
-205 -206 0
-205 -207 0
-205 -208 0
-206 -207 0
-206 -208 0
-207 -208 0
209 210 211 212 0
-209 -210 0
-209 -211 0
-209 -212 0
-210 -211 0
-210 -212 0
-211 -212 0
213 214 215 216 0
-213 -214 0
-213 -215 0
-213 -216 0
-214 -215 0
-214 -216 0
-215 -216 0
217 218 219 220 0
-217 -218 0
-217 -219 0
-217 -220 0
-218 -219 0
-218 -220 0
-219 -220 0
221 222 223 224 0
-221 -222 0
-221 -223 0
-221 -224 0
-222 -223 0
-222 -224 0
-223 -224 0
225 226 227 228 0
-225 -226 0
-225 -227 0
-225 -228 0
-226 -227 0
-226 -228 0
-227 -228 0
229 230 231 232 0
-229 -230 0
-229 -231 0
-229 -232 0
-230 -231 0
-230 -232 0
-231 -232 0
233 234 235 236 0
-233 -234 0
-233 -235 0
-233 -236 0
-234 -235 0
-234 -236 0
-235 -236 0
237 238 239 240 0
-237 -238 0
-237 -239 0
-237 -240 0
-238 -239 0
-238 -240 0
-239 -240 0
241 242 243 244 0
-241 -242 0
-241 -243 0
-241 -244 0
-242 -243 0
-242 -244 0
-243 -244 0
245 246 247 248 0
-245 -246 0
-245 -247 0
-245 -248 0
-246 -247 0
-246 -248 0
-247 -248 0
249 250 251 252 0
-249 -250 0
-249 -251 0
-249 -252 0
-250 -251 0
-250 -252 0
-251 -252 0
253 254 255 256 0
-253 -254 0
-253 -255 0
-253 -256 0
-254 -255 0
-254 -256 0
-255 -256 0
257 258 259 260 0
-257 -258 0
-257 -259 0
-257 -260 0
-258 -259 0
-258 -260 0
-259 -260 0
261 262 263 264 0
-261 -262 0
-261 -263 0
-261 -264 0
-262 -263 0
-262 -264 0
-263 -264 0
265 266 267 268 0
-265 -266 0
-265 -267 0
-265 -268 0
-266 -267 0
-266 -268 0
-267 -268 0
269 270 271 272 0
-269 -270 0
-269 -271 0
-269 -272 0
-270 -271 0
-270 -272 0
-271 -272 0
273 274 275 276 0
-273 -274 0
-273 -275 0
-273 -276 0
-274 -275 0
-274 -276 0
-275 -276 0
277 278 279 280 0
-277 -278 0
-277 -279 0
-277 -280 0
-278 -279 0
-278 -280 0
-279 -280 0
281 282 283 284 0
-281 -282 0
-281 -283 0
-281 -284 0
-282 -283 0
-282 -284 0
-283 -284 0
285 286 287 288 0
-285 -286 0
-285 -287 0
-285 -288 0
-286 -287 0
-286 -288 0
-287 -288 0
289 290 291 292 0
-289 -290 0
-289 -291 0
-289 -292 0
-290 -291 0
-290 -292 0
-291 -292 0
293 294 295 296 0
-293 -294 0
-293 -295 0
-293 -296 0
-294 -295 0
-294 -296 0
-295 -296 0
297 298 299 300 0
-297 -298 0
-297 -299 0
-297 -300 0
-298 -299 0
-298 -300 0
-299 -300 0
301 302 303 304 0
-301 -302 0
-301 -303 0
-301 -304 0
-302 -303 0
-302 -304 0
-303 -304 0
305 306 307 308 0
-305 -306 0
-305 -307 0
-305 -308 0
-306 -307 0
-306 -308 0
-307 -308 0
309 310 311 312 0
-309 -310 0
-309 -311 0
-309 -312 0
-310 -311 0
-310 -312 0
-311 -312 0
313 314 315 316 0
-313 -314 0
-313 -315 0
-313 -316 0
-314 -315 0
-314 -316 0
-315 -316 0
317 318 319 320 0
-317 -318 0
-317 -319 0
-317 -320 0
-318 -319 0
-318 -320 0
-319 -320 0
321 322 323 324 0
-321 -322 0
-321 -323 0
-321 -324 0
-322 -323 0
-322 -324 0
-323 -324 0
325 326 327 328 0
-325 -326 0
-325 -327 0
-325 -328 0
-326 -327 0
-326 -328 0
-327 -328 0
329 330 331 332 0
-329 -330 0
-329 -331 0
-329 -332 0
-330 -331 0
-330 -332 0
-331 -332 0
333 334 335 336 0
-333 -334 0
-333 -335 0
-333 -336 0
-334 -335 0
-334 -336 0
-335 -336 0
337 338 339 340 0
-337 -338 0
-337 -339 0
-337 -340 0
-338 -339 0
-338 -340 0
-339 -340 0
341 342 343 344 0
-341 -342 0
-341 -343 0
-341 -344 0
-342 -343 0
-342 -344 0
-343 -344 0
345 346 347 348 0
-345 -346 0
-345 -347 0
-345 -348 0
-346 -347 0
-346 -348 0
-347 -348 0
349 350 351 352 0
-349 -350 0
-349 -351 0
-349 -352 0
-350 -351 0
-350 -352 0
-351 -352 0
353 354 355 356 0
-353 -354 0
-353 -355 0
-353 -356 0
-354 -355 0
-354 -356 0
-355 -356 0
357 358 359 360 0
-357 -358 0
-357 -359 0
-357 -360 0
-358 -359 0
-358 -360 0
-359 -360 0
361 362 363 364 0
-361 -362 0
-361 -363 0
-361 -364 0
-362 -363 0
-362 -364 0
-363 -364 0
365 366 367 368 0
-365 -366 0
-365 -367 0
-365 -368 0
-366 -367 0
-366 -368 0
-367 -368 0
369 370 371 372 0
-369 -370 0
-369 -371 0
-369 -372 0
-370 -371 0
-370 -372 0
-371 -372 0
373 374 375 376 0
-373 -374 0
-373 -375 0
-373 -376 0
-374 -375 0
-374 -376 0
-375 -376 0
377 378 379 380 0
-377 -378 0
-377 -379 0
-377 -380 0
-378 -379 0
-378 -380 0
-379 -380 0
381 382 383 384 0
-381 -382 0
-381 -383 0
-381 -384 0
-382 -383 0
-382 -384 0
-383 -384 0
385 386 387 388 0
-385 -386 0
-385 -387 0
-385 -388 0
-386 -387 0
-386 -388 0
-387 -388 0
389 390 391 392 0
-389 -390 0
-389 -391 0
-389 -392 0
-390 -391 0
-390 -392 0
-391 -392 0
393 394 395 396 0
-393 -394 0
-393 -395 0
-393 -396 0
-394 -395 0
-394 -396 0
-395 -396 0
397 398 399 400 0
-397 -398 0
-397 -399 0
-397 -400 0
-398 -399 0
-398 -400 0
-399 -400 0
401 402 403 404 0
-401 -402 0
-401 -403 0
-401 -404 0
-402 -403 0
-402 -404 0
-403 -404 0
405 406 407 408 0
-405 -406 0
-405 -407 0
-405 -408 0
-406 -407 0
-406 -408 0
-407 -408 0
409 410 411 412 0
-409 -410 0
-409 -411 0
-409 -412 0
-410 -411 0
-410 -412 0
-411 -412 0
413 414 415 416 0
-413 -414 0
-413 -415 0
-413 -416 0
-414 -415 0
-414 -416 0
-415 -416 0
417 418 419 420 0
-417 -418 0
-417 -419 0
-417 -420 0
-418 -419 0
-418 -420 0
-419 -420 0
421 422 423 424 0
-421 -422 0
-421 -423 0
-421 -424 0
-422 -423 0
-422 -424 0
-423 -424 0
425 426 427 428 0
-425 -426 0
-425 -427 0
-425 -428 0
-426 -427 0
-426 -428 0
-427 -428 0
429 430 431 432 0
-429 -430 0
-429 -431 0
-429 -432 0
-430 -431 0
-430 -432 0
-431 -432 0
433 434 435 436 0
-433 -434 0
-433 -435 0
-433 -436 0
-434 -435 0
-434 -436 0
-435 -436 0
437 438 439 440 0
-437 -438 0
-437 -439 0
-437 -440 0
-438 -439 0
-438 -440 0
-439 -440 0
441 442 443 444 0
-441 -442 0
-441 -443 0
-441 -444 0
-442 -443 0
-442 -444 0
-443 -444 0
445 446 447 448 0
-445 -446 0
-445 -447 0
-445 -448 0
-446 -447 0
-446 -448 0
-447 -448 0
449 450 451 452 0
-449 -450 0
-449 -451 0
-449 -452 0
-450 -451 0
-450 -452 0
-451 -452 0
453 454 455 456 0
-453 -454 0
-453 -455 0
-453 -456 0
-454 -455 0
-454 -456 0
-455 -456 0
457 458 459 460 0
-457 -458 0
-457 -459 0
-457 -460 0
-458 -459 0
-458 -460 0
-459 -460 0
461 462 463 464 0
-461 -462 0
-461 -463 0
-461 -464 0
-462 -463 0
-462 -464 0
-463 -464 0
465 466 467 468 0
-465 -466 0
-465 -467 0
-465 -468 0
-466 -467 0
-466 -468 0
-467 -468 0
469 470 471 472 0
-469 -470 0
-469 -471 0
-469 -472 0
-470 -471 0
-470 -472 0
-471 -472 0
473 474 475 476 0
-473 -474 0
-473 -475 0
-473 -476 0
-474 -475 0
-474 -476 0
-475 -476 0
477 478 479 480 0
-477 -478 0
-477 -479 0
-477 -480 0
-478 -479 0
-478 -480 0
-479 -480 0
481 482 483 484 0
-481 -482 0
-481 -483 0
-481 -484 0
-482 -483 0
-482 -484 0
-483 -484 0
485 486 487 488 0
-485 -486 0
-485 -487 0
-485 -488 0
-486 -487 0
-486 -488 0
-487 -488 0
489 490 491 492 0
-489 -490 0
-489 -491 0
-489 -492 0
-490 -491 0
-490 -492 0
-491 -492 0
493 494 495 496 0
-493 -494 0
-493 -495 0
-493 -496 0
-494 -495 0
-494 -496 0
-495 -496 0
497 498 499 500 0
-497 -498 0
-497 -499 0
-497 -500 0
-498 -499 0
-498 -500 0
-499 -500 0
501 502 503 504 0
-501 -502 0
-501 -503 0
-501 -504 0
-502 -503 0
-502 -504 0
-503 -504 0
505 506 507 508 0
-505 -506 0
-505 -507 0
-505 -508 0
-506 -507 0
-506 -508 0
-507 -508 0
509 510 511 512 0
-509 -510 0
-509 -511 0
-509 -512 0
-510 -511 0
-510 -512 0
-511 -512 0
513 514 515 516 0
-513 -514 0
-513 -515 0
-513 -516 0
-514 -515 0
-514 -516 0
-515 -516 0
517 518 519 520 0
-517 -518 0
-517 -519 0
-517 -520 0
-518 -519 0
-518 -520 0
-519 -520 0
521 522 523 524 0
-521 -522 0
-521 -523 0
-521 -524 0
-522 -523 0
-522 -524 0
-523 -524 0
525 526 527 528 0
-525 -526 0
-525 -527 0
-525 -528 0
-526 -527 0
-526 -528 0
-527 -528 0
529 530 531 532 0
-529 -530 0
-529 -531 0
-529 -532 0
-530 -531 0
-530 -532 0
-531 -532 0
533 534 535 536 0
-533 -534 0
-533 -535 0
-533 -536 0
-534 -535 0
-534 -536 0
-535 -536 0
537 538 539 540 0
-537 -538 0
-537 -539 0
-537 -540 0
-538 -539 0
-538 -540 0
-539 -540 0
541 542 543 544 0
-541 -542 0
-541 -543 0
-541 -544 0
-542 -543 0
-542 -544 0
-543 -544 0
545 546 547 548 0
-545 -546 0
-545 -547 0
-545 -548 0
-546 -547 0
-546 -548 0
-547 -548 0
549 550 551 552 0
-549 -550 0
-549 -551 0
-549 -552 0
-550 -551 0
-550 -552 0
-551 -552 0
553 554 555 556 0
-553 -554 0
-553 -555 0
-553 -556 0
-554 -555 0
-554 -556 0
-555 -556 0
557 558 559 560 0
-557 -558 0
-557 -559 0
-557 -560 0
-558 -559 0
-558 -560 0
-559 -560 0
561 562 563 564 0
-561 -562 0
-561 -563 0
-561 -564 0
-562 -563 0
-562 -564 0
-563 -564 0
565 566 567 568 0
-565 -566 0
-565 -567 0
-565 -568 0
-566 -567 0
-566 -568 0
-567 -568 0
569 570 571 572 0
-569 -570 0
-569 -571 0
-569 -572 0
-570 -571 0
-570 -572 0
-571 -572 0
573 574 575 576 0
-573 -574 0
-573 -575 0
-573 -576 0
-574 -575 0
-574 -576 0
-575 -576 0
577 578 579 580 0
-577 -578 0
-577 -579 0
-577 -580 0
-578 -579 0
-578 -580 0
-579 -580 0
581 582 583 584 0
-581 -582 0
-581 -583 0
-581 -584 0
-582 -583 0
-582 -584 0
-583 -584 0
585 586 587 588 0
-585 -586 0
-585 -587 0
-585 -588 0
-586 -587 0
-586 -588 0
-587 -588 0
589 590 591 592 0
-589 -590 0
-589 -591 0
-589 -592 0
-590 -591 0
-590 -592 0
-591 -592 0
593 594 595 596 0
-593 -594 0
-593 -595 0
-593 -596 0
-594 -595 0
-594 -596 0
-595 -596 0
597 598 599 600 0
-597 -598 0
-597 -599 0
-597 -600 0
-598 -599 0
-598 -600 0
-599 -600 0
-1 -5 0
-2 -6 0
-3 -7 0
-4 -8 0
-1 -25 0
-2 -26 0
-3 -27 0
-4 -28 0
-1 -33 0
-2 -34 0
-3 -35 0
-4 -36 0
-1 -37 0
-2 -38 0
-3 -39 0
-4 -40 0
-1 -41 0
-2 -42 0
-3 -43 0
-4 -44 0
-1 -45 0
-2 -46 0
-3 -47 0
-4 -48 0
-1 -69 0
-2 -70 0
-3 -71 0
-4 -72 0
-1 -85 0
-2 -86 0
-3 -87 0
-4 -88 0
-1 -89 0
-2 -90 0
-3 -91 0
-4 -92 0
-1 -93 0
-2 -94 0
-3 -95 0
-4 -96 0
-1 -97 0
-2 -98 0
-3 -99 0
-4 -100 0
-1 -113 0
-2 -114 0
-3 -115 0
-4 -116 0
-1 -117 0
-2 -118 0
-3 -119 0
-4 -120 0
-1 -121 0
-2 -122 0
-3 -123 0
-4 -124 0
-1 -125 0
-2 -126 0
-3 -127 0
-4 -128 0
-1 -129 0
-2 -130 0
-3 -131 0
-4 -132 0
-1 -137 0
-2 -138 0
-3 -139 0
-4 -140 0
-1 -141 0
-2 -142 0
-3 -143 0
-4 -144 0
-1 -145 0
-2 -146 0
-3 -147 0
-4 -148 0
-1 -149 0
-2 -150 0
-3 -151 0
-4 -152 0
-1 -157 0
-2 -158 0
-3 -159 0
-4 -160 0
-1 -161 0
-2 -162 0
-3 -163 0
-4 -164 0
-1 -165 0
-2 -166 0
-3 -167 0
-4 -168 0
-1 -209 0
-2 -210 0
-3 -211 0
-4 -212 0
-1 -217 0
-2 -218 0
-3 -219 0
-4 -220 0
-1 -221 0
-2 -222 0
-3 -223 0
-4 -224 0
-1 -237 0
-2 -238 0
-3 -239 0
-4 -240 0
-1 -249 0
-2 -250 0
-3 -251 0
-4 -252 0
-1 -257 0
-2 -258 0
-3 -259 0
-4 -260 0
-1 -261 0
-2 -262 0
-3 -263 0
-4 -264 0
-1 -265 0
-2 -266 0
-3 -267 0
-4 -268 0
-1 -281 0
-2 -282 0
-3 -283 0
-4 -284 0
-1 -285 0
-2 -286 0
-3 -287 0
-4 -288 0
-1 -289 0
-2 -290 0
-3 -291 0
-4 -292 0
-1 -301 0
-2 -302 0
-3 -303 0
-4 -304 0
-1 -313 0
-2 -314 0
-3 -315 0
-4 -316 0
-1 -333 0
-2 -334 0
-3 -335 0
-4 -336 0
-1 -337 0
-2 -338 0
-3 -339 0
-4 -340 0
-1 -349 0
-2 -350 0
-3 -351 0
-4 -352 0
-1 -353 0
-2 -354 0
-3 -355 0
-4 -356 0
-1 -361 0
-2 -362 0
-3 -363 0
-4 -364 0
-1 -365 0
-2 -366 0
-3 -367 0
-4 -368 0
-1 -369 0
-2 -370 0
-3 -371 0
-4 -372 0
-1 -381 0
-2 -382 0
-3 -383 0
-4 -384 0
-1 -385 0
-2 -386 0
-3 -387 0
-4 -388 0
-1 -389 0
-2 -390 0
-3 -391 0
-4 -392 0
-1 -401 0
-2 -402 0
-3 -403 0
-4 -404 0
-1 -405 0
-2 -406 0
-3 -407 0
-4 -408 0
-1 -425 0
-2 -426 0
-3 -427 0
-4 -428 0
-1 -429 0
-2 -430 0
-3 -431 0
-4 -432 0
-1 -433 0
-2 -434 0
-3 -435 0
-4 -436 0
-1 -461 0
-2 -462 0
-3 -463 0
-4 -464 0
-1 -477 0
-2 -478 0
-3 -479 0
-4 -480 0
-1 -481 0
-2 -482 0
-3 -483 0
-4 -484 0
-1 -485 0
-2 -486 0
-3 -487 0
-4 -488 0
-1 -493 0
-2 -494 0
-3 -495 0
-4 -496 0
-1 -497 0
-2 -498 0
-3 -499 0
-4 -500 0
-1 -501 0
-2 -502 0
-3 -503 0
-4 -504 0
-1 -509 0
-2 -510 0
-3 -511 0
-4 -512 0
-1 -513 0
-2 -514 0
-3 -515 0
-4 -516 0
-1 -529 0
-2 -530 0
-3 -531 0
-4 -532 0
-1 -533 0
-2 -534 0
-3 -535 0
-4 -536 0
-1 -565 0
-2 -566 0
-3 -567 0
-4 -568 0
-1 -569 0
-2 -570 0
-3 -571 0
-4 -572 0
-1 -581 0
-2 -582 0
-3 -583 0
-4 -584 0
-1 -589 0
-2 -590 0
-3 -591 0
-4 -592 0
-1 -597 0
-2 -598 0
-3 -599 0
-4 -600 0
-5 -9 0
-6 -10 0
-7 -11 0
-8 -12 0
-5 -33 0
-6 -34 0
-7 -35 0
-8 -36 0
-5 -37 0
-6 -38 0
-7 -39 0
-8 -40 0
-5 -49 0
-6 -50 0
-7 -51 0
-8 -52 0
-5 -53 0
-6 -54 0
-7 -55 0
-8 -56 0
-5 -57 0
-6 -58 0
-7 -59 0
-8 -60 0
-5 -61 0
-6 -62 0
-7 -63 0
-8 -64 0
-5 -65 0
-6 -66 0
-7 -67 0
-8 -68 0
-5 -69 0
-6 -70 0
-7 -71 0
-8 -72 0
-5 -73 0
-6 -74 0
-7 -75 0
-8 -76 0
-5 -77 0
-6 -78 0
-7 -79 0
-8 -80 0
-5 -81 0
-6 -82 0
-7 -83 0
-8 -84 0
-5 -85 0
-6 -86 0
-7 -87 0
-8 -88 0
-5 -89 0
-6 -90 0
-7 -91 0
-8 -92 0
-5 -93 0
-6 -94 0
-7 -95 0
-8 -96 0
-5 -101 0
-6 -102 0
-7 -103 0
-8 -104 0
-5 -105 0
-6 -106 0
-7 -107 0
-8 -108 0
-5 -117 0
-6 -118 0
-7 -119 0
-8 -120 0
-5 -121 0
-6 -122 0
-7 -123 0
-8 -124 0
-5 -129 0
-6 -130 0
-7 -131 0
-8 -132 0
-5 -145 0
-6 -146 0
-7 -147 0
-8 -148 0
-5 -153 0
-6 -154 0
-7 -155 0
-8 -156 0
-5 -157 0
-6 -158 0
-7 -159 0
-8 -160 0
-5 -161 0
-6 -162 0
-7 -163 0
-8 -164 0
-5 -173 0
-6 -174 0
-7 -175 0
-8 -176 0
-5 -177 0
-6 -178 0
-7 -179 0
-8 -180 0
-5 -185 0
-6 -186 0
-7 -187 0
-8 -188 0
-5 -193 0
-6 -194 0
-7 -195 0
-8 -196 0
-5 -197 0
-6 -198 0
-7 -199 0
-8 -200 0
-5 -201 0
-6 -202 0
-7 -203 0
-8 -204 0
-5 -205 0
-6 -206 0
-7 -207 0
-8 -208 0
-5 -225 0
-6 -226 0
-7 -227 0
-8 -228 0
-5 -229 0
-6 -230 0
-7 -231 0
-8 -232 0
-5 -237 0
-6 -238 0
-7 -239 0
-8 -240 0
-5 -245 0
-6 -246 0
-7 -247 0
-8 -248 0
-5 -253 0
-6 -254 0
-7 -255 0
-8 -256 0
-5 -265 0
-6 -266 0
-7 -267 0
-8 -268 0
-5 -269 0
-6 -270 0
-7 -271 0
-8 -272 0
-5 -273 0
-6 -274 0
-7 -275 0
-8 -276 0
-5 -277 0
-6 -278 0
-7 -279 0
-8 -280 0
-5 -289 0
-6 -290 0
-7 -291 0
-8 -292 0
-5 -293 0
-6 -294 0
-7 -295 0
-8 -296 0
-5 -297 0
-6 -298 0
-7 -299 0
-8 -300 0
-5 -309 0
-6 -310 0
-7 -311 0
-8 -312 0
-5 -313 0
-6 -314 0
-7 -315 0
-8 -316 0
-5 -317 0
-6 -318 0
-7 -319 0
-8 -320 0
-5 -325 0
-6 -326 0
-7 -327 0
-8 -328 0
-5 -333 0
-6 -334 0
-7 -335 0
-8 -336 0
-5 -341 0
-6 -342 0
-7 -343 0
-8 -344 0
-5 -349 0
-6 -350 0
-7 -351 0
-8 -352 0
-5 -369 0
-6 -370 0
-7 -371 0
-8 -372 0
-5 -393 0
-6 -394 0
-7 -395 0
-8 -396 0
-5 -397 0
-6 -398 0
-7 -399 0
-8 -400 0
-5 -413 0
-6 -414 0
-7 -415 0
-8 -416 0
-5 -417 0
-6 -418 0
-7 -419 0
-8 -420 0
-5 -421 0
-6 -422 0
-7 -423 0
-8 -424 0
-5 -437 0
-6 -438 0
-7 -439 0
-8 -440 0
-5 -457 0
-6 -458 0
-7 -459 0
-8 -460 0
-5 -461 0
-6 -462 0
-7 -463 0
-8 -464 0
-5 -465 0
-6 -466 0
-7 -467 0
-8 -468 0
-5 -469 0
-6 -470 0
-7 -471 0
-8 -472 0
-5 -473 0
-6 -474 0
-7 -475 0
-8 -476 0
-5 -481 0
-6 -482 0
-7 -483 0
-8 -484 0
-5 -485 0
-6 -486 0
-7 -487 0
-8 -488 0
-5 -489 0
-6 -490 0
-7 -491 0
-8 -492 0
-5 -497 0
-6 -498 0
-7 -499 0
-8 -500 0
-5 -501 0
-6 -502 0
-7 -503 0
-8 -504 0
-5 -509 0
-6 -510 0
-7 -511 0
-8 -512 0
-5 -513 0
-6 -514 0
-7 -515 0
-8 -516 0
-5 -521 0
-6 -522 0
-7 -523 0
-8 -524 0
-5 -533 0
-6 -534 0
-7 -535 0
-8 -536 0
-5 -541 0
-6 -542 0
-7 -543 0
-8 -544 0
-5 -545 0
-6 -546 0
-7 -547 0
-8 -548 0
-5 -549 0
-6 -550 0
-7 -551 0
-8 -552 0
-5 -557 0
-6 -558 0
-7 -559 0
-8 -560 0
-5 -577 0
-6 -578 0
-7 -579 0
-8 -580 0
-5 -593 0
-6 -594 0
-7 -595 0
-8 -596 0
-9 -13 0
-10 -14 0
-11 -15 0
-12 -16 0
-9 -37 0
-10 -38 0
-11 -39 0
-12 -40 0
-9 -41 0
-10 -42 0
-11 -43 0
-12 -44 0
-9 -45 0
-10 -46 0
-11 -47 0
-12 -48 0
-9 -49 0
-10 -50 0
-11 -51 0
-12 -52 0
-9 -57 0
-10 -58 0
-11 -59 0
-12 -60 0
-9 -61 0
-10 -62 0
-11 -63 0
-12 -64 0
-9 -77 0
-10 -78 0
-11 -79 0
-12 -80 0
-9 -81 0
-10 -82 0
-11 -83 0
-12 -84 0
-9 -97 0
-10 -98 0
-11 -99 0
-12 -100 0
-9 -109 0
-10 -110 0
-11 -111 0
-12 -112 0
-9 -117 0
-10 -118 0
-11 -119 0
-12 -120 0
-9 -121 0
-10 -122 0
-11 -123 0
-12 -124 0
-9 -125 0
-10 -126 0
-11 -127 0
-12 -128 0
-9 -137 0
-10 -138 0
-11 -139 0
-12 -140 0
-9 -141 0
-10 -142 0
-11 -143 0
-12 -144 0
-9 -153 0
-10 -154 0
-11 -155 0
-12 -156 0
-9 -161 0
-10 -162 0
-11 -163 0
-12 -164 0
-9 -169 0
-10 -170 0
-11 -171 0
-12 -172 0
-9 -173 0
-10 -174 0
-11 -175 0
-12 -176 0
-9 -177 0
-10 -178 0
-11 -179 0
-12 -180 0
-9 -185 0
-10 -186 0
-11 -187 0
-12 -188 0
-9 -193 0
-10 -194 0
-11 -195 0
-12 -196 0
-9 -197 0
-10 -198 0
-11 -199 0
-12 -200 0
-9 -209 0
-10 -210 0
-11 -211 0
-12 -212 0
-9 -225 0
-10 -226 0
-11 -227 0
-12 -228 0
-9 -229 0
-10 -230 0
-11 -231 0
-12 -232 0
-9 -241 0
-10 -242 0
-11 -243 0
-12 -244 0
-9 -257 0
-10 -258 0
-11 -259 0
-12 -260 0
-9 -273 0
-10 -274 0
-11 -275 0
-12 -276 0
-9 -277 0
-10 -278 0
-11 -279 0
-12 -280 0
-9 -281 0
-10 -282 0
-11 -283 0
-12 -284 0
-9 -293 0
-10 -294 0
-11 -295 0
-12 -296 0
-9 -305 0
-10 -306 0
-11 -307 0
-12 -308 0
-9 -309 0
-10 -310 0
-11 -311 0
-12 -312 0
-9 -317 0
-10 -318 0
-11 -319 0
-12 -320 0
-9 -321 0
-10 -322 0
-11 -323 0
-12 -324 0
-9 -325 0
-10 -326 0
-11 -327 0
-12 -328 0
-9 -349 0
-10 -350 0
-11 -351 0
-12 -352 0
-9 -353 0
-10 -354 0
-11 -355 0
-12 -356 0
-9 -361 0
-10 -362 0
-11 -363 0
-12 -364 0
-9 -381 0
-10 -382 0
-11 -383 0
-12 -384 0
-9 -385 0
-10 -386 0
-11 -387 0
-12 -388 0
-9 -389 0
-10 -390 0
-11 -391 0
-12 -392 0
-9 -393 0
-10 -394 0
-11 -395 0
-12 -396 0
-9 -397 0
-10 -398 0
-11 -399 0
-12 -400 0
-9 -405 0
-10 -406 0
-11 -407 0
-12 -408 0
-9 -413 0
-10 -414 0
-11 -415 0
-12 -416 0
-9 -417 0
-10 -418 0
-11 -419 0
-12 -420 0
-9 -421 0
-10 -422 0
-11 -423 0
-12 -424 0
-9 -429 0
-10 -430 0
-11 -431 0
-12 -432 0
-9 -441 0
-10 -442 0
-11 -443 0
-12 -444 0
-9 -445 0
-10 -446 0
-11 -447 0
-12 -448 0
-9 -453 0
-10 -454 0
-11 -455 0
-12 -456 0
-9 -469 0
-10 -470 0
-11 -471 0
-12 -472 0
-9 -497 0
-10 -498 0
-11 -499 0
-12 -500 0
-9 -505 0
-10 -506 0
-11 -507 0
-12 -508 0
-9 -521 0
-10 -522 0
-11 -523 0
-12 -524 0
-9 -525 0
-10 -526 0
-11 -527 0
-12 -528 0
-9 -529 0
-10 -530 0
-11 -531 0
-12 -532 0
-9 -541 0
-10 -542 0
-11 -543 0
-12 -544 0
-9 -545 0
-10 -546 0
-11 -547 0
-12 -548 0
-9 -573 0
-10 -574 0
-11 -575 0
-12 -576 0
-9 -577 0
-10 -578 0
-11 -579 0
-12 -580 0
-9 -581 0
-10 -582 0
-11 -583 0
-12 -584 0
-9 -589 0
-10 -590 0
-11 -591 0
-12 -592 0
-9 -597 0
-10 -598 0
-11 -599 0
-12 -600 0
-13 -17 0
-14 -18 0
-15 -19 0
-16 -20 0
-13 -33 0
-14 -34 0
-15 -35 0
-16 -36 0
-13 -49 0
-14 -50 0
-15 -51 0
-16 -52 0
-13 -53 0
-14 -54 0
-15 -55 0
-16 -56 0
-13 -57 0
-14 -58 0
-15 -59 0
-16 -60 0
-13 -61 0
-14 -62 0
-15 -63 0
-16 -64 0
-13 -65 0
-14 -66 0
-15 -67 0
-16 -68 0
-13 -73 0
-14 -74 0
-15 -75 0
-16 -76 0
-13 -81 0
-14 -82 0
-15 -83 0
-16 -84 0
-13 -85 0
-14 -86 0
-15 -87 0
-16 -88 0
-13 -89 0
-14 -90 0
-15 -91 0
-16 -92 0
-13 -93 0
-14 -94 0
-15 -95 0
-16 -96 0
-13 -101 0
-14 -102 0
-15 -103 0
-16 -104 0
-13 -105 0
-14 -106 0
-15 -107 0
-16 -108 0
-13 -109 0
-14 -110 0
-15 -111 0
-16 -112 0
-13 -117 0
-14 -118 0
-15 -119 0
-16 -120 0
-13 -125 0
-14 -126 0
-15 -127 0
-16 -128 0
-13 -141 0
-14 -142 0
-15 -143 0
-16 -144 0
-13 -153 0
-14 -154 0
-15 -155 0
-16 -156 0
-13 -161 0
-14 -162 0
-15 -163 0
-16 -164 0
-13 -173 0
-14 -174 0
-15 -175 0
-16 -176 0
-13 -185 0
-14 -186 0
-15 -187 0
-16 -188 0
-13 -193 0
-14 -194 0
-15 -195 0
-16 -196 0
-13 -205 0
-14 -206 0
-15 -207 0
-16 -208 0
-13 -213 0
-14 -214 0
-15 -215 0
-16 -216 0
-13 -217 0
-14 -218 0
-15 -219 0
-16 -220 0
-13 -221 0
-14 -222 0
-15 -223 0
-16 -224 0
-13 -225 0
-14 -226 0
-15 -227 0
-16 -228 0
-13 -229 0
-14 -230 0
-15 -231 0
-16 -232 0
-13 -237 0
-14 -238 0
-15 -239 0
-16 -240 0
-13 -249 0
-14 -250 0
-15 -251 0
-16 -252 0
-13 -253 0
-14 -254 0
-15 -255 0
-16 -256 0
-13 -265 0
-14 -266 0
-15 -267 0
-16 -268 0
-13 -269 0
-14 -270 0
-15 -271 0
-16 -272 0
-13 -273 0
-14 -274 0
-15 -275 0
-16 -276 0
-13 -277 0
-14 -278 0
-15 -279 0
-16 -280 0
-13 -289 0
-14 -290 0
-15 -291 0
-16 -292 0
-13 -293 0
-14 -294 0
-15 -295 0
-16 -296 0
-13 -297 0
-14 -298 0
-15 -299 0
-16 -300 0
-13 -309 0
-14 -310 0
-15 -311 0
-16 -312 0
-13 -313 0
-14 -314 0
-15 -315 0
-16 -316 0
-13 -325 0
-14 -326 0
-15 -327 0
-16 -328 0
-13 -329 0
-14 -330 0
-15 -331 0
-16 -332 0
-13 -341 0
-14 -342 0
-15 -343 0
-16 -344 0
-13 -349 0
-14 -350 0
-15 -351 0
-16 -352 0
-13 -357 0
-14 -358 0
-15 -359 0
-16 -360 0
-13 -365 0
-14 -366 0
-15 -367 0
-16 -368 0
-13 -369 0
-14 -370 0
-15 -371 0
-16 -372 0
-13 -373 0
-14 -374 0
-15 -375 0
-16 -376 0
-13 -393 0
-14 -394 0
-15 -395 0
-16 -396 0
-13 -421 0
-14 -422 0
-15 -423 0
-16 -424 0
-13 -425 0
-14 -426 0
-15 -427 0
-16 -428 0
-13 -433 0
-14 -434 0
-15 -435 0
-16 -436 0
-13 -437 0
-14 -438 0
-15 -439 0
-16 -440 0
-13 -449 0
-14 -450 0
-15 -451 0
-16 -452 0
-13 -457 0
-14 -458 0
-15 -459 0
-16 -460 0
-13 -461 0
-14 -462 0
-15 -463 0
-16 -464 0
-13 -469 0
-14 -470 0
-15 -471 0
-16 -472 0
-13 -473 0
-14 -474 0
-15 -475 0
-16 -476 0
-13 -477 0
-14 -478 0
-15 -479 0
-16 -480 0
-13 -485 0
-14 -486 0
-15 -487 0
-16 -488 0
-13 -489 0
-14 -490 0
-15 -491 0
-16 -492 0
-13 -493 0
-14 -494 0
-15 -495 0
-16 -496 0
-13 -497 0
-14 -498 0
-15 -499 0
-16 -500 0
-13 -509 0
-14 -510 0
-15 -511 0
-16 -512 0
-13 -513 0
-14 -514 0
-15 -515 0
-16 -516 0
-13 -517 0
-14 -518 0
-15 -519 0
-16 -520 0
-13 -533 0
-14 -534 0
-15 -535 0
-16 -536 0
-13 -541 0
-14 -542 0
-15 -543 0
-16 -544 0
-13 -549 0
-14 -550 0
-15 -551 0
-16 -552 0
-13 -553 0
-14 -554 0
-15 -555 0
-16 -556 0
-13 -561 0
-14 -562 0
-15 -563 0
-16 -564 0
-13 -569 0
-14 -570 0
-15 -571 0
-16 -572 0
-13 -577 0
-14 -578 0
-15 -579 0
-16 -580 0
-13 -585 0
-14 -586 0
-15 -587 0
-16 -588 0
-17 -21 0
-18 -22 0
-19 -23 0
-20 -24 0
-17 -25 0
-18 -26 0
-19 -27 0
-20 -28 0
-17 -29 0
-18 -30 0
-19 -31 0
-20 -32 0
-17 -33 0
-18 -34 0
-19 -35 0
-20 -36 0
-17 -37 0
-18 -38 0
-19 -39 0
-20 -40 0
-17 -41 0
-18 -42 0
-19 -43 0
-20 -44 0
-17 -45 0
-18 -46 0
-19 -47 0
-20 -48 0
-17 -69 0
-18 -70 0
-19 -71 0
-20 -72 0
-17 -73 0
-18 -74 0
-19 -75 0
-20 -76 0
-17 -81 0
-18 -82 0
-19 -83 0
-20 -84 0
-17 -85 0
-18 -86 0
-19 -87 0
-20 -88 0
-17 -89 0
-18 -90 0
-19 -91 0
-20 -92 0
-17 -93 0
-18 -94 0
-19 -95 0
-20 -96 0
-17 -97 0
-18 -98 0
-19 -99 0
-20 -100 0
-17 -101 0
-18 -102 0
-19 -103 0
-20 -104 0
-17 -105 0
-18 -106 0
-19 -107 0
-20 -108 0
-17 -113 0
-18 -114 0
-19 -115 0
-20 -116 0
-17 -117 0
-18 -118 0
-19 -119 0
-20 -120 0
-17 -121 0
-18 -122 0
-19 -123 0
-20 -124 0
-17 -125 0
-18 -126 0
-19 -127 0
-20 -128 0
-17 -137 0
-18 -138 0
-19 -139 0
-20 -140 0
-17 -141 0
-18 -142 0
-19 -143 0
-20 -144 0
-17 -145 0
-18 -146 0
-19 -147 0
-20 -148 0
-17 -157 0
-18 -158 0
-19 -159 0
-20 -160 0
-17 -165 0
-18 -166 0
-19 -167 0
-20 -168 0
-17 -169 0
-18 -170 0
-19 -171 0
-20 -172 0
-17 -181 0
-18 -182 0
-19 -183 0
-20 -184 0
-17 -189 0
-18 -190 0
-19 -191 0
-20 -192 0
-17 -197 0
-18 -198 0
-19 -199 0
-20 -200 0
-17 -213 0
-18 -214 0
-19 -215 0
-20 -216 0
-17 -221 0
-18 -222 0
-19 -223 0
-20 -224 0
-17 -225 0
-18 -226 0
-19 -227 0
-20 -228 0
-17 -253 0
-18 -254 0
-19 -255 0
-20 -256 0
-17 -257 0
-18 -258 0
-19 -259 0
-20 -260 0
-17 -265 0
-18 -266 0
-19 -267 0
-20 -268 0
-17 -277 0
-18 -278 0
-19 -279 0
-20 -280 0
-17 -281 0
-18 -282 0
-19 -283 0
-20 -284 0
-17 -289 0
-18 -290 0
-19 -291 0
-20 -292 0
-17 -297 0
-18 -298 0
-19 -299 0
-20 -300 0
-17 -301 0
-18 -302 0
-19 -303 0
-20 -304 0
-17 -305 0
-18 -306 0
-19 -307 0
-20 -308 0
-17 -309 0
-18 -310 0
-19 -311 0
-20 -312 0
-17 -313 0
-18 -314 0
-19 -315 0
-20 -316 0
-17 -317 0
-18 -318 0
-19 -319 0
-20 -320 0
-17 -349 0
-18 -350 0
-19 -351 0
-20 -352 0
-17 -353 0
-18 -354 0
-19 -355 0
-20 -356 0
-17 -361 0
-18 -362 0
-19 -363 0
-20 -364 0
-17 -369 0
-18 -370 0
-19 -371 0
-20 -372 0
-17 -381 0
-18 -382 0
-19 -383 0
-20 -384 0
-17 -385 0
-18 -386 0
-19 -387 0
-20 -388 0
-17 -389 0
-18 -390 0
-19 -391 0
-20 -392 0
-17 -397 0
-18 -398 0
-19 -399 0
-20 -400 0
-17 -401 0
-18 -402 0
-19 -403 0
-20 -404 0
-17 -405 0
-18 -406 0
-19 -407 0
-20 -408 0
-17 -409 0
-18 -410 0
-19 -411 0
-20 -412 0
-17 -413 0
-18 -414 0
-19 -415 0
-20 -416 0
-17 -425 0
-18 -426 0
-19 -427 0
-20 -428 0
-17 -433 0
-18 -434 0
-19 -435 0
-20 -436 0
-17 -441 0
-18 -442 0
-19 -443 0
-20 -444 0
-17 -445 0
-18 -446 0
-19 -447 0
-20 -448 0
-17 -449 0
-18 -450 0
-19 -451 0
-20 -452 0
-17 -457 0
-18 -458 0
-19 -459 0
-20 -460 0
-17 -461 0
-18 -462 0
-19 -463 0
-20 -464 0
-17 -473 0
-18 -474 0
-19 -475 0
-20 -476 0
-17 -485 0
-18 -486 0
-19 -487 0
-20 -488 0
-17 -489 0
-18 -490 0
-19 -491 0
-20 -492 0
-17 -493 0
-18 -494 0
-19 -495 0
-20 -496 0
-17 -497 0
-18 -498 0
-19 -499 0
-20 -500 0
-17 -501 0
-18 -502 0
-19 -503 0
-20 -504 0
-17 -505 0
-18 -506 0
-19 -507 0
-20 -508 0
-17 -509 0
-18 -510 0
-19 -511 0
-20 -512 0
-17 -513 0
-18 -514 0
-19 -515 0
-20 -516 0
-17 -521 0
-18 -522 0
-19 -523 0
-20 -524 0
-17 -525 0
-18 -526 0
-19 -527 0
-20 -528 0
-17 -529 0
-18 -530 0
-19 -531 0
-20 -532 0
-17 -545 0
-18 -546 0
-19 -547 0
-20 -548 0
-17 -553 0
-18 -554 0
-19 -555 0
-20 -556 0
-17 -561 0
-18 -562 0
-19 -563 0
-20 -564 0
-17 -585 0
-18 -586 0
-19 -587 0
-20 -588 0
-21 -29 0
-22 -30 0
-23 -31 0
-24 -32 0
-21 -33 0
-22 -34 0
-23 -35 0
-24 -36 0
-21 -37 0
-22 -38 0
-23 -39 0
-24 -40 0
-21 -53 0
-22 -54 0
-23 -55 0
-24 -56 0
-21 -57 0
-22 -58 0
-23 -59 0
-24 -60 0
-21 -61 0
-22 -62 0
-23 -63 0
-24 -64 0
-21 -65 0
-22 -66 0
-23 -67 0
-24 -68 0
-21 -69 0
-22 -70 0
-23 -71 0
-24 -72 0
-21 -73 0
-22 -74 0
-23 -75 0
-24 -76 0
-21 -77 0
-22 -78 0
-23 -79 0
-24 -80 0
-21 -85 0
-22 -86 0
-23 -87 0
-24 -88 0
-21 -93 0
-22 -94 0
-23 -95 0
-24 -96 0
-21 -101 0
-22 -102 0
-23 -103 0
-24 -104 0
-21 -109 0
-22 -110 0
-23 -111 0
-24 -112 0
-21 -117 0
-22 -118 0
-23 -119 0
-24 -120 0
-21 -121 0
-22 -122 0
-23 -123 0
-24 -124 0
-21 -125 0
-22 -126 0
-23 -127 0
-24 -128 0
-21 -129 0
-22 -130 0
-23 -131 0
-24 -132 0
-21 -133 0
-22 -134 0
-23 -135 0
-24 -136 0
-21 -141 0
-22 -142 0
-23 -143 0
-24 -144 0
-21 -145 0
-22 -146 0
-23 -147 0
-24 -148 0
-21 -153 0
-22 -154 0
-23 -155 0
-24 -156 0
-21 -157 0
-22 -158 0
-23 -159 0
-24 -160 0
-21 -161 0
-22 -162 0
-23 -163 0
-24 -164 0
-21 -173 0
-22 -174 0
-23 -175 0
-24 -176 0
-21 -177 0
-22 -178 0
-23 -179 0
-24 -180 0
-21 -193 0
-22 -194 0
-23 -195 0
-24 -196 0
-21 -197 0
-22 -198 0
-23 -199 0
-24 -200 0
-21 -201 0
-22 -202 0
-23 -203 0
-24 -204 0
-21 -205 0
-22 -206 0
-23 -207 0
-24 -208 0
-21 -213 0
-22 -214 0
-23 -215 0
-24 -216 0
-21 -217 0
-22 -218 0
-23 -219 0
-24 -220 0
-21 -221 0
-22 -222 0
-23 -223 0
-24 -224 0
-21 -237 0
-22 -238 0
-23 -239 0
-24 -240 0
-21 -241 0
-22 -242 0
-23 -243 0
-24 -244 0
-21 -245 0
-22 -246 0
-23 -247 0
-24 -248 0
-21 -249 0
-22 -250 0
-23 -251 0
-24 -252 0
-21 -253 0
-22 -254 0
-23 -255 0
-24 -256 0
-21 -257 0
-22 -258 0
-23 -259 0
-24 -260 0
-21 -265 0
-22 -266 0
-23 -267 0
-24 -268 0
-21 -269 0
-22 -270 0
-23 -271 0
-24 -272 0
-21 -273 0
-22 -274 0
-23 -275 0
-24 -276 0
-21 -289 0
-22 -290 0
-23 -291 0
-24 -292 0
-21 -293 0
-22 -294 0
-23 -295 0
-24 -296 0
-21 -297 0
-22 -298 0
-23 -299 0
-24 -300 0
-21 -317 0
-22 -318 0
-23 -319 0
-24 -320 0
-21 -325 0
-22 -326 0
-23 -327 0
-24 -328 0
-21 -329 0
-22 -330 0
-23 -331 0
-24 -332 0
-21 -333 0
-22 -334 0
-23 -335 0
-24 -336 0
-21 -341 0
-22 -342 0
-23 -343 0
-24 -344 0
-21 -365 0
-22 -366 0
-23 -367 0
-24 -368 0
-21 -369 0
-22 -370 0
-23 -371 0
-24 -372 0
-21 -373 0
-22 -374 0
-23 -375 0
-24 -376 0
-21 -389 0
-22 -390 0
-23 -391 0
-24 -392 0
-21 -393 0
-22 -394 0
-23 -395 0
-24 -396 0
-21 -397 0
-22 -398 0
-23 -399 0
-24 -400 0
-21 -417 0
-22 -418 0
-23 -419 0
-24 -420 0
-21 -433 0
-22 -434 0
-23 -435 0
-24 -436 0
-21 -437 0
-22 -438 0
-23 -439 0
-24 -440 0
-21 -465 0
-22 -466 0
-23 -467 0
-24 -468 0
-21 -469 0
-22 -470 0
-23 -471 0
-24 -472 0
-21 -477 0
-22 -478 0
-23 -479 0
-24 -480 0
-21 -481 0
-22 -482 0
-23 -483 0
-24 -484 0
-21 -485 0
-22 -486 0
-23 -487 0
-24 -488 0
-21 -489 0
-22 -490 0
-23 -491 0
-24 -492 0
-21 -493 0
-22 -494 0
-23 -495 0
-24 -496 0
-21 -497 0
-22 -498 0
-23 -499 0
-24 -500 0
-21 -501 0
-22 -502 0
-23 -503 0
-24 -504 0
-21 -509 0
-22 -510 0
-23 -511 0
-24 -512 0
-21 -513 0
-22 -514 0
-23 -515 0
-24 -516 0
-21 -521 0
-22 -522 0
-23 -523 0
-24 -524 0
-21 -537 0
-22 -538 0
-23 -539 0
-24 -540 0
-21 -541 0
-22 -542 0
-23 -543 0
-24 -544 0
-21 -549 0
-22 -550 0
-23 -551 0
-24 -552 0
-21 -553 0
-22 -554 0
-23 -555 0
-24 -556 0
-21 -557 0
-22 -558 0
-23 -559 0
-24 -560 0
-21 -561 0
-22 -562 0
-23 -563 0
-24 -564 0
-21 -577 0
-22 -578 0
-23 -579 0
-24 -580 0
-21 -585 0
-22 -586 0
-23 -587 0
-24 -588 0
-21 -593 0
-22 -594 0
-23 -595 0
-24 -596 0
-25 -29 0
-26 -30 0
-27 -31 0
-28 -32 0
-25 -53 0
-26 -54 0
-27 -55 0
-28 -56 0
-25 -57 0
-26 -58 0
-27 -59 0
-28 -60 0
-25 -77 0
-26 -78 0
-27 -79 0
-28 -80 0
-25 -81 0
-26 -82 0
-27 -83 0
-28 -84 0
-25 -85 0
-26 -86 0
-27 -87 0
-28 -88 0
-25 -93 0
-26 -94 0
-27 -95 0
-28 -96 0
-25 -109 0
-26 -110 0
-27 -111 0
-28 -112 0
-25 -117 0
-26 -118 0
-27 -119 0
-28 -120 0
-25 -121 0
-26 -122 0
-27 -123 0
-28 -124 0
-25 -125 0
-26 -126 0
-27 -127 0
-28 -128 0
-25 -129 0
-26 -130 0
-27 -131 0
-28 -132 0
-25 -133 0
-26 -134 0
-27 -135 0
-28 -136 0
-25 -141 0
-26 -142 0
-27 -143 0
-28 -144 0
-25 -145 0
-26 -146 0
-27 -147 0
-28 -148 0
-25 -161 0
-26 -162 0
-27 -163 0
-28 -164 0
-25 -173 0
-26 -174 0
-27 -175 0
-28 -176 0
-25 -177 0
-26 -178 0
-27 -179 0
-28 -180 0
-25 -185 0
-26 -186 0
-27 -187 0
-28 -188 0
-25 -193 0
-26 -194 0
-27 -195 0
-28 -196 0
-25 -197 0
-26 -198 0
-27 -199 0
-28 -200 0
-25 -201 0
-26 -202 0
-27 -203 0
-28 -204 0
-25 -205 0
-26 -206 0
-27 -207 0
-28 -208 0
-25 -213 0
-26 -214 0
-27 -215 0
-28 -216 0
-25 -225 0
-26 -226 0
-27 -227 0
-28 -228 0
-25 -237 0
-26 -238 0
-27 -239 0
-28 -240 0
-25 -245 0
-26 -246 0
-27 -247 0
-28 -248 0
-25 -249 0
-26 -250 0
-27 -251 0
-28 -252 0
-25 -253 0
-26 -254 0
-27 -255 0
-28 -256 0
-25 -265 0
-26 -266 0
-27 -267 0
-28 -268 0
-25 -269 0
-26 -270 0
-27 -271 0
-28 -272 0
-25 -273 0
-26 -274 0
-27 -275 0
-28 -276 0
-25 -289 0
-26 -290 0
-27 -291 0
-28 -292 0
-25 -309 0
-26 -310 0
-27 -311 0
-28 -312 0
-25 -317 0
-26 -318 0
-27 -319 0
-28 -320 0
-25 -321 0
-26 -322 0
-27 -323 0
-28 -324 0
-25 -329 0
-26 -330 0
-27 -331 0
-28 -332 0
-25 -349 0
-26 -350 0
-27 -351 0
-28 -352 0
-25 -357 0
-26 -358 0
-27 -359 0
-28 -360 0
-25 -369 0
-26 -370 0
-27 -371 0
-28 -372 0
-25 -373 0
-26 -374 0
-27 -375 0
-28 -376 0
-25 -389 0
-26 -390 0
-27 -391 0
-28 -392 0
-25 -393 0
-26 -394 0
-27 -395 0
-28 -396 0
-25 -413 0
-26 -414 0
-27 -415 0
-28 -416 0
-25 -417 0
-26 -418 0
-27 -419 0
-28 -420 0
-25 -425 0
-26 -426 0
-27 -427 0
-28 -428 0
-25 -437 0
-26 -438 0
-27 -439 0
-28 -440 0
-25 -441 0
-26 -442 0
-27 -443 0
-28 -444 0
-25 -449 0
-26 -450 0
-27 -451 0
-28 -452 0
-25 -469 0
-26 -470 0
-27 -471 0
-28 -472 0
-25 -473 0
-26 -474 0
-27 -475 0
-28 -476 0
-25 -477 0
-26 -478 0
-27 -479 0
-28 -480 0
-25 -485 0
-26 -486 0
-27 -487 0
-28 -488 0
-25 -489 0
-26 -490 0
-27 -491 0
-28 -492 0
-25 -493 0
-26 -494 0
-27 -495 0
-28 -496 0
-25 -501 0
-26 -502 0
-27 -503 0
-28 -504 0
-25 -517 0
-26 -518 0
-27 -519 0
-28 -520 0
-25 -521 0
-26 -522 0
-27 -523 0
-28 -524 0
-25 -537 0
-26 -538 0
-27 -539 0
-28 -540 0
-25 -545 0
-26 -546 0
-27 -547 0
-28 -548 0
-25 -549 0
-26 -550 0
-27 -551 0
-28 -552 0
-25 -557 0
-26 -558 0
-27 -559 0
-28 -560 0
-25 -561 0
-26 -562 0
-27 -563 0
-28 -564 0
-25 -569 0
-26 -570 0
-27 -571 0
-28 -572 0
-25 -573 0
-26 -574 0
-27 -575 0
-28 -576 0
-25 -577 0
-26 -578 0
-27 -579 0
-28 -580 0
-25 -585 0
-26 -586 0
-27 -587 0
-28 -588 0
-29 -37 0
-30 -38 0
-31 -39 0
-32 -40 0
-29 -49 0
-30 -50 0
-31 -51 0
-32 -52 0
-29 -53 0
-30 -54 0
-31 -55 0
-32 -56 0
-29 -57 0
-30 -58 0
-31 -59 0
-32 -60 0
-29 -77 0
-30 -78 0
-31 -79 0
-32 -80 0
-29 -85 0
-30 -86 0
-31 -87 0
-32 -88 0
-29 -89 0
-30 -90 0
-31 -91 0
-32 -92 0
-29 -101 0
-30 -102 0
-31 -103 0
-32 -104 0
-29 -109 0
-30 -110 0
-31 -111 0
-32 -112 0
-29 -117 0
-30 -118 0
-31 -119 0
-32 -120 0
-29 -121 0
-30 -122 0
-31 -123 0
-32 -124 0
-29 -125 0
-30 -126 0
-31 -127 0
-32 -128 0
-29 -133 0
-30 -134 0
-31 -135 0
-32 -136 0
-29 -137 0
-30 -138 0
-31 -139 0
-32 -140 0
-29 -141 0
-30 -142 0
-31 -143 0
-32 -144 0
-29 -149 0
-30 -150 0
-31 -151 0
-32 -152 0
-29 -157 0
-30 -158 0
-31 -159 0
-32 -160 0
-29 -161 0
-30 -162 0
-31 -163 0
-32 -164 0
-29 -165 0
-30 -166 0
-31 -167 0
-32 -168 0
-29 -173 0
-30 -174 0
-31 -175 0
-32 -176 0
-29 -181 0
-30 -182 0
-31 -183 0
-32 -184 0
-29 -185 0
-30 -186 0
-31 -187 0
-32 -188 0
-29 -201 0
-30 -202 0
-31 -203 0
-32 -204 0
-29 -209 0
-30 -210 0
-31 -211 0
-32 -212 0
-29 -229 0
-30 -230 0
-31 -231 0
-32 -232 0
-29 -237 0
-30 -238 0
-31 -239 0
-32 -240 0
-29 -241 0
-30 -242 0
-31 -243 0
-32 -244 0
-29 -245 0
-30 -246 0
-31 -247 0
-32 -248 0
-29 -257 0
-30 -258 0
-31 -259 0
-32 -260 0
-29 -269 0
-30 -270 0
-31 -271 0
-32 -272 0
-29 -273 0
-30 -274 0
-31 -275 0
-32 -276 0
-29 -281 0
-30 -282 0
-31 -283 0
-32 -284 0
-29 -285 0
-30 -286 0
-31 -287 0
-32 -288 0
-29 -293 0
-30 -294 0
-31 -295 0
-32 -296 0
-29 -297 0
-30 -298 0
-31 -299 0
-32 -300 0
-29 -301 0
-30 -302 0
-31 -303 0
-32 -304 0
-29 -305 0
-30 -306 0
-31 -307 0
-32 -308 0
-29 -313 0
-30 -314 0
-31 -315 0
-32 -316 0
-29 -317 0
-30 -318 0
-31 -319 0
-32 -320 0
-29 -321 0
-30 -322 0
-31 -323 0
-32 -324 0
-29 -353 0
-30 -354 0
-31 -355 0
-32 -356 0
-29 -357 0
-30 -358 0
-31 -359 0
-32 -360 0
-29 -361 0
-30 -362 0
-31 -363 0
-32 -364 0
-29 -373 0
-30 -374 0
-31 -375 0
-32 -376 0
-29 -377 0
-30 -378 0
-31 -379 0
-32 -380 0
-29 -385 0
-30 -386 0
-31 -387 0
-32 -388 0
-29 -389 0
-30 -390 0
-31 -391 0
-32 -392 0
-29 -393 0
-30 -394 0
-31 -395 0
-32 -396 0
-29 -397 0
-30 -398 0
-31 -399 0
-32 -400 0
-29 -401 0
-30 -402 0
-31 -403 0
-32 -404 0
-29 -405 0
-30 -406 0
-31 -407 0
-32 -408 0
-29 -409 0
-30 -410 0
-31 -411 0
-32 -412 0
-29 -413 0
-30 -414 0
-31 -415 0
-32 -416 0
-29 -417 0
-30 -418 0
-31 -419 0
-32 -420 0
-29 -421 0
-30 -422 0
-31 -423 0
-32 -424 0
-29 -429 0
-30 -430 0
-31 -431 0
-32 -432 0
-29 -437 0
-30 -438 0
-31 -439 0
-32 -440 0
-29 -441 0
-30 -442 0
-31 -443 0
-32 -444 0
-29 -445 0
-30 -446 0
-31 -447 0
-32 -448 0
-29 -465 0
-30 -466 0
-31 -467 0
-32 -468 0
-29 -469 0
-30 -470 0
-31 -471 0
-32 -472 0
-29 -481 0
-30 -482 0
-31 -483 0
-32 -484 0
-29 -489 0
-30 -490 0
-31 -491 0
-32 -492 0
-29 -497 0
-30 -498 0
-31 -499 0
-32 -500 0
-29 -517 0
-30 -518 0
-31 -519 0
-32 -520 0
-29 -521 0
-30 -522 0
-31 -523 0
-32 -524 0
-29 -541 0
-30 -542 0
-31 -543 0
-32 -544 0
-29 -545 0
-30 -546 0
-31 -547 0
-32 -548 0
-29 -549 0
-30 -550 0
-31 -551 0
-32 -552 0
-29 -589 0
-30 -590 0
-31 -591 0
-32 -592 0
-29 -593 0
-30 -594 0
-31 -595 0
-32 -596 0
-29 -597 0
-30 -598 0
-31 -599 0
-32 -600 0
-33 -37 0
-34 -38 0
-35 -39 0
-36 -40 0
-33 -41 0
-34 -42 0
-35 -43 0
-36 -44 0
-33 -45 0
-34 -46 0
-35 -47 0
-36 -48 0
-33 -49 0
-34 -50 0
-35 -51 0
-36 -52 0
-33 -53 0
-34 -54 0
-35 -55 0
-36 -56 0
-33 -57 0
-34 -58 0
-35 -59 0
-36 -60 0
-33 -61 0
-34 -62 0
-35 -63 0
-36 -64 0
-33 -65 0
-34 -66 0
-35 -67 0
-36 -68 0
-33 -85 0
-34 -86 0
-35 -87 0
-36 -88 0
-33 -89 0
-34 -90 0
-35 -91 0
-36 -92 0
-33 -97 0
-34 -98 0
-35 -99 0
-36 -100 0
-33 -101 0
-34 -102 0
-35 -103 0
-36 -104 0
-33 -113 0
-34 -114 0
-35 -115 0
-36 -116 0
-33 -117 0
-34 -118 0
-35 -119 0
-36 -120 0
-33 -125 0
-34 -126 0
-35 -127 0
-36 -128 0
-33 -133 0
-34 -134 0
-35 -135 0
-36 -136 0
-33 -137 0
-34 -138 0
-35 -139 0
-36 -140 0
-33 -141 0
-34 -142 0
-35 -143 0
-36 -144 0
-33 -161 0
-34 -162 0
-35 -163 0
-36 -164 0
-33 -165 0
-34 -166 0
-35 -167 0
-36 -168 0
-33 -169 0
-34 -170 0
-35 -171 0
-36 -172 0
-33 -173 0
-34 -174 0
-35 -175 0
-36 -176 0
-33 -177 0
-34 -178 0
-35 -179 0
-36 -180 0
-33 -181 0
-34 -182 0
-35 -183 0
-36 -184 0
-33 -185 0
-34 -186 0
-35 -187 0
-36 -188 0
-33 -189 0
-34 -190 0
-35 -191 0
-36 -192 0
-33 -197 0
-34 -198 0
-35 -199 0
-36 -200 0
-33 -201 0
-34 -202 0
-35 -203 0
-36 -204 0
-33 -229 0
-34 -230 0
-35 -231 0
-36 -232 0
-33 -241 0
-34 -242 0
-35 -243 0
-36 -244 0
-33 -245 0
-34 -246 0
-35 -247 0
-36 -248 0
-33 -249 0
-34 -250 0
-35 -251 0
-36 -252 0
-33 -257 0
-34 -258 0
-35 -259 0
-36 -260 0
-33 -269 0
-34 -270 0
-35 -271 0
-36 -272 0
-33 -273 0
-34 -274 0
-35 -275 0
-36 -276 0
-33 -281 0
-34 -282 0
-35 -283 0
-36 -284 0
-33 -285 0
-34 -286 0
-35 -287 0
-36 -288 0
-33 -293 0
-34 -294 0
-35 -295 0
-36 -296 0
-33 -297 0
-34 -298 0
-35 -299 0
-36 -300 0
-33 -309 0
-34 -310 0
-35 -311 0
-36 -312 0
-33 -313 0
-34 -314 0
-35 -315 0
-36 -316 0
-33 -317 0
-34 -318 0
-35 -319 0
-36 -320 0
-33 -321 0
-34 -322 0
-35 -323 0
-36 -324 0
-33 -325 0
-34 -326 0
-35 -327 0
-36 -328 0
-33 -329 0
-34 -330 0
-35 -331 0
-36 -332 0
-33 -345 0
-34 -346 0
-35 -347 0
-36 -348 0
-33 -349 0
-34 -350 0
-35 -351 0
-36 -352 0
-33 -353 0
-34 -354 0
-35 -355 0
-36 -356 0
-33 -357 0
-34 -358 0
-35 -359 0
-36 -360 0
-33 -361 0
-34 -362 0
-35 -363 0
-36 -364 0
-33 -365 0
-34 -366 0
-35 -367 0
-36 -368 0
-33 -373 0
-34 -374 0
-35 -375 0
-36 -376 0
-33 -377 0
-34 -378 0
-35 -379 0
-36 -380 0
-33 -381 0
-34 -382 0
-35 -383 0
-36 -384 0
-33 -389 0
-34 -390 0
-35 -391 0
-36 -392 0
-33 -397 0
-34 -398 0
-35 -399 0
-36 -400 0
-33 -401 0
-34 -402 0
-35 -403 0
-36 -404 0
-33 -409 0
-34 -410 0
-35 -411 0
-36 -412 0
-33 -413 0
-34 -414 0
-35 -415 0
-36 -416 0
-33 -429 0
-34 -430 0
-35 -431 0
-36 -432 0
-33 -437 0
-34 -438 0
-35 -439 0
-36 -440 0
-33 -445 0
-34 -446 0
-35 -447 0
-36 -448 0
-33 -453 0
-34 -454 0
-35 -455 0
-36 -456 0
-33 -465 0
-34 -466 0
-35 -467 0
-36 -468 0
-33 -469 0
-34 -470 0
-35 -471 0
-36 -472 0
-33 -481 0
-34 -482 0
-35 -483 0
-36 -484 0
-33 -489 0
-34 -490 0
-35 -491 0
-36 -492 0
-33 -497 0
-34 -498 0
-35 -499 0
-36 -500 0
-33 -505 0
-34 -506 0
-35 -507 0
-36 -508 0
-33 -517 0
-34 -518 0
-35 -519 0
-36 -520 0
-33 -521 0
-34 -522 0
-35 -523 0
-36 -524 0
-33 -525 0
-34 -526 0
-35 -527 0
-36 -528 0
-33 -529 0
-34 -530 0
-35 -531 0
-36 -532 0
-33 -545 0
-34 -546 0
-35 -547 0
-36 -548 0
-33 -549 0
-34 -550 0
-35 -551 0
-36 -552 0
-33 -565 0
-34 -566 0
-35 -567 0
-36 -568 0
-33 -573 0
-34 -574 0
-35 -575 0
-36 -576 0
-33 -577 0
-34 -578 0
-35 -579 0
-36 -580 0
-33 -593 0
-34 -594 0
-35 -595 0
-36 -596 0
-33 -597 0
-34 -598 0
-35 -599 0
-36 -600 0
-37 -49 0
-38 -50 0
-39 -51 0
-40 -52 0
-37 -69 0
-38 -70 0
-39 -71 0
-40 -72 0
-37 -73 0
-38 -74 0
-39 -75 0
-40 -76 0
-37 -93 0
-38 -94 0
-39 -95 0
-40 -96 0
-37 -97 0
-38 -98 0
-39 -99 0
-40 -100 0
-37 -109 0
-38 -110 0
-39 -111 0
-40 -112 0
-37 -113 0
-38 -114 0
-39 -115 0
-40 -116 0
-37 -133 0
-38 -134 0
-39 -135 0
-40 -136 0
-37 -137 0
-38 -138 0
-39 -139 0
-40 -140 0
-37 -145 0
-38 -146 0
-39 -147 0
-40 -148 0
-37 -149 0
-38 -150 0
-39 -151 0
-40 -152 0
-37 -165 0
-38 -166 0
-39 -167 0
-40 -168 0
-37 -169 0
-38 -170 0
-39 -171 0
-40 -172 0
-37 -173 0
-38 -174 0
-39 -175 0
-40 -176 0
-37 -177 0
-38 -178 0
-39 -179 0
-40 -180 0
-37 -185 0
-38 -186 0
-39 -187 0
-40 -188 0
-37 -189 0
-38 -190 0
-39 -191 0
-40 -192 0
-37 -201 0
-38 -202 0
-39 -203 0
-40 -204 0
-37 -205 0
-38 -206 0
-39 -207 0
-40 -208 0
-37 -209 0
-38 -210 0
-39 -211 0
-40 -212 0
-37 -213 0
-38 -214 0
-39 -215 0
-40 -216 0
-37 -217 0
-38 -218 0
-39 -219 0
-40 -220 0
-37 -221 0
-38 -222 0
-39 -223 0
-40 -224 0
-37 -229 0
-38 -230 0
-39 -231 0
-40 -232 0
-37 -233 0
-38 -234 0
-39 -235 0
-40 -236 0
-37 -253 0
-38 -254 0
-39 -255 0
-40 -256 0
-37 -265 0
-38 -266 0
-39 -267 0
-40 -268 0
-37 -269 0
-38 -270 0
-39 -271 0
-40 -272 0
-37 -285 0
-38 -286 0
-39 -287 0
-40 -288 0
-37 -289 0
-38 -290 0
-39 -291 0
-40 -292 0
-37 -293 0
-38 -294 0
-39 -295 0
-40 -296 0
-37 -305 0
-38 -306 0
-39 -307 0
-40 -308 0
-37 -333 0
-38 -334 0
-39 -335 0
-40 -336 0
-37 -337 0
-38 -338 0
-39 -339 0
-40 -340 0
-37 -341 0
-38 -342 0
-39 -343 0
-40 -344 0
-37 -345 0
-38 -346 0
-39 -347 0
-40 -348 0
-37 -353 0
-38 -354 0
-39 -355 0
-40 -356 0
-37 -357 0
-38 -358 0
-39 -359 0
-40 -360 0
-37 -361 0
-38 -362 0
-39 -363 0
-40 -364 0
-37 -369 0
-38 -370 0
-39 -371 0
-40 -372 0
-37 -373 0
-38 -374 0
-39 -375 0
-40 -376 0
-37 -381 0
-38 -382 0
-39 -383 0
-40 -384 0
-37 -385 0
-38 -386 0
-39 -387 0
-40 -388 0
-37 -393 0
-38 -394 0
-39 -395 0
-40 -396 0
-37 -405 0
-38 -406 0
-39 -407 0
-40 -408 0
-37 -409 0
-38 -410 0
-39 -411 0
-40 -412 0
-37 -417 0
-38 -418 0
-39 -419 0
-40 -420 0
-37 -425 0
-38 -426 0
-39 -427 0
-40 -428 0
-37 -429 0
-38 -430 0
-39 -431 0
-40 -432 0
-37 -445 0
-38 -446 0
-39 -447 0
-40 -448 0
-37 -449 0
-38 -450 0
-39 -451 0
-40 -452 0
-37 -453 0
-38 -454 0
-39 -455 0
-40 -456 0
-37 -461 0
-38 -462 0
-39 -463 0
-40 -464 0
-37 -465 0
-38 -466 0
-39 -467 0
-40 -468 0
-37 -469 0
-38 -470 0
-39 -471 0
-40 -472 0
-37 -477 0
-38 -478 0
-39 -479 0
-40 -480 0
-37 -485 0
-38 -486 0
-39 -487 0
-40 -488 0
-37 -493 0
-38 -494 0
-39 -495 0
-40 -496 0
-37 -501 0
-38 -502 0
-39 -503 0
-40 -504 0
-37 -505 0
-38 -506 0
-39 -507 0
-40 -508 0
-37 -509 0
-38 -510 0
-39 -511 0
-40 -512 0
-37 -513 0
-38 -514 0
-39 -515 0
-40 -516 0
-37 -517 0
-38 -518 0
-39 -519 0
-40 -520 0
-37 -529 0
-38 -530 0
-39 -531 0
-40 -532 0
-37 -537 0
-38 -538 0
-39 -539 0
-40 -540 0
-37 -541 0
-38 -542 0
-39 -543 0
-40 -544 0
-37 -549 0
-38 -550 0
-39 -551 0
-40 -552 0
-37 -553 0
-38 -554 0
-39 -555 0
-40 -556 0
-37 -557 0
-38 -558 0
-39 -559 0
-40 -560 0
-37 -561 0
-38 -562 0
-39 -563 0
-40 -564 0
-37 -565 0
-38 -566 0
-39 -567 0
-40 -568 0
-37 -569 0
-38 -570 0
-39 -571 0
-40 -572 0
-37 -573 0
-38 -574 0
-39 -575 0
-40 -576 0
-37 -577 0
-38 -578 0
-39 -579 0
-40 -580 0
-37 -581 0
-38 -582 0
-39 -583 0
-40 -584 0
-37 -585 0
-38 -586 0
-39 -587 0
-40 -588 0
-37 -589 0
-38 -590 0
-39 -591 0
-40 -592 0
-37 -593 0
-38 -594 0
-39 -595 0
-40 -596 0
-37 -597 0
-38 -598 0
-39 -599 0
-40 -600 0
-41 -53 0
-42 -54 0
-43 -55 0
-44 -56 0
-41 -57 0
-42 -58 0
-43 -59 0
-44 -60 0
-41 -65 0
-42 -66 0
-43 -67 0
-44 -68 0
-41 -69 0
-42 -70 0
-43 -71 0
-44 -72 0
-41 -73 0
-42 -74 0
-43 -75 0
-44 -76 0
-41 -77 0
-42 -78 0
-43 -79 0
-44 -80 0
-41 -81 0
-42 -82 0
-43 -83 0
-44 -84 0
-41 -85 0
-42 -86 0
-43 -87 0
-44 -88 0
-41 -93 0
-42 -94 0
-43 -95 0
-44 -96 0
-41 -101 0
-42 -102 0
-43 -103 0
-44 -104 0
-41 -105 0
-42 -106 0
-43 -107 0
-44 -108 0
-41 -109 0
-42 -110 0
-43 -111 0
-44 -112 0
-41 -121 0
-42 -122 0
-43 -123 0
-44 -124 0
-41 -133 0
-42 -134 0
-43 -135 0
-44 -136 0
-41 -141 0
-42 -142 0
-43 -143 0
-44 -144 0
-41 -145 0
-42 -146 0
-43 -147 0
-44 -148 0
-41 -157 0
-42 -158 0
-43 -159 0
-44 -160 0
-41 -161 0
-42 -162 0
-43 -163 0
-44 -164 0
-41 -173 0
-42 -174 0
-43 -175 0
-44 -176 0
-41 -177 0
-42 -178 0
-43 -179 0
-44 -180 0
-41 -185 0
-42 -186 0
-43 -187 0
-44 -188 0
-41 -197 0
-42 -198 0
-43 -199 0
-44 -200 0
-41 -201 0
-42 -202 0
-43 -203 0
-44 -204 0
-41 -205 0
-42 -206 0
-43 -207 0
-44 -208 0
-41 -225 0
-42 -226 0
-43 -227 0
-44 -228 0
-41 -233 0
-42 -234 0
-43 -235 0
-44 -236 0
-41 -237 0
-42 -238 0
-43 -239 0
-44 -240 0
-41 -245 0
-42 -246 0
-43 -247 0
-44 -248 0
-41 -253 0
-42 -254 0
-43 -255 0
-44 -256 0
-41 -257 0
-42 -258 0
-43 -259 0
-44 -260 0
-41 -265 0
-42 -266 0
-43 -267 0
-44 -268 0
-41 -273 0
-42 -274 0
-43 -275 0
-44 -276 0
-41 -289 0
-42 -290 0
-43 -291 0
-44 -292 0
-41 -293 0
-42 -294 0
-43 -295 0
-44 -296 0
-41 -297 0
-42 -298 0
-43 -299 0
-44 -300 0
-41 -313 0
-42 -314 0
-43 -315 0
-44 -316 0
-41 -317 0
-42 -318 0
-43 -319 0
-44 -320 0
-41 -329 0
-42 -330 0
-43 -331 0
-44 -332 0
-41 -333 0
-42 -334 0
-43 -335 0
-44 -336 0
-41 -341 0
-42 -342 0
-43 -343 0
-44 -344 0
-41 -345 0
-42 -346 0
-43 -347 0
-44 -348 0
-41 -357 0
-42 -358 0
-43 -359 0
-44 -360 0
-41 -369 0
-42 -370 0
-43 -371 0
-44 -372 0
-41 -393 0
-42 -394 0
-43 -395 0
-44 -396 0
-41 -401 0
-42 -402 0
-43 -403 0
-44 -404 0
-41 -413 0
-42 -414 0
-43 -415 0
-44 -416 0
-41 -417 0
-42 -418 0
-43 -419 0
-44 -420 0
-41 -421 0
-42 -422 0
-43 -423 0
-44 -424 0
-41 -425 0
-42 -426 0
-43 -427 0
-44 -428 0
-41 -433 0
-42 -434 0
-43 -435 0
-44 -436 0
-41 -437 0
-42 -438 0
-43 -439 0
-44 -440 0
-41 -441 0
-42 -442 0
-43 -443 0
-44 -444 0
-41 -449 0
-42 -450 0
-43 -451 0
-44 -452 0
-41 -457 0
-42 -458 0
-43 -459 0
-44 -460 0
-41 -461 0
-42 -462 0
-43 -463 0
-44 -464 0
-41 -469 0
-42 -470 0
-43 -471 0
-44 -472 0
-41 -473 0
-42 -474 0
-43 -475 0
-44 -476 0
-41 -477 0
-42 -478 0
-43 -479 0
-44 -480 0
-41 -497 0
-42 -498 0
-43 -499 0
-44 -500 0
-41 -509 0
-42 -510 0
-43 -511 0
-44 -512 0
-41 -513 0
-42 -514 0
-43 -515 0
-44 -516 0
-41 -517 0
-42 -518 0
-43 -519 0
-44 -520 0
-41 -533 0
-42 -534 0
-43 -535 0
-44 -536 0
-41 -537 0
-42 -538 0
-43 -539 0
-44 -540 0
-41 -545 0
-42 -546 0
-43 -547 0
-44 -548 0
-41 -549 0
-42 -550 0
-43 -551 0
-44 -552 0
-41 -553 0
-42 -554 0
-43 -555 0
-44 -556 0
-41 -557 0
-42 -558 0
-43 -559 0
-44 -560 0
-41 -561 0
-42 -562 0
-43 -563 0
-44 -564 0
-41 -569 0
-42 -570 0
-43 -571 0
-44 -572 0
-41 -573 0
-42 -574 0
-43 -575 0
-44 -576 0
-41 -585 0
-42 -586 0
-43 -587 0
-44 -588 0
-41 -593 0
-42 -594 0
-43 -595 0
-44 -596 0
-45 -49 0
-46 -50 0
-47 -51 0
-48 -52 0
-45 -53 0
-46 -54 0
-47 -55 0
-48 -56 0
-45 -57 0
-46 -58 0
-47 -59 0
-48 -60 0
-45 -61 0
-46 -62 0
-47 -63 0
-48 -64 0
-45 -65 0
-46 -66 0
-47 -67 0
-48 -68 0
-45 -73 0
-46 -74 0
-47 -75 0
-48 -76 0
-45 -77 0
-46 -78 0
-47 -79 0
-48 -80 0
-45 -81 0
-46 -82 0
-47 -83 0
-48 -84 0
-45 -89 0
-46 -90 0
-47 -91 0
-48 -92 0
-45 -93 0
-46 -94 0
-47 -95 0
-48 -96 0
-45 -101 0
-46 -102 0
-47 -103 0
-48 -104 0
-45 -105 0
-46 -106 0
-47 -107 0
-48 -108 0
-45 -121 0
-46 -122 0
-47 -123 0
-48 -124 0
-45 -125 0
-46 -126 0
-47 -127 0
-48 -128 0
-45 -133 0
-46 -134 0
-47 -135 0
-48 -136 0
-45 -141 0
-46 -142 0
-47 -143 0
-48 -144 0
-45 -145 0
-46 -146 0
-47 -147 0
-48 -148 0
-45 -153 0
-46 -154 0
-47 -155 0
-48 -156 0
-45 -157 0
-46 -158 0
-47 -159 0
-48 -160 0
-45 -161 0
-46 -162 0
-47 -163 0
-48 -164 0
-45 -181 0
-46 -182 0
-47 -183 0
-48 -184 0
-45 -193 0
-46 -194 0
-47 -195 0
-48 -196 0
-45 -205 0
-46 -206 0
-47 -207 0
-48 -208 0
-45 -217 0
-46 -218 0
-47 -219 0
-48 -220 0
-45 -233 0
-46 -234 0
-47 -235 0
-48 -236 0
-45 -241 0
-46 -242 0
-47 -243 0
-48 -244 0
-45 -265 0
-46 -266 0
-47 -267 0
-48 -268 0
-45 -269 0
-46 -270 0
-47 -271 0
-48 -272 0
-45 -273 0
-46 -274 0
-47 -275 0
-48 -276 0
-45 -277 0
-46 -278 0
-47 -279 0
-48 -280 0
-45 -293 0
-46 -294 0
-47 -295 0
-48 -296 0
-45 -297 0
-46 -298 0
-47 -299 0
-48 -300 0
-45 -309 0
-46 -310 0
-47 -311 0
-48 -312 0
-45 -317 0
-46 -318 0
-47 -319 0
-48 -320 0
-45 -329 0
-46 -330 0
-47 -331 0
-48 -332 0
-45 -333 0
-46 -334 0
-47 -335 0
-48 -336 0
-45 -345 0
-46 -346 0
-47 -347 0
-48 -348 0
-45 -357 0
-46 -358 0
-47 -359 0
-48 -360 0
-45 -365 0
-46 -366 0
-47 -367 0
-48 -368 0
-45 -373 0
-46 -374 0
-47 -375 0
-48 -376 0
-45 -389 0
-46 -390 0
-47 -391 0
-48 -392 0
-45 -393 0
-46 -394 0
-47 -395 0
-48 -396 0
-45 -401 0
-46 -402 0
-47 -403 0
-48 -404 0
-45 -413 0
-46 -414 0
-47 -415 0
-48 -416 0
-45 -421 0
-46 -422 0
-47 -423 0
-48 -424 0
-45 -425 0
-46 -426 0
-47 -427 0
-48 -428 0
-45 -437 0
-46 -438 0
-47 -439 0
-48 -440 0
-45 -441 0
-46 -442 0
-47 -443 0
-48 -444 0
-45 -457 0
-46 -458 0
-47 -459 0
-48 -460 0
-45 -465 0
-46 -466 0
-47 -467 0
-48 -468 0
-45 -473 0
-46 -474 0
-47 -475 0
-48 -476 0
-45 -477 0
-46 -478 0
-47 -479 0
-48 -480 0
-45 -481 0
-46 -482 0
-47 -483 0
-48 -484 0
-45 -485 0
-46 -486 0
-47 -487 0
-48 -488 0
-45 -489 0
-46 -490 0
-47 -491 0
-48 -492 0
-45 -493 0
-46 -494 0
-47 -495 0
-48 -496 0
-45 -497 0
-46 -498 0
-47 -499 0
-48 -500 0
-45 -509 0
-46 -510 0
-47 -511 0
-48 -512 0
-45 -513 0
-46 -514 0
-47 -515 0
-48 -516 0
-45 -517 0
-46 -518 0
-47 -519 0
-48 -520 0
-45 -521 0
-46 -522 0
-47 -523 0
-48 -524 0
-45 -533 0
-46 -534 0
-47 -535 0
-48 -536 0
-45 -545 0
-46 -546 0
-47 -547 0
-48 -548 0
-45 -549 0
-46 -550 0
-47 -551 0
-48 -552 0
-45 -569 0
-46 -570 0
-47 -571 0
-48 -572 0
-45 -573 0
-46 -574 0
-47 -575 0
-48 -576 0
-45 -577 0
-46 -578 0
-47 -579 0
-48 -580 0
-45 -585 0
-46 -586 0
-47 -587 0
-48 -588 0
-45 -593 0
-46 -594 0
-47 -595 0
-48 -596 0
-49 -69 0
-50 -70 0
-51 -71 0
-52 -72 0
-49 -73 0
-50 -74 0
-51 -75 0
-52 -76 0
-49 -81 0
-50 -82 0
-51 -83 0
-52 -84 0
-49 -85 0
-50 -86 0
-51 -87 0
-52 -88 0
-49 -89 0
-50 -90 0
-51 -91 0
-52 -92 0
-49 -93 0
-50 -94 0
-51 -95 0
-52 -96 0
-49 -113 0
-50 -114 0
-51 -115 0
-52 -116 0
-49 -117 0
-50 -118 0
-51 -119 0
-52 -120 0
-49 -121 0
-50 -122 0
-51 -123 0
-52 -124 0
-49 -125 0
-50 -126 0
-51 -127 0
-52 -128 0
-49 -129 0
-50 -130 0
-51 -131 0
-52 -132 0
-49 -137 0
-50 -138 0
-51 -139 0
-52 -140 0
-49 -141 0
-50 -142 0
-51 -143 0
-52 -144 0
-49 -145 0
-50 -146 0
-51 -147 0
-52 -148 0
-49 -157 0
-50 -158 0
-51 -159 0
-52 -160 0
-49 -161 0
-50 -162 0
-51 -163 0
-52 -164 0
-49 -197 0
-50 -198 0
-51 -199 0
-52 -200 0
-49 -209 0
-50 -210 0
-51 -211 0
-52 -212 0
-49 -217 0
-50 -218 0
-51 -219 0
-52 -220 0
-49 -221 0
-50 -222 0
-51 -223 0
-52 -224 0
-49 -225 0
-50 -226 0
-51 -227 0
-52 -228 0
-49 -237 0
-50 -238 0
-51 -239 0
-52 -240 0
-49 -249 0
-50 -250 0
-51 -251 0
-52 -252 0
-49 -253 0
-50 -254 0
-51 -255 0
-52 -256 0
-49 -257 0
-50 -258 0
-51 -259 0
-52 -260 0
-49 -265 0
-50 -266 0
-51 -267 0
-52 -268 0
-49 -277 0
-50 -278 0
-51 -279 0
-52 -280 0
-49 -281 0
-50 -282 0
-51 -283 0
-52 -284 0
-49 -285 0
-50 -286 0
-51 -287 0
-52 -288 0
-49 -289 0
-50 -290 0
-51 -291 0
-52 -292 0
-49 -297 0
-50 -298 0
-51 -299 0
-52 -300 0
-49 -305 0
-50 -306 0
-51 -307 0
-52 -308 0
-49 -313 0
-50 -314 0
-51 -315 0
-52 -316 0
-49 -317 0
-50 -318 0
-51 -319 0
-52 -320 0
-49 -325 0
-50 -326 0
-51 -327 0
-52 -328 0
-49 -333 0
-50 -334 0
-51 -335 0
-52 -336 0
-49 -337 0
-50 -338 0
-51 -339 0
-52 -340 0
-49 -341 0
-50 -342 0
-51 -343 0
-52 -344 0
-49 -349 0
-50 -350 0
-51 -351 0
-52 -352 0
-49 -353 0
-50 -354 0
-51 -355 0
-52 -356 0
-49 -365 0
-50 -366 0
-51 -367 0
-52 -368 0
-49 -369 0
-50 -370 0
-51 -371 0
-52 -372 0
-49 -377 0
-50 -378 0
-51 -379 0
-52 -380 0
-49 -381 0
-50 -382 0
-51 -383 0
-52 -384 0
-49 -385 0
-50 -386 0
-51 -387 0
-52 -388 0
-49 -389 0
-50 -390 0
-51 -391 0
-52 -392 0
-49 -397 0
-50 -398 0
-51 -399 0
-52 -400 0
-49 -405 0
-50 -406 0
-51 -407 0
-52 -408 0
-49 -425 0
-50 -426 0
-51 -427 0
-52 -428 0
-49 -429 0
-50 -430 0
-51 -431 0
-52 -432 0
-49 -433 0
-50 -434 0
-51 -435 0
-52 -436 0
-49 -441 0
-50 -442 0
-51 -443 0
-52 -444 0
-49 -445 0
-50 -446 0
-51 -447 0
-52 -448 0
-49 -449 0
-50 -450 0
-51 -451 0
-52 -452 0
-49 -453 0
-50 -454 0
-51 -455 0
-52 -456 0
-49 -457 0
-50 -458 0
-51 -459 0
-52 -460 0
-49 -477 0
-50 -478 0
-51 -479 0
-52 -480 0
-49 -485 0
-50 -486 0
-51 -487 0
-52 -488 0
-49 -497 0
-50 -498 0
-51 -499 0
-52 -500 0
-49 -509 0
-50 -510 0
-51 -511 0
-52 -512 0
-49 -513 0
-50 -514 0
-51 -515 0
-52 -516 0
-49 -521 0
-50 -522 0
-51 -523 0
-52 -524 0
-49 -529 0
-50 -530 0
-51 -531 0
-52 -532 0
-49 -533 0
-50 -534 0
-51 -535 0
-52 -536 0
-49 -545 0
-50 -546 0
-51 -547 0
-52 -548 0
-49 -553 0
-50 -554 0
-51 -555 0
-52 -556 0
-49 -557 0
-50 -558 0
-51 -559 0
-52 -560 0
-49 -561 0
-50 -562 0
-51 -563 0
-52 -564 0
-49 -565 0
-50 -566 0
-51 -567 0
-52 -568 0
-49 -569 0
-50 -570 0
-51 -571 0
-52 -572 0
-49 -581 0
-50 -582 0
-51 -583 0
-52 -584 0
-49 -585 0
-50 -586 0
-51 -587 0
-52 -588 0
-49 -589 0
-50 -590 0
-51 -591 0
-52 -592 0
-53 -69 0
-54 -70 0
-55 -71 0
-56 -72 0
-53 -81 0
-54 -82 0
-55 -83 0
-56 -84 0
-53 -85 0
-54 -86 0
-55 -87 0
-56 -88 0
-53 -89 0
-54 -90 0
-55 -91 0
-56 -92 0
-53 -93 0
-54 -94 0
-55 -95 0
-56 -96 0
-53 -101 0
-54 -102 0
-55 -103 0
-56 -104 0
-53 -105 0
-54 -106 0
-55 -107 0
-56 -108 0
-53 -113 0
-54 -114 0
-55 -115 0
-56 -116 0
-53 -117 0
-54 -118 0
-55 -119 0
-56 -120 0
-53 -121 0
-54 -122 0
-55 -123 0
-56 -124 0
-53 -125 0
-54 -126 0
-55 -127 0
-56 -128 0
-53 -137 0
-54 -138 0
-55 -139 0
-56 -140 0
-53 -141 0
-54 -142 0
-55 -143 0
-56 -144 0
-53 -145 0
-54 -146 0
-55 -147 0
-56 -148 0
-53 -149 0
-54 -150 0
-55 -151 0
-56 -152 0
-53 -153 0
-54 -154 0
-55 -155 0
-56 -156 0
-53 -157 0
-54 -158 0
-55 -159 0
-56 -160 0
-53 -161 0
-54 -162 0
-55 -163 0
-56 -164 0
-53 -169 0
-54 -170 0
-55 -171 0
-56 -172 0
-53 -181 0
-54 -182 0
-55 -183 0
-56 -184 0
-53 -205 0
-54 -206 0
-55 -207 0
-56 -208 0
-53 -209 0
-54 -210 0
-55 -211 0
-56 -212 0
-53 -213 0
-54 -214 0
-55 -215 0
-56 -216 0
-53 -217 0
-54 -218 0
-55 -219 0
-56 -220 0
-53 -221 0
-54 -222 0
-55 -223 0
-56 -224 0
-53 -225 0
-54 -226 0
-55 -227 0
-56 -228 0
-53 -233 0
-54 -234 0
-55 -235 0
-56 -236 0
-53 -237 0
-54 -238 0
-55 -239 0
-56 -240 0
-53 -249 0
-54 -250 0
-55 -251 0
-56 -252 0
-53 -257 0
-54 -258 0
-55 -259 0
-56 -260 0
-53 -277 0
-54 -278 0
-55 -279 0
-56 -280 0
-53 -281 0
-54 -282 0
-55 -283 0
-56 -284 0
-53 -285 0
-54 -286 0
-55 -287 0
-56 -288 0
-53 -289 0
-54 -290 0
-55 -291 0
-56 -292 0
-53 -297 0
-54 -298 0
-55 -299 0
-56 -300 0
-53 -301 0
-54 -302 0
-55 -303 0
-56 -304 0
-53 -305 0
-54 -306 0
-55 -307 0
-56 -308 0
-53 -313 0
-54 -314 0
-55 -315 0
-56 -316 0
-53 -317 0
-54 -318 0
-55 -319 0
-56 -320 0
-53 -325 0
-54 -326 0
-55 -327 0
-56 -328 0
-53 -349 0
-54 -350 0
-55 -351 0
-56 -352 0
-53 -353 0
-54 -354 0
-55 -355 0
-56 -356 0
-53 -369 0
-54 -370 0
-55 -371 0
-56 -372 0
-53 -377 0
-54 -378 0
-55 -379 0
-56 -380 0
-53 -381 0
-54 -382 0
-55 -383 0
-56 -384 0
-53 -385 0
-54 -386 0
-55 -387 0
-56 -388 0
-53 -389 0
-54 -390 0
-55 -391 0
-56 -392 0
-53 -397 0
-54 -398 0
-55 -399 0
-56 -400 0
-53 -401 0
-54 -402 0
-55 -403 0
-56 -404 0
-53 -405 0
-54 -406 0
-55 -407 0
-56 -408 0
-53 -409 0
-54 -410 0
-55 -411 0
-56 -412 0
-53 -413 0
-54 -414 0
-55 -415 0
-56 -416 0
-53 -425 0
-54 -426 0
-55 -427 0
-56 -428 0
-53 -429 0
-54 -430 0
-55 -431 0
-56 -432 0
-53 -445 0
-54 -446 0
-55 -447 0
-56 -448 0
-53 -449 0
-54 -450 0
-55 -451 0
-56 -452 0
-53 -457 0
-54 -458 0
-55 -459 0
-56 -460 0
-53 -461 0
-54 -462 0
-55 -463 0
-56 -464 0
-53 -481 0
-54 -482 0
-55 -483 0
-56 -484 0
-53 -485 0
-54 -486 0
-55 -487 0
-56 -488 0
-53 -489 0
-54 -490 0
-55 -491 0
-56 -492 0
-53 -497 0
-54 -498 0
-55 -499 0
-56 -500 0
-53 -501 0
-54 -502 0
-55 -503 0
-56 -504 0
-53 -505 0
-54 -506 0
-55 -507 0
-56 -508 0
-53 -509 0
-54 -510 0
-55 -511 0
-56 -512 0
-53 -521 0
-54 -522 0
-55 -523 0
-56 -524 0
-53 -525 0
-54 -526 0
-55 -527 0
-56 -528 0
-53 -529 0
-54 -530 0
-55 -531 0
-56 -532 0
-53 -533 0
-54 -534 0
-55 -535 0
-56 -536 0
-53 -545 0
-54 -546 0
-55 -547 0
-56 -548 0
-53 -557 0
-54 -558 0
-55 -559 0
-56 -560 0
-53 -561 0
-54 -562 0
-55 -563 0
-56 -564 0
-53 -565 0
-54 -566 0
-55 -567 0
-56 -568 0
-53 -569 0
-54 -570 0
-55 -571 0
-56 -572 0
-53 -581 0
-54 -582 0
-55 -583 0
-56 -584 0
-53 -585 0
-54 -586 0
-55 -587 0
-56 -588 0
-53 -589 0
-54 -590 0
-55 -591 0
-56 -592 0
-57 -73 0
-58 -74 0
-59 -75 0
-60 -76 0
-57 -81 0
-58 -82 0
-59 -83 0
-60 -84 0
-57 -85 0
-58 -86 0
-59 -87 0
-60 -88 0
-57 -89 0
-58 -90 0
-59 -91 0
-60 -92 0
-57 -93 0
-58 -94 0
-59 -95 0
-60 -96 0
-57 -97 0
-58 -98 0
-59 -99 0
-60 -100 0
-57 -105 0
-58 -106 0
-59 -107 0
-60 -108 0
-57 -113 0
-58 -114 0
-59 -115 0
-60 -116 0
-57 -117 0
-58 -118 0
-59 -119 0
-60 -120 0
-57 -121 0
-58 -122 0
-59 -123 0
-60 -124 0
-57 -125 0
-58 -126 0
-59 -127 0
-60 -128 0
-57 -129 0
-58 -130 0
-59 -131 0
-60 -132 0
-57 -141 0
-58 -142 0
-59 -143 0
-60 -144 0
-57 -145 0
-58 -146 0
-59 -147 0
-60 -148 0
-57 -153 0
-58 -154 0
-59 -155 0
-60 -156 0
-57 -157 0
-58 -158 0
-59 -159 0
-60 -160 0
-57 -161 0
-58 -162 0
-59 -163 0
-60 -164 0
-57 -181 0
-58 -182 0
-59 -183 0
-60 -184 0
-57 -205 0
-58 -206 0
-59 -207 0
-60 -208 0
-57 -209 0
-58 -210 0
-59 -211 0
-60 -212 0
-57 -213 0
-58 -214 0
-59 -215 0
-60 -216 0
-57 -217 0
-58 -218 0
-59 -219 0
-60 -220 0
-57 -221 0
-58 -222 0
-59 -223 0
-60 -224 0
-57 -225 0
-58 -226 0
-59 -227 0
-60 -228 0
-57 -233 0
-58 -234 0
-59 -235 0
-60 -236 0
-57 -249 0
-58 -250 0
-59 -251 0
-60 -252 0
-57 -253 0
-58 -254 0
-59 -255 0
-60 -256 0
-57 -261 0
-58 -262 0
-59 -263 0
-60 -264 0
-57 -277 0
-58 -278 0
-59 -279 0
-60 -280 0
-57 -281 0
-58 -282 0
-59 -283 0
-60 -284 0
-57 -285 0
-58 -286 0
-59 -287 0
-60 -288 0
-57 -289 0
-58 -290 0
-59 -291 0
-60 -292 0
-57 -301 0
-58 -302 0
-59 -303 0
-60 -304 0
-57 -305 0
-58 -306 0
-59 -307 0
-60 -308 0
-57 -309 0
-58 -310 0
-59 -311 0
-60 -312 0
-57 -313 0
-58 -314 0
-59 -315 0
-60 -316 0
-57 -333 0
-58 -334 0
-59 -335 0
-60 -336 0
-57 -337 0
-58 -338 0
-59 -339 0
-60 -340 0
-57 -349 0
-58 -350 0
-59 -351 0
-60 -352 0
-57 -353 0
-58 -354 0
-59 -355 0
-60 -356 0
-57 -361 0
-58 -362 0
-59 -363 0
-60 -364 0
-57 -365 0
-58 -366 0
-59 -367 0
-60 -368 0
-57 -369 0
-58 -370 0
-59 -371 0
-60 -372 0
-57 -377 0
-58 -378 0
-59 -379 0
-60 -380 0
-57 -385 0
-58 -386 0
-59 -387 0
-60 -388 0
-57 -397 0
-58 -398 0
-59 -399 0
-60 -400 0
-57 -401 0
-58 -402 0
-59 -403 0
-60 -404 0
-57 -405 0
-58 -406 0
-59 -407 0
-60 -408 0
-57 -413 0
-58 -414 0
-59 -415 0
-60 -416 0
-57 -425 0
-58 -426 0
-59 -427 0
-60 -428 0
-57 -429 0
-58 -430 0
-59 -431 0
-60 -432 0
-57 -433 0
-58 -434 0
-59 -435 0
-60 -436 0
-57 -441 0
-58 -442 0
-59 -443 0
-60 -444 0
-57 -449 0
-58 -450 0
-59 -451 0
-60 -452 0
-57 -457 0
-58 -458 0
-59 -459 0
-60 -460 0
-57 -461 0
-58 -462 0
-59 -463 0
-60 -464 0
-57 -473 0
-58 -474 0
-59 -475 0
-60 -476 0
-57 -477 0
-58 -478 0
-59 -479 0
-60 -480 0
-57 -481 0
-58 -482 0
-59 -483 0
-60 -484 0
-57 -489 0
-58 -490 0
-59 -491 0
-60 -492 0
-57 -493 0
-58 -494 0
-59 -495 0
-60 -496 0
-57 -497 0
-58 -498 0
-59 -499 0
-60 -500 0
-57 -505 0
-58 -506 0
-59 -507 0
-60 -508 0
-57 -513 0
-58 -514 0
-59 -515 0
-60 -516 0
-57 -521 0
-58 -522 0
-59 -523 0
-60 -524 0
-57 -529 0
-58 -530 0
-59 -531 0
-60 -532 0
-57 -533 0
-58 -534 0
-59 -535 0
-60 -536 0
-57 -537 0
-58 -538 0
-59 -539 0
-60 -540 0
-57 -553 0
-58 -554 0
-59 -555 0
-60 -556 0
-57 -557 0
-58 -558 0
-59 -559 0
-60 -560 0
-57 -561 0
-58 -562 0
-59 -563 0
-60 -564 0
-57 -569 0
-58 -570 0
-59 -571 0
-60 -572 0
-57 -581 0
-58 -582 0
-59 -583 0
-60 -584 0
-57 -589 0
-58 -590 0
-59 -591 0
-60 -592 0
-61 -69 0
-62 -70 0
-63 -71 0
-64 -72 0
-61 -73 0
-62 -74 0
-63 -75 0
-64 -76 0
-61 -81 0
-62 -82 0
-63 -83 0
-64 -84 0
-61 -85 0
-62 -86 0
-63 -87 0
-64 -88 0
-61 -97 0
-62 -98 0
-63 -99 0
-64 -100 0
-61 -117 0
-62 -118 0
-63 -119 0
-64 -120 0
-61 -125 0
-62 -126 0
-63 -127 0
-64 -128 0
-61 -129 0
-62 -130 0
-63 -131 0
-64 -132 0
-61 -137 0
-62 -138 0
-63 -139 0
-64 -140 0
-61 -141 0
-62 -142 0
-63 -143 0
-64 -144 0
-61 -145 0
-62 -146 0
-63 -147 0
-64 -148 0
-61 -149 0
-62 -150 0
-63 -151 0
-64 -152 0
-61 -153 0
-62 -154 0
-63 -155 0
-64 -156 0
-61 -157 0
-62 -158 0
-63 -159 0
-64 -160 0
-61 -161 0
-62 -162 0
-63 -163 0
-64 -164 0
-61 -165 0
-62 -166 0
-63 -167 0
-64 -168 0
-61 -169 0
-62 -170 0
-63 -171 0
-64 -172 0
-61 -181 0
-62 -182 0
-63 -183 0
-64 -184 0
-61 -189 0
-62 -190 0
-63 -191 0
-64 -192 0
-61 -205 0
-62 -206 0
-63 -207 0
-64 -208 0
-61 -209 0
-62 -210 0
-63 -211 0
-64 -212 0
-61 -213 0
-62 -214 0
-63 -215 0
-64 -216 0
-61 -217 0
-62 -218 0
-63 -219 0
-64 -220 0
-61 -221 0
-62 -222 0
-63 -223 0
-64 -224 0
-61 -225 0
-62 -226 0
-63 -227 0
-64 -228 0
-61 -233 0
-62 -234 0
-63 -235 0
-64 -236 0
-61 -237 0
-62 -238 0
-63 -239 0
-64 -240 0
-61 -253 0
-62 -254 0
-63 -255 0
-64 -256 0
-61 -265 0
-62 -266 0
-63 -267 0
-64 -268 0
-61 -281 0
-62 -282 0
-63 -283 0
-64 -284 0
-61 -289 0
-62 -290 0
-63 -291 0
-64 -292 0
-61 -301 0
-62 -302 0
-63 -303 0
-64 -304 0
-61 -305 0
-62 -306 0
-63 -307 0
-64 -308 0
-61 -309 0
-62 -310 0
-63 -311 0
-64 -312 0
-61 -313 0
-62 -314 0
-63 -315 0
-64 -316 0
-61 -325 0
-62 -326 0
-63 -327 0
-64 -328 0
-61 -337 0
-62 -338 0
-63 -339 0
-64 -340 0
-61 -341 0
-62 -342 0
-63 -343 0
-64 -344 0
-61 -349 0
-62 -350 0
-63 -351 0
-64 -352 0
-61 -353 0
-62 -354 0
-63 -355 0
-64 -356 0
-61 -361 0
-62 -362 0
-63 -363 0
-64 -364 0
-61 -365 0
-62 -366 0
-63 -367 0
-64 -368 0
-61 -377 0
-62 -378 0
-63 -379 0
-64 -380 0
-61 -381 0
-62 -382 0
-63 -383 0
-64 -384 0
-61 -385 0
-62 -386 0
-63 -387 0
-64 -388 0
-61 -389 0
-62 -390 0
-63 -391 0
-64 -392 0
-61 -405 0
-62 -406 0
-63 -407 0
-64 -408 0
-61 -409 0
-62 -410 0
-63 -411 0
-64 -412 0
-61 -413 0
-62 -414 0
-63 -415 0
-64 -416 0
-61 -425 0
-62 -426 0
-63 -427 0
-64 -428 0
-61 -433 0
-62 -434 0
-63 -435 0
-64 -436 0
-61 -441 0
-62 -442 0
-63 -443 0
-64 -444 0
-61 -445 0
-62 -446 0
-63 -447 0
-64 -448 0
-61 -449 0
-62 -450 0
-63 -451 0
-64 -452 0
-61 -457 0
-62 -458 0
-63 -459 0
-64 -460 0
-61 -461 0
-62 -462 0
-63 -463 0
-64 -464 0
-61 -477 0
-62 -478 0
-63 -479 0
-64 -480 0
-61 -481 0
-62 -482 0
-63 -483 0
-64 -484 0
-61 -489 0
-62 -490 0
-63 -491 0
-64 -492 0
-61 -493 0
-62 -494 0
-63 -495 0
-64 -496 0
-61 -513 0
-62 -514 0
-63 -515 0
-64 -516 0
-61 -521 0
-62 -522 0
-63 -523 0
-64 -524 0
-61 -525 0
-62 -526 0
-63 -527 0
-64 -528 0
-61 -529 0
-62 -530 0
-63 -531 0
-64 -532 0
-61 -533 0
-62 -534 0
-63 -535 0
-64 -536 0
-61 -545 0
-62 -546 0
-63 -547 0
-64 -548 0
-61 -553 0
-62 -554 0
-63 -555 0
-64 -556 0
-61 -557 0
-62 -558 0
-63 -559 0
-64 -560 0
-61 -561 0
-62 -562 0
-63 -563 0
-64 -564 0
-61 -565 0
-62 -566 0
-63 -567 0
-64 -568 0
-61 -569 0
-62 -570 0
-63 -571 0
-64 -572 0
-61 -581 0
-62 -582 0
-63 -583 0
-64 -584 0
-61 -585 0
-62 -586 0
-63 -587 0
-64 -588 0
-61 -589 0
-62 -590 0
-63 -591 0
-64 -592 0
-65 -69 0
-66 -70 0
-67 -71 0
-68 -72 0
-65 -73 0
-66 -74 0
-67 -75 0
-68 -76 0
-65 -81 0
-66 -82 0
-67 -83 0
-68 -84 0
-65 -89 0
-66 -90 0
-67 -91 0
-68 -92 0
-65 -97 0
-66 -98 0
-67 -99 0
-68 -100 0
-65 -113 0
-66 -114 0
-67 -115 0
-68 -116 0
-65 -125 0
-66 -126 0
-67 -127 0
-68 -128 0
-65 -129 0
-66 -130 0
-67 -131 0
-68 -132 0
-65 -137 0
-66 -138 0
-67 -139 0
-68 -140 0
-65 -141 0
-66 -142 0
-67 -143 0
-68 -144 0
-65 -145 0
-66 -146 0
-67 -147 0
-68 -148 0
-65 -149 0
-66 -150 0
-67 -151 0
-68 -152 0
-65 -153 0
-66 -154 0
-67 -155 0
-68 -156 0
-65 -157 0
-66 -158 0
-67 -159 0
-68 -160 0
-65 -161 0
-66 -162 0
-67 -163 0
-68 -164 0
-65 -165 0
-66 -166 0
-67 -167 0
-68 -168 0
-65 -181 0
-66 -182 0
-67 -183 0
-68 -184 0
-65 -189 0
-66 -190 0
-67 -191 0
-68 -192 0
-65 -209 0
-66 -210 0
-67 -211 0
-68 -212 0
-65 -213 0
-66 -214 0
-67 -215 0
-68 -216 0
-65 -217 0
-66 -218 0
-67 -219 0
-68 -220 0
-65 -221 0
-66 -222 0
-67 -223 0
-68 -224 0
-65 -225 0
-66 -226 0
-67 -227 0
-68 -228 0
-65 -233 0
-66 -234 0
-67 -235 0
-68 -236 0
-65 -237 0
-66 -238 0
-67 -239 0
-68 -240 0
-65 -249 0
-66 -250 0
-67 -251 0
-68 -252 0
-65 -253 0
-66 -254 0
-67 -255 0
-68 -256 0
-65 -257 0
-66 -258 0
-67 -259 0
-68 -260 0
-65 -265 0
-66 -266 0
-67 -267 0
-68 -268 0
-65 -277 0
-66 -278 0
-67 -279 0
-68 -280 0
-65 -281 0
-66 -282 0
-67 -283 0
-68 -284 0
-65 -285 0
-66 -286 0
-67 -287 0
-68 -288 0
-65 -289 0
-66 -290 0
-67 -291 0
-68 -292 0
-65 -297 0
-66 -298 0
-67 -299 0
-68 -300 0
-65 -301 0
-66 -302 0
-67 -303 0
-68 -304 0
-65 -333 0
-66 -334 0
-67 -335 0
-68 -336 0
-65 -341 0
-66 -342 0
-67 -343 0
-68 -344 0
-65 -349 0
-66 -350 0
-67 -351 0
-68 -352 0
-65 -365 0
-66 -366 0
-67 -367 0
-68 -368 0
-65 -369 0
-66 -370 0
-67 -371 0
-68 -372 0
-65 -377 0
-66 -378 0
-67 -379 0
-68 -380 0
-65 -389 0
-66 -390 0
-67 -391 0
-68 -392 0
-65 -397 0
-66 -398 0
-67 -399 0
-68 -400 0
-65 -413 0
-66 -414 0
-67 -415 0
-68 -416 0
-65 -425 0
-66 -426 0
-67 -427 0
-68 -428 0
-65 -441 0
-66 -442 0
-67 -443 0
-68 -444 0
-65 -445 0
-66 -446 0
-67 -447 0
-68 -448 0
-65 -449 0
-66 -450 0
-67 -451 0
-68 -452 0
-65 -457 0
-66 -458 0
-67 -459 0
-68 -460 0
-65 -477 0
-66 -478 0
-67 -479 0
-68 -480 0
-65 -485 0
-66 -486 0
-67 -487 0
-68 -488 0
-65 -489 0
-66 -490 0
-67 -491 0
-68 -492 0
-65 -493 0
-66 -494 0
-67 -495 0
-68 -496 0
-65 -497 0
-66 -498 0
-67 -499 0
-68 -500 0
-65 -501 0
-66 -502 0
-67 -503 0
-68 -504 0
-65 -505 0
-66 -506 0
-67 -507 0
-68 -508 0
-65 -513 0
-66 -514 0
-67 -515 0
-68 -516 0
-65 -521 0
-66 -522 0
-67 -523 0
-68 -524 0
-65 -525 0
-66 -526 0
-67 -527 0
-68 -528 0
-65 -537 0
-66 -538 0
-67 -539 0
-68 -540 0
-65 -557 0
-66 -558 0
-67 -559 0
-68 -560 0
-65 -561 0
-66 -562 0
-67 -563 0
-68 -564 0
-65 -565 0
-66 -566 0
-67 -567 0
-68 -568 0
-65 -581 0
-66 -582 0
-67 -583 0
-68 -584 0
-65 -585 0
-66 -586 0
-67 -587 0
-68 -588 0
-65 -589 0
-66 -590 0
-67 -591 0
-68 -592 0
-69 -77 0
-70 -78 0
-71 -79 0
-72 -80 0
-69 -85 0
-70 -86 0
-71 -87 0
-72 -88 0
-69 -89 0
-70 -90 0
-71 -91 0
-72 -92 0
-69 -97 0
-70 -98 0
-71 -99 0
-72 -100 0
-69 -101 0
-70 -102 0
-71 -103 0
-72 -104 0
-69 -109 0
-70 -110 0
-71 -111 0
-72 -112 0
-69 -113 0
-70 -114 0
-71 -115 0
-72 -116 0
-69 -117 0
-70 -118 0
-71 -119 0
-72 -120 0
-69 -125 0
-70 -126 0
-71 -127 0
-72 -128 0
-69 -133 0
-70 -134 0
-71 -135 0
-72 -136 0
-69 -137 0
-70 -138 0
-71 -139 0
-72 -140 0
-69 -141 0
-70 -142 0
-71 -143 0
-72 -144 0
-69 -149 0
-70 -150 0
-71 -151 0
-72 -152 0
-69 -153 0
-70 -154 0
-71 -155 0
-72 -156 0
-69 -157 0
-70 -158 0
-71 -159 0
-72 -160 0
-69 -165 0
-70 -166 0
-71 -167 0
-72 -168 0
-69 -169 0
-70 -170 0
-71 -171 0
-72 -172 0
-69 -173 0
-70 -174 0
-71 -175 0
-72 -176 0
-69 -181 0
-70 -182 0
-71 -183 0
-72 -184 0
-69 -185 0
-70 -186 0
-71 -187 0
-72 -188 0
-69 -189 0
-70 -190 0
-71 -191 0
-72 -192 0
-69 -193 0
-70 -194 0
-71 -195 0
-72 -196 0
-69 -197 0
-70 -198 0
-71 -199 0
-72 -200 0
-69 -201 0
-70 -202 0
-71 -203 0
-72 -204 0
-69 -209 0
-70 -210 0
-71 -211 0
-72 -212 0
-69 -225 0
-70 -226 0
-71 -227 0
-72 -228 0
-69 -229 0
-70 -230 0
-71 -231 0
-72 -232 0
-69 -237 0
-70 -238 0
-71 -239 0
-72 -240 0
-69 -245 0
-70 -246 0
-71 -247 0
-72 -248 0
-69 -261 0
-70 -262 0
-71 -263 0
-72 -264 0
-69 -269 0
-70 -270 0
-71 -271 0
-72 -272 0
-69 -273 0
-70 -274 0
-71 -275 0
-72 -276 0
-69 -277 0
-70 -278 0
-71 -279 0
-72 -280 0
-69 -281 0
-70 -282 0
-71 -283 0
-72 -284 0
-69 -285 0
-70 -286 0
-71 -287 0
-72 -288 0
-69 -293 0
-70 -294 0
-71 -295 0
-72 -296 0
-69 -297 0
-70 -298 0
-71 -299 0
-72 -300 0
-69 -301 0
-70 -302 0
-71 -303 0
-72 -304 0
-69 -305 0
-70 -306 0
-71 -307 0
-72 -308 0
-69 -313 0
-70 -314 0
-71 -315 0
-72 -316 0
-69 -317 0
-70 -318 0
-71 -319 0
-72 -320 0
-69 -321 0
-70 -322 0
-71 -323 0
-72 -324 0
-69 -325 0
-70 -326 0
-71 -327 0
-72 -328 0
-69 -329 0
-70 -330 0
-71 -331 0
-72 -332 0
-69 -337 0
-70 -338 0
-71 -339 0
-72 -340 0
-69 -349 0
-70 -350 0
-71 -351 0
-72 -352 0
-69 -353 0
-70 -354 0
-71 -355 0
-72 -356 0
-69 -357 0
-70 -358 0
-71 -359 0
-72 -360 0
-69 -361 0
-70 -362 0
-71 -363 0
-72 -364 0
-69 -373 0
-70 -374 0
-71 -375 0
-72 -376 0
-69 -385 0
-70 -386 0
-71 -387 0
-72 -388 0
-69 -389 0
-70 -390 0
-71 -391 0
-72 -392 0
-69 -393 0
-70 -394 0
-71 -395 0
-72 -396 0
-69 -397 0
-70 -398 0
-71 -399 0
-72 -400 0
-69 -401 0
-70 -402 0
-71 -403 0
-72 -404 0
-69 -409 0
-70 -410 0
-71 -411 0
-72 -412 0
-69 -417 0
-70 -418 0
-71 -419 0
-72 -420 0
-69 -429 0
-70 -430 0
-71 -431 0
-72 -432 0
-69 -433 0
-70 -434 0
-71 -435 0
-72 -436 0
-69 -445 0
-70 -446 0
-71 -447 0
-72 -448 0
-69 -465 0
-70 -466 0
-71 -467 0
-72 -468 0
-69 -469 0
-70 -470 0
-71 -471 0
-72 -472 0
-69 -481 0
-70 -482 0
-71 -483 0
-72 -484 0
-69 -505 0
-70 -506 0
-71 -507 0
-72 -508 0
-69 -517 0
-70 -518 0
-71 -519 0
-72 -520 0
-69 -521 0
-70 -522 0
-71 -523 0
-72 -524 0
-69 -525 0
-70 -526 0
-71 -527 0
-72 -528 0
-69 -529 0
-70 -530 0
-71 -531 0
-72 -532 0
-69 -541 0
-70 -542 0
-71 -543 0
-72 -544 0
-69 -545 0
-70 -546 0
-71 -547 0
-72 -548 0
-69 -565 0
-70 -566 0
-71 -567 0
-72 -568 0
-69 -573 0
-70 -574 0
-71 -575 0
-72 -576 0
-69 -593 0
-70 -594 0
-71 -595 0
-72 -596 0
-69 -597 0
-70 -598 0
-71 -599 0
-72 -600 0
-73 -85 0
-74 -86 0
-75 -87 0
-76 -88 0
-73 -97 0
-74 -98 0
-75 -99 0
-76 -100 0
-73 -101 0
-74 -102 0
-75 -103 0
-76 -104 0
-73 -105 0
-74 -106 0
-75 -107 0
-76 -108 0
-73 -109 0
-74 -110 0
-75 -111 0
-76 -112 0
-73 -113 0
-74 -114 0
-75 -115 0
-76 -116 0
-73 -121 0
-74 -122 0
-75 -123 0
-76 -124 0
-73 -125 0
-74 -126 0
-75 -127 0
-76 -128 0
-73 -133 0
-74 -134 0
-75 -135 0
-76 -136 0
-73 -141 0
-74 -142 0
-75 -143 0
-76 -144 0
-73 -161 0
-74 -162 0
-75 -163 0
-76 -164 0
-73 -165 0
-74 -166 0
-75 -167 0
-76 -168 0
-73 -173 0
-74 -174 0
-75 -175 0
-76 -176 0
-73 -177 0
-74 -178 0
-75 -179 0
-76 -180 0
-73 -181 0
-74 -182 0
-75 -183 0
-76 -184 0
-73 -185 0
-74 -186 0
-75 -187 0
-76 -188 0
-73 -189 0
-74 -190 0
-75 -191 0
-76 -192 0
-73 -193 0
-74 -194 0
-75 -195 0
-76 -196 0
-73 -201 0
-74 -202 0
-75 -203 0
-76 -204 0
-73 -209 0
-74 -210 0
-75 -211 0
-76 -212 0
-73 -229 0
-74 -230 0
-75 -231 0
-76 -232 0
-73 -237 0
-74 -238 0
-75 -239 0
-76 -240 0
-73 -245 0
-74 -246 0
-75 -247 0
-76 -248 0
-73 -249 0
-74 -250 0
-75 -251 0
-76 -252 0
-73 -257 0
-74 -258 0
-75 -259 0
-76 -260 0
-73 -261 0
-74 -262 0
-75 -263 0
-76 -264 0
-73 -277 0
-74 -278 0
-75 -279 0
-76 -280 0
-73 -281 0
-74 -282 0
-75 -283 0
-76 -284 0
-73 -285 0
-74 -286 0
-75 -287 0
-76 -288 0
-73 -293 0
-74 -294 0
-75 -295 0
-76 -296 0
-73 -297 0
-74 -298 0
-75 -299 0
-76 -300 0
-73 -301 0
-74 -302 0
-75 -303 0
-76 -304 0
-73 -313 0
-74 -314 0
-75 -315 0
-76 -316 0
-73 -321 0
-74 -322 0
-75 -323 0
-76 -324 0
-73 -325 0
-74 -326 0
-75 -327 0
-76 -328 0
-73 -329 0
-74 -330 0
-75 -331 0
-76 -332 0
-73 -337 0
-74 -338 0
-75 -339 0
-76 -340 0
-73 -345 0
-74 -346 0
-75 -347 0
-76 -348 0
-73 -357 0
-74 -358 0
-75 -359 0
-76 -360 0
-73 -365 0
-74 -366 0
-75 -367 0
-76 -368 0
-73 -377 0
-74 -378 0
-75 -379 0
-76 -380 0
-73 -389 0
-74 -390 0
-75 -391 0
-76 -392 0
-73 -397 0
-74 -398 0
-75 -399 0
-76 -400 0
-73 -401 0
-74 -402 0
-75 -403 0
-76 -404 0
-73 -405 0
-74 -406 0
-75 -407 0
-76 -408 0
-73 -409 0
-74 -410 0
-75 -411 0
-76 -412 0
-73 -413 0
-74 -414 0
-75 -415 0
-76 -416 0
-73 -421 0
-74 -422 0
-75 -423 0
-76 -424 0
-73 -429 0
-74 -430 0
-75 -431 0
-76 -432 0
-73 -433 0
-74 -434 0
-75 -435 0
-76 -436 0
-73 -437 0
-74 -438 0
-75 -439 0
-76 -440 0
-73 -441 0
-74 -442 0
-75 -443 0
-76 -444 0
-73 -445 0
-74 -446 0
-75 -447 0
-76 -448 0
-73 -469 0
-74 -470 0
-75 -471 0
-76 -472 0
-73 -481 0
-74 -482 0
-75 -483 0
-76 -484 0
-73 -489 0
-74 -490 0
-75 -491 0
-76 -492 0
-73 -505 0
-74 -506 0
-75 -507 0
-76 -508 0
-73 -517 0
-74 -518 0
-75 -519 0
-76 -520 0
-73 -521 0
-74 -522 0
-75 -523 0
-76 -524 0
-73 -529 0
-74 -530 0
-75 -531 0
-76 -532 0
-73 -545 0
-74 -546 0
-75 -547 0
-76 -548 0
-73 -549 0
-74 -550 0
-75 -551 0
-76 -552 0
-73 -565 0
-74 -566 0
-75 -567 0
-76 -568 0
-73 -573 0
-74 -574 0
-75 -575 0
-76 -576 0
-73 -577 0
-74 -578 0
-75 -579 0
-76 -580 0
-73 -589 0
-74 -590 0
-75 -591 0
-76 -592 0
-73 -593 0
-74 -594 0
-75 -595 0
-76 -596 0
-73 -597 0
-74 -598 0
-75 -599 0
-76 -600 0
-77 -81 0
-78 -82 0
-79 -83 0
-80 -84 0
-77 -85 0
-78 -86 0
-79 -87 0
-80 -88 0
-77 -89 0
-78 -90 0
-79 -91 0
-80 -92 0
-77 -93 0
-78 -94 0
-79 -95 0
-80 -96 0
-77 -97 0
-78 -98 0
-79 -99 0
-80 -100 0
-77 -101 0
-78 -102 0
-79 -103 0
-80 -104 0
-77 -105 0
-78 -106 0
-79 -107 0
-80 -108 0
-77 -113 0
-78 -114 0
-79 -115 0
-80 -116 0
-77 -117 0
-78 -118 0
-79 -119 0
-80 -120 0
-77 -121 0
-78 -122 0
-79 -123 0
-80 -124 0
-77 -129 0
-78 -130 0
-79 -131 0
-80 -132 0
-77 -137 0
-78 -138 0
-79 -139 0
-80 -140 0
-77 -145 0
-78 -146 0
-79 -147 0
-80 -148 0
-77 -153 0
-78 -154 0
-79 -155 0
-80 -156 0
-77 -157 0
-78 -158 0
-79 -159 0
-80 -160 0
-77 -165 0
-78 -166 0
-79 -167 0
-80 -168 0
-77 -197 0
-78 -198 0
-79 -199 0
-80 -200 0
-77 -205 0
-78 -206 0
-79 -207 0
-80 -208 0
-77 -209 0
-78 -210 0
-79 -211 0
-80 -212 0
-77 -213 0
-78 -214 0
-79 -215 0
-80 -216 0
-77 -233 0
-78 -234 0
-79 -235 0
-80 -236 0
-77 -237 0
-78 -238 0
-79 -239 0
-80 -240 0
-77 -253 0
-78 -254 0
-79 -255 0
-80 -256 0
-77 -261 0
-78 -262 0
-79 -263 0
-80 -264 0
-77 -265 0
-78 -266 0
-79 -267 0
-80 -268 0
-77 -277 0
-78 -278 0
-79 -279 0
-80 -280 0
-77 -281 0
-78 -282 0
-79 -283 0
-80 -284 0
-77 -297 0
-78 -298 0
-79 -299 0
-80 -300 0
-77 -301 0
-78 -302 0
-79 -303 0
-80 -304 0
-77 -305 0
-78 -306 0
-79 -307 0
-80 -308 0
-77 -309 0
-78 -310 0
-79 -311 0
-80 -312 0
-77 -325 0
-78 -326 0
-79 -327 0
-80 -328 0
-77 -333 0
-78 -334 0
-79 -335 0
-80 -336 0
-77 -337 0
-78 -338 0
-79 -339 0
-80 -340 0
-77 -349 0
-78 -350 0
-79 -351 0
-80 -352 0
-77 -353 0
-78 -354 0
-79 -355 0
-80 -356 0
-77 -361 0
-78 -362 0
-79 -363 0
-80 -364 0
-77 -365 0
-78 -366 0
-79 -367 0
-80 -368 0
-77 -369 0
-78 -370 0
-79 -371 0
-80 -372 0
-77 -377 0
-78 -378 0
-79 -379 0
-80 -380 0
-77 -381 0
-78 -382 0
-79 -383 0
-80 -384 0
-77 -385 0
-78 -386 0
-79 -387 0
-80 -388 0
-77 -389 0
-78 -390 0
-79 -391 0
-80 -392 0
-77 -397 0
-78 -398 0
-79 -399 0
-80 -400 0
-77 -405 0
-78 -406 0
-79 -407 0
-80 -408 0
-77 -409 0
-78 -410 0
-79 -411 0
-80 -412 0
-77 -413 0
-78 -414 0
-79 -415 0
-80 -416 0
-77 -425 0
-78 -426 0
-79 -427 0
-80 -428 0
-77 -429 0
-78 -430 0
-79 -431 0
-80 -432 0
-77 -441 0
-78 -442 0
-79 -443 0
-80 -444 0
-77 -445 0
-78 -446 0
-79 -447 0
-80 -448 0
-77 -449 0
-78 -450 0
-79 -451 0
-80 -452 0
-77 -457 0
-78 -458 0
-79 -459 0
-80 -460 0
-77 -461 0
-78 -462 0
-79 -463 0
-80 -464 0
-77 -473 0
-78 -474 0
-79 -475 0
-80 -476 0
-77 -477 0
-78 -478 0
-79 -479 0
-80 -480 0
-77 -481 0
-78 -482 0
-79 -483 0
-80 -484 0
-77 -485 0
-78 -486 0
-79 -487 0
-80 -488 0
-77 -497 0
-78 -498 0
-79 -499 0
-80 -500 0
-77 -501 0
-78 -502 0
-79 -503 0
-80 -504 0
-77 -505 0
-78 -506 0
-79 -507 0
-80 -508 0
-77 -509 0
-78 -510 0
-79 -511 0
-80 -512 0
-77 -513 0
-78 -514 0
-79 -515 0
-80 -516 0
-77 -521 0
-78 -522 0
-79 -523 0
-80 -524 0
-77 -525 0
-78 -526 0
-79 -527 0
-80 -528 0
-77 -529 0
-78 -530 0
-79 -531 0
-80 -532 0
-77 -533 0
-78 -534 0
-79 -535 0
-80 -536 0
-77 -537 0
-78 -538 0
-79 -539 0
-80 -540 0
-77 -557 0
-78 -558 0
-79 -559 0
-80 -560 0
-77 -561 0
-78 -562 0
-79 -563 0
-80 -564 0
-77 -565 0
-78 -566 0
-79 -567 0
-80 -568 0
-77 -569 0
-78 -570 0
-79 -571 0
-80 -572 0
-77 -581 0
-78 -582 0
-79 -583 0
-80 -584 0
-77 -589 0
-78 -590 0
-79 -591 0
-80 -592 0
-77 -597 0
-78 -598 0
-79 -599 0
-80 -600 0
-81 -93 0
-82 -94 0
-83 -95 0
-84 -96 0
-81 -97 0
-82 -98 0
-83 -99 0
-84 -100 0
-81 -109 0
-82 -110 0
-83 -111 0
-84 -112 0
-81 -129 0
-82 -130 0
-83 -131 0
-84 -132 0
-81 -133 0
-82 -134 0
-83 -135 0
-84 -136 0
-81 -149 0
-82 -150 0
-83 -151 0
-84 -152 0
-81 -165 0
-82 -166 0
-83 -167 0
-84 -168 0
-81 -169 0
-82 -170 0
-83 -171 0
-84 -172 0
-81 -173 0
-82 -174 0
-83 -175 0
-84 -176 0
-81 -185 0
-82 -186 0
-83 -187 0
-84 -188 0
-81 -189 0
-82 -190 0
-83 -191 0
-84 -192 0
-81 -201 0
-82 -202 0
-83 -203 0
-84 -204 0
-81 -205 0
-82 -206 0
-83 -207 0
-84 -208 0
-81 -209 0
-82 -210 0
-83 -211 0
-84 -212 0
-81 -213 0
-82 -214 0
-83 -215 0
-84 -216 0
-81 -217 0
-82 -218 0
-83 -219 0
-84 -220 0
-81 -221 0
-82 -222 0
-83 -223 0
-84 -224 0
-81 -233 0
-82 -234 0
-83 -235 0
-84 -236 0
-81 -245 0
-82 -246 0
-83 -247 0
-84 -248 0
-81 -265 0
-82 -266 0
-83 -267 0
-84 -268 0
-81 -273 0
-82 -274 0
-83 -275 0
-84 -276 0
-81 -281 0
-82 -282 0
-83 -283 0
-84 -284 0
-81 -285 0
-82 -286 0
-83 -287 0
-84 -288 0
-81 -289 0
-82 -290 0
-83 -291 0
-84 -292 0
-81 -293 0
-82 -294 0
-83 -295 0
-84 -296 0
-81 -301 0
-82 -302 0
-83 -303 0
-84 -304 0
-81 -329 0
-82 -330 0
-83 -331 0
-84 -332 0
-81 -333 0
-82 -334 0
-83 -335 0
-84 -336 0
-81 -341 0
-82 -342 0
-83 -343 0
-84 -344 0
-81 -345 0
-82 -346 0
-83 -347 0
-84 -348 0
-81 -357 0
-82 -358 0
-83 -359 0
-84 -360 0
-81 -361 0
-82 -362 0
-83 -363 0
-84 -364 0
-81 -369 0
-82 -370 0
-83 -371 0
-84 -372 0
-81 -377 0
-82 -378 0
-83 -379 0
-84 -380 0
-81 -393 0
-82 -394 0
-83 -395 0
-84 -396 0
-81 -421 0
-82 -422 0
-83 -423 0
-84 -424 0
-81 -429 0
-82 -430 0
-83 -431 0
-84 -432 0
-81 -437 0
-82 -438 0
-83 -439 0
-84 -440 0
-81 -449 0
-82 -450 0
-83 -451 0
-84 -452 0
-81 -453 0
-82 -454 0
-83 -455 0
-84 -456 0
-81 -457 0
-82 -458 0
-83 -459 0
-84 -460 0
-81 -461 0
-82 -462 0
-83 -463 0
-84 -464 0
-81 -469 0
-82 -470 0
-83 -471 0
-84 -472 0
-81 -473 0
-82 -474 0
-83 -475 0
-84 -476 0
-81 -485 0
-82 -486 0
-83 -487 0
-84 -488 0
-81 -493 0
-82 -494 0
-83 -495 0
-84 -496 0
-81 -505 0
-82 -506 0
-83 -507 0
-84 -508 0
-81 -513 0
-82 -514 0
-83 -515 0
-84 -516 0
-81 -517 0
-82 -518 0
-83 -519 0
-84 -520 0
-81 -525 0
-82 -526 0
-83 -527 0
-84 -528 0
-81 -529 0
-82 -530 0
-83 -531 0
-84 -532 0
-81 -541 0
-82 -542 0
-83 -543 0
-84 -544 0
-81 -549 0
-82 -550 0
-83 -551 0
-84 -552 0
-81 -553 0
-82 -554 0
-83 -555 0
-84 -556 0
-81 -557 0
-82 -558 0
-83 -559 0
-84 -560 0
-81 -565 0
-82 -566 0
-83 -567 0
-84 -568 0
-81 -569 0
-82 -570 0
-83 -571 0
-84 -572 0
-81 -573 0
-82 -574 0
-83 -575 0
-84 -576 0
-81 -577 0
-82 -578 0
-83 -579 0
-84 -580 0
-81 -581 0
-82 -582 0
-83 -583 0
-84 -584 0
-81 -585 0
-82 -586 0
-83 -587 0
-84 -588 0
-81 -589 0
-82 -590 0
-83 -591 0
-84 -592 0
-81 -593 0
-82 -594 0
-83 -595 0
-84 -596 0
-81 -597 0
-82 -598 0
-83 -599 0
-84 -600 0
-85 -93 0
-86 -94 0
-87 -95 0
-88 -96 0
-85 -97 0
-86 -98 0
-87 -99 0
-88 -100 0
-85 -113 0
-86 -114 0
-87 -115 0
-88 -116 0
-85 -129 0
-86 -130 0
-87 -131 0
-88 -132 0
-85 -133 0
-86 -134 0
-87 -135 0
-88 -136 0
-85 -145 0
-86 -146 0
-87 -147 0
-88 -148 0
-85 -149 0
-86 -150 0
-87 -151 0
-88 -152 0
-85 -165 0
-86 -166 0
-87 -167 0
-88 -168 0
-85 -173 0
-86 -174 0
-87 -175 0
-88 -176 0
-85 -177 0
-86 -178 0
-87 -179 0
-88 -180 0
-85 -185 0
-86 -186 0
-87 -187 0
-88 -188 0
-85 -205 0
-86 -206 0
-87 -207 0
-88 -208 0
-85 -209 0
-86 -210 0
-87 -211 0
-88 -212 0
-85 -221 0
-86 -222 0
-87 -223 0
-88 -224 0
-85 -229 0
-86 -230 0
-87 -231 0
-88 -232 0
-85 -233 0
-86 -234 0
-87 -235 0
-88 -236 0
-85 -245 0
-86 -246 0
-87 -247 0
-88 -248 0
-85 -253 0
-86 -254 0
-87 -255 0
-88 -256 0
-85 -261 0
-86 -262 0
-87 -263 0
-88 -264 0
-85 -269 0
-86 -270 0
-87 -271 0
-88 -272 0
-85 -281 0
-86 -282 0
-87 -283 0
-88 -284 0
-85 -301 0
-86 -302 0
-87 -303 0
-88 -304 0
-85 -305 0
-86 -306 0
-87 -307 0
-88 -308 0
-85 -333 0
-86 -334 0
-87 -335 0
-88 -336 0
-85 -341 0
-86 -342 0
-87 -343 0
-88 -344 0
-85 -357 0
-86 -358 0
-87 -359 0
-88 -360 0
-85 -361 0
-86 -362 0
-87 -363 0
-88 -364 0
-85 -369 0
-86 -370 0
-87 -371 0
-88 -372 0
-85 -373 0
-86 -374 0
-87 -375 0
-88 -376 0
-85 -377 0
-86 -378 0
-87 -379 0
-88 -380 0
-85 -381 0
-86 -382 0
-87 -383 0
-88 -384 0
-85 -393 0
-86 -394 0
-87 -395 0
-88 -396 0
-85 -405 0
-86 -406 0
-87 -407 0
-88 -408 0
-85 -409 0
-86 -410 0
-87 -411 0
-88 -412 0
-85 -417 0
-86 -418 0
-87 -419 0
-88 -420 0
-85 -421 0
-86 -422 0
-87 -423 0
-88 -424 0
-85 -425 0
-86 -426 0
-87 -427 0
-88 -428 0
-85 -429 0
-86 -430 0
-87 -431 0
-88 -432 0
-85 -437 0
-86 -438 0
-87 -439 0
-88 -440 0
-85 -445 0
-86 -446 0
-87 -447 0
-88 -448 0
-85 -449 0
-86 -450 0
-87 -451 0
-88 -452 0
-85 -453 0
-86 -454 0
-87 -455 0
-88 -456 0
-85 -457 0
-86 -458 0
-87 -459 0
-88 -460 0
-85 -461 0
-86 -462 0
-87 -463 0
-88 -464 0
-85 -465 0
-86 -466 0
-87 -467 0
-88 -468 0
-85 -485 0
-86 -486 0
-87 -487 0
-88 -488 0
-85 -493 0
-86 -494 0
-87 -495 0
-88 -496 0
-85 -501 0
-86 -502 0
-87 -503 0
-88 -504 0
-85 -505 0
-86 -506 0
-87 -507 0
-88 -508 0
-85 -513 0
-86 -514 0
-87 -515 0
-88 -516 0
-85 -517 0
-86 -518 0
-87 -519 0
-88 -520 0
-85 -525 0
-86 -526 0
-87 -527 0
-88 -528 0
-85 -529 0
-86 -530 0
-87 -531 0
-88 -532 0
-85 -533 0
-86 -534 0
-87 -535 0
-88 -536 0
-85 -537 0
-86 -538 0
-87 -539 0
-88 -540 0
-85 -541 0
-86 -542 0
-87 -543 0
-88 -544 0
-85 -549 0
-86 -550 0
-87 -551 0
-88 -552 0
-85 -553 0
-86 -554 0
-87 -555 0
-88 -556 0
-85 -557 0
-86 -558 0
-87 -559 0
-88 -560 0
-85 -565 0
-86 -566 0
-87 -567 0
-88 -568 0
-85 -569 0
-86 -570 0
-87 -571 0
-88 -572 0
-85 -573 0
-86 -574 0
-87 -575 0
-88 -576 0
-85 -577 0
-86 -578 0
-87 -579 0
-88 -580 0
-85 -589 0
-86 -590 0
-87 -591 0
-88 -592 0
-85 -593 0
-86 -594 0
-87 -595 0
-88 -596 0
-85 -597 0
-86 -598 0
-87 -599 0
-88 -600 0
-89 -93 0
-90 -94 0
-91 -95 0
-92 -96 0
-89 -109 0
-90 -110 0
-91 -111 0
-92 -112 0
-89 -113 0
-90 -114 0
-91 -115 0
-92 -116 0
-89 -129 0
-90 -130 0
-91 -131 0
-92 -132 0
-89 -133 0
-90 -134 0
-91 -135 0
-92 -136 0
-89 -137 0
-90 -138 0
-91 -139 0
-92 -140 0
-89 -149 0
-90 -150 0
-91 -151 0
-92 -152 0
-89 -165 0
-90 -166 0
-91 -167 0
-92 -168 0
-89 -177 0
-90 -178 0
-91 -179 0
-92 -180 0
-89 -185 0
-90 -186 0
-91 -187 0
-92 -188 0
-89 -193 0
-90 -194 0
-91 -195 0
-92 -196 0
-89 -205 0
-90 -206 0
-91 -207 0
-92 -208 0
-89 -209 0
-90 -210 0
-91 -211 0
-92 -212 0
-89 -213 0
-90 -214 0
-91 -215 0
-92 -216 0
-89 -217 0
-90 -218 0
-91 -219 0
-92 -220 0
-89 -221 0
-90 -222 0
-91 -223 0
-92 -224 0
-89 -229 0
-90 -230 0
-91 -231 0
-92 -232 0
-89 -233 0
-90 -234 0
-91 -235 0
-92 -236 0
-89 -253 0
-90 -254 0
-91 -255 0
-92 -256 0
-89 -265 0
-90 -266 0
-91 -267 0
-92 -268 0
-89 -269 0
-90 -270 0
-91 -271 0
-92 -272 0
-89 -273 0
-90 -274 0
-91 -275 0
-92 -276 0
-89 -285 0
-90 -286 0
-91 -287 0
-92 -288 0
-89 -293 0
-90 -294 0
-91 -295 0
-92 -296 0
-89 -301 0
-90 -302 0
-91 -303 0
-92 -304 0
-89 -321 0
-90 -322 0
-91 -323 0
-92 -324 0
-89 -329 0
-90 -330 0
-91 -331 0
-92 -332 0
-89 -337 0
-90 -338 0
-91 -339 0
-92 -340 0
-89 -353 0
-90 -354 0
-91 -355 0
-92 -356 0
-89 -357 0
-90 -358 0
-91 -359 0
-92 -360 0
-89 -361 0
-90 -362 0
-91 -363 0
-92 -364 0
-89 -373 0
-90 -374 0
-91 -375 0
-92 -376 0
-89 -377 0
-90 -378 0
-91 -379 0
-92 -380 0
-89 -381 0
-90 -382 0
-91 -383 0
-92 -384 0
-89 -385 0
-90 -386 0
-91 -387 0
-92 -388 0
-89 -393 0
-90 -394 0
-91 -395 0
-92 -396 0
-89 -405 0
-90 -406 0
-91 -407 0
-92 -408 0
-89 -409 0
-90 -410 0
-91 -411 0
-92 -412 0
-89 -417 0
-90 -418 0
-91 -419 0
-92 -420 0
-89 -421 0
-90 -422 0
-91 -423 0
-92 -424 0
-89 -425 0
-90 -426 0
-91 -427 0
-92 -428 0
-89 -437 0
-90 -438 0
-91 -439 0
-92 -440 0
-89 -445 0
-90 -446 0
-91 -447 0
-92 -448 0
-89 -449 0
-90 -450 0
-91 -451 0
-92 -452 0
-89 -457 0
-90 -458 0
-91 -459 0
-92 -460 0
-89 -461 0
-90 -462 0
-91 -463 0
-92 -464 0
-89 -469 0
-90 -470 0
-91 -471 0
-92 -472 0
-89 -473 0
-90 -474 0
-91 -475 0
-92 -476 0
-89 -485 0
-90 -486 0
-91 -487 0
-92 -488 0
-89 -505 0
-90 -506 0
-91 -507 0
-92 -508 0
-89 -509 0
-90 -510 0
-91 -511 0
-92 -512 0
-89 -517 0
-90 -518 0
-91 -519 0
-92 -520 0
-89 -525 0
-90 -526 0
-91 -527 0
-92 -528 0
-89 -529 0
-90 -530 0
-91 -531 0
-92 -532 0
-89 -533 0
-90 -534 0
-91 -535 0
-92 -536 0
-89 -537 0
-90 -538 0
-91 -539 0
-92 -540 0
-89 -541 0
-90 -542 0
-91 -543 0
-92 -544 0
-89 -557 0
-90 -558 0
-91 -559 0
-92 -560 0
-89 -565 0
-90 -566 0
-91 -567 0
-92 -568 0
-89 -573 0
-90 -574 0
-91 -575 0
-92 -576 0
-89 -577 0
-90 -578 0
-91 -579 0
-92 -580 0
-89 -585 0
-90 -586 0
-91 -587 0
-92 -588 0
-89 -589 0
-90 -590 0
-91 -591 0
-92 -592 0
-89 -597 0
-90 -598 0
-91 -599 0
-92 -600 0
-93 -97 0
-94 -98 0
-95 -99 0
-96 -100 0
-93 -101 0
-94 -102 0
-95 -103 0
-96 -104 0
-93 -105 0
-94 -106 0
-95 -107 0
-96 -108 0
-93 -109 0
-94 -110 0
-95 -111 0
-96 -112 0
-93 -117 0
-94 -118 0
-95 -119 0
-96 -120 0
-93 -125 0
-94 -126 0
-95 -127 0
-96 -128 0
-93 -133 0
-94 -134 0
-95 -135 0
-96 -136 0
-93 -137 0
-94 -138 0
-95 -139 0
-96 -140 0
-93 -141 0
-94 -142 0
-95 -143 0
-96 -144 0
-93 -153 0
-94 -154 0
-95 -155 0
-96 -156 0
-93 -157 0
-94 -158 0
-95 -159 0
-96 -160 0
-93 -161 0
-94 -162 0
-95 -163 0
-96 -164 0
-93 -165 0
-94 -166 0
-95 -167 0
-96 -168 0
-93 -169 0
-94 -170 0
-95 -171 0
-96 -172 0
-93 -173 0
-94 -174 0
-95 -175 0
-96 -176 0
-93 -193 0
-94 -194 0
-95 -195 0
-96 -196 0
-93 -229 0
-94 -230 0
-95 -231 0
-96 -232 0
-93 -237 0
-94 -238 0
-95 -239 0
-96 -240 0
-93 -241 0
-94 -242 0
-95 -243 0
-96 -244 0
-93 -245 0
-94 -246 0
-95 -247 0
-96 -248 0
-93 -249 0
-94 -250 0
-95 -251 0
-96 -252 0
-93 -261 0
-94 -262 0
-95 -263 0
-96 -264 0
-93 -269 0
-94 -270 0
-95 -271 0
-96 -272 0
-93 -273 0
-94 -274 0
-95 -275 0
-96 -276 0
-93 -277 0
-94 -278 0
-95 -279 0
-96 -280 0
-93 -285 0
-94 -286 0
-95 -287 0
-96 -288 0
-93 -293 0
-94 -294 0
-95 -295 0
-96 -296 0
-93 -297 0
-94 -298 0
-95 -299 0
-96 -300 0
-93 -305 0
-94 -306 0
-95 -307 0
-96 -308 0
-93 -309 0
-94 -310 0
-95 -311 0
-96 -312 0
-93 -313 0
-94 -314 0
-95 -315 0
-96 -316 0
-93 -317 0
-94 -318 0
-95 -319 0
-96 -320 0
-93 -321 0
-94 -322 0
-95 -323 0
-96 -324 0
-93 -325 0
-94 -326 0
-95 -327 0
-96 -328 0
-93 -337 0
-94 -338 0
-95 -339 0
-96 -340 0
-93 -345 0
-94 -346 0
-95 -347 0
-96 -348 0
-93 -349 0
-94 -350 0
-95 -351 0
-96 -352 0
-93 -357 0
-94 -358 0
-95 -359 0
-96 -360 0
-93 -361 0
-94 -362 0
-95 -363 0
-96 -364 0
-93 -365 0
-94 -366 0
-95 -367 0
-96 -368 0
-93 -373 0
-94 -374 0
-95 -375 0
-96 -376 0
-93 -385 0
-94 -386 0
-95 -387 0
-96 -388 0
-93 -393 0
-94 -394 0
-95 -395 0
-96 -396 0
-93 -401 0
-94 -402 0
-95 -403 0
-96 -404 0
-93 -405 0
-94 -406 0
-95 -407 0
-96 -408 0
-93 -413 0
-94 -414 0
-95 -415 0
-96 -416 0
-93 -417 0
-94 -418 0
-95 -419 0
-96 -420 0
-93 -421 0
-94 -422 0
-95 -423 0
-96 -424 0
-93 -429 0
-94 -430 0
-95 -431 0
-96 -432 0
-93 -437 0
-94 -438 0
-95 -439 0
-96 -440 0
-93 -453 0
-94 -454 0
-95 -455 0
-96 -456 0
-93 -469 0
-94 -470 0
-95 -471 0
-96 -472 0
-93 -481 0
-94 -482 0
-95 -483 0
-96 -484 0
-93 -489 0
-94 -490 0
-95 -491 0
-96 -492 0
-93 -505 0
-94 -506 0
-95 -507 0
-96 -508 0
-93 -525 0
-94 -526 0
-95 -527 0
-96 -528 0
-93 -529 0
-94 -530 0
-95 -531 0
-96 -532 0
-93 -541 0
-94 -542 0
-95 -543 0
-96 -544 0
-93 -545 0
-94 -546 0
-95 -547 0
-96 -548 0
-93 -573 0
-94 -574 0
-95 -575 0
-96 -576 0
-93 -577 0
-94 -578 0
-95 -579 0
-96 -580 0
-93 -581 0
-94 -582 0
-95 -583 0
-96 -584 0
-93 -589 0
-94 -590 0
-95 -591 0
-96 -592 0
-93 -593 0
-94 -594 0
-95 -595 0
-96 -596 0
-93 -597 0
-94 -598 0
-95 -599 0
-96 -600 0
-97 -101 0
-98 -102 0
-99 -103 0
-100 -104 0
-97 -109 0
-98 -110 0
-99 -111 0
-100 -112 0
-97 -117 0
-98 -118 0
-99 -119 0
-100 -120 0
-97 -125 0
-98 -126 0
-99 -127 0
-100 -128 0
-97 -129 0
-98 -130 0
-99 -131 0
-100 -132 0
-97 -133 0
-98 -134 0
-99 -135 0
-100 -136 0
-97 -141 0
-98 -142 0
-99 -143 0
-100 -144 0
-97 -157 0
-98 -158 0
-99 -159 0
-100 -160 0
-97 -161 0
-98 -162 0
-99 -163 0
-100 -164 0
-97 -177 0
-98 -178 0
-99 -179 0
-100 -180 0
-97 -181 0
-98 -182 0
-99 -183 0
-100 -184 0
-97 -185 0
-98 -186 0
-99 -187 0
-100 -188 0
-97 -197 0
-98 -198 0
-99 -199 0
-100 -200 0
-97 -201 0
-98 -202 0
-99 -203 0
-100 -204 0
-97 -205 0
-98 -206 0
-99 -207 0
-100 -208 0
-97 -217 0
-98 -218 0
-99 -219 0
-100 -220 0
-97 -221 0
-98 -222 0
-99 -223 0
-100 -224 0
-97 -225 0
-98 -226 0
-99 -227 0
-100 -228 0
-97 -229 0
-98 -230 0
-99 -231 0
-100 -232 0
-97 -233 0
-98 -234 0
-99 -235 0
-100 -236 0
-97 -237 0
-98 -238 0
-99 -239 0
-100 -240 0
-97 -241 0
-98 -242 0
-99 -243 0
-100 -244 0
-97 -245 0
-98 -246 0
-99 -247 0
-100 -248 0
-97 -253 0
-98 -254 0
-99 -255 0
-100 -256 0
-97 -273 0
-98 -274 0
-99 -275 0
-100 -276 0
-97 -277 0
-98 -278 0
-99 -279 0
-100 -280 0
-97 -289 0
-98 -290 0
-99 -291 0
-100 -292 0
-97 -293 0
-98 -294 0
-99 -295 0
-100 -296 0
-97 -297 0
-98 -298 0
-99 -299 0
-100 -300 0
-97 -309 0
-98 -310 0
-99 -311 0
-100 -312 0
-97 -313 0
-98 -314 0
-99 -315 0
-100 -316 0
-97 -325 0
-98 -326 0
-99 -327 0
-100 -328 0
-97 -329 0
-98 -330 0
-99 -331 0
-100 -332 0
-97 -341 0
-98 -342 0
-99 -343 0
-100 -344 0
-97 -345 0
-98 -346 0
-99 -347 0
-100 -348 0
-97 -357 0
-98 -358 0
-99 -359 0
-100 -360 0
-97 -365 0
-98 -366 0
-99 -367 0
-100 -368 0
-97 -369 0
-98 -370 0
-99 -371 0
-100 -372 0
-97 -373 0
-98 -374 0
-99 -375 0
-100 -376 0
-97 -389 0
-98 -390 0
-99 -391 0
-100 -392 0
-97 -393 0
-98 -394 0
-99 -395 0
-100 -396 0
-97 -397 0
-98 -398 0
-99 -399 0
-100 -400 0
-97 -401 0
-98 -402 0
-99 -403 0
-100 -404 0
-97 -413 0
-98 -414 0
-99 -415 0
-100 -416 0
-97 -425 0
-98 -426 0
-99 -427 0
-100 -428 0
-97 -433 0
-98 -434 0
-99 -435 0
-100 -436 0
-97 -437 0
-98 -438 0
-99 -439 0
-100 -440 0
-97 -441 0
-98 -442 0
-99 -443 0
-100 -444 0
-97 -457 0
-98 -458 0
-99 -459 0
-100 -460 0
-97 -461 0
-98 -462 0
-99 -463 0
-100 -464 0
-97 -465 0
-98 -466 0
-99 -467 0
-100 -468 0
-97 -477 0
-98 -478 0
-99 -479 0
-100 -480 0
-97 -481 0
-98 -482 0
-99 -483 0
-100 -484 0
-97 -489 0
-98 -490 0
-99 -491 0
-100 -492 0
-97 -493 0
-98 -494 0
-99 -495 0
-100 -496 0
-97 -497 0
-98 -498 0
-99 -499 0
-100 -500 0
-97 -501 0
-98 -502 0
-99 -503 0
-100 -504 0
-97 -509 0
-98 -510 0
-99 -511 0
-100 -512 0
-97 -513 0
-98 -514 0
-99 -515 0
-100 -516 0
-97 -537 0
-98 -538 0
-99 -539 0
-100 -540 0
-97 -545 0
-98 -546 0
-99 -547 0
-100 -548 0
-97 -561 0
-98 -562 0
-99 -563 0
-100 -564 0
-97 -569 0
-98 -570 0
-99 -571 0
-100 -572 0
-97 -573 0
-98 -574 0
-99 -575 0
-100 -576 0
-97 -577 0
-98 -578 0
-99 -579 0
-100 -580 0
-101 -129 0
-102 -130 0
-103 -131 0
-104 -132 0
-101 -137 0
-102 -138 0
-103 -139 0
-104 -140 0
-101 -145 0
-102 -146 0
-103 -147 0
-104 -148 0
-101 -169 0
-102 -170 0
-103 -171 0
-104 -172 0
-101 -173 0
-102 -174 0
-103 -175 0
-104 -176 0
-101 -177 0
-102 -178 0
-103 -179 0
-104 -180 0
-101 -189 0
-102 -190 0
-103 -191 0
-104 -192 0
-101 -201 0
-102 -202 0
-103 -203 0
-104 -204 0
-101 -205 0
-102 -206 0
-103 -207 0
-104 -208 0
-101 -213 0
-102 -214 0
-103 -215 0
-104 -216 0
-101 -221 0
-102 -222 0
-103 -223 0
-104 -224 0
-101 -229 0
-102 -230 0
-103 -231 0
-104 -232 0
-101 -233 0
-102 -234 0
-103 -235 0
-104 -236 0
-101 -241 0
-102 -242 0
-103 -243 0
-104 -244 0
-101 -245 0
-102 -246 0
-103 -247 0
-104 -248 0
-101 -253 0
-102 -254 0
-103 -255 0
-104 -256 0
-101 -261 0
-102 -262 0
-103 -263 0
-104 -264 0
-101 -265 0
-102 -266 0
-103 -267 0
-104 -268 0
-101 -269 0
-102 -270 0
-103 -271 0
-104 -272 0
-101 -273 0
-102 -274 0
-103 -275 0
-104 -276 0
-101 -281 0
-102 -282 0
-103 -283 0
-104 -284 0
-101 -285 0
-102 -286 0
-103 -287 0
-104 -288 0
-101 -289 0
-102 -290 0
-103 -291 0
-104 -292 0
-101 -293 0
-102 -294 0
-103 -295 0
-104 -296 0
-101 -301 0
-102 -302 0
-103 -303 0
-104 -304 0
-101 -305 0
-102 -306 0
-103 -307 0
-104 -308 0
-101 -333 0
-102 -334 0
-103 -335 0
-104 -336 0
-101 -337 0
-102 -338 0
-103 -339 0
-104 -340 0
-101 -345 0
-102 -346 0
-103 -347 0
-104 -348 0
-101 -353 0
-102 -354 0
-103 -355 0
-104 -356 0
-101 -357 0
-102 -358 0
-103 -359 0
-104 -360 0
-101 -369 0
-102 -370 0
-103 -371 0
-104 -372 0
-101 -373 0
-102 -374 0
-103 -375 0
-104 -376 0
-101 -393 0
-102 -394 0
-103 -395 0
-104 -396 0
-101 -405 0
-102 -406 0
-103 -407 0
-104 -408 0
-101 -409 0
-102 -410 0
-103 -411 0
-104 -412 0
-101 -417 0
-102 -418 0
-103 -419 0
-104 -420 0
-101 -421 0
-102 -422 0
-103 -423 0
-104 -424 0
-101 -425 0
-102 -426 0
-103 -427 0
-104 -428 0
-101 -429 0
-102 -430 0
-103 -431 0
-104 -432 0
-101 -437 0
-102 -438 0
-103 -439 0
-104 -440 0
-101 -445 0
-102 -446 0
-103 -447 0
-104 -448 0
-101 -453 0
-102 -454 0
-103 -455 0
-104 -456 0
-101 -461 0
-102 -462 0
-103 -463 0
-104 -464 0
-101 -469 0
-102 -470 0
-103 -471 0
-104 -472 0
-101 -473 0
-102 -474 0
-103 -475 0
-104 -476 0
-101 -477 0
-102 -478 0
-103 -479 0
-104 -480 0
-101 -485 0
-102 -486 0
-103 -487 0
-104 -488 0
-101 -493 0
-102 -494 0
-103 -495 0
-104 -496 0
-101 -501 0
-102 -502 0
-103 -503 0
-104 -504 0
-101 -505 0
-102 -506 0
-103 -507 0
-104 -508 0
-101 -509 0
-102 -510 0
-103 -511 0
-104 -512 0
-101 -513 0
-102 -514 0
-103 -515 0
-104 -516 0
-101 -525 0
-102 -526 0
-103 -527 0
-104 -528 0
-101 -537 0
-102 -538 0
-103 -539 0
-104 -540 0
-101 -549 0
-102 -550 0
-103 -551 0
-104 -552 0
-101 -553 0
-102 -554 0
-103 -555 0
-104 -556 0
-101 -561 0
-102 -562 0
-103 -563 0
-104 -564 0
-101 -565 0
-102 -566 0
-103 -567 0
-104 -568 0
-101 -569 0
-102 -570 0
-103 -571 0
-104 -572 0
-101 -581 0
-102 -582 0
-103 -583 0
-104 -584 0
-101 -585 0
-102 -586 0
-103 -587 0
-104 -588 0
-101 -593 0
-102 -594 0
-103 -595 0
-104 -596 0
-105 -109 0
-106 -110 0
-107 -111 0
-108 -112 0
-105 -129 0
-106 -130 0
-107 -131 0
-108 -132 0
-105 -133 0
-106 -134 0
-107 -135 0
-108 -136 0
-105 -137 0
-106 -138 0
-107 -139 0
-108 -140 0
-105 -145 0
-106 -146 0
-107 -147 0
-108 -148 0
-105 -165 0
-106 -166 0
-107 -167 0
-108 -168 0
-105 -169 0
-106 -170 0
-107 -171 0
-108 -172 0
-105 -173 0
-106 -174 0
-107 -175 0
-108 -176 0
-105 -177 0
-106 -178 0
-107 -179 0
-108 -180 0
-105 -185 0
-106 -186 0
-107 -187 0
-108 -188 0
-105 -189 0
-106 -190 0
-107 -191 0
-108 -192 0
-105 -193 0
-106 -194 0
-107 -195 0
-108 -196 0
-105 -201 0
-106 -202 0
-107 -203 0
-108 -204 0
-105 -217 0
-106 -218 0
-107 -219 0
-108 -220 0
-105 -221 0
-106 -222 0
-107 -223 0
-108 -224 0
-105 -229 0
-106 -230 0
-107 -231 0
-108 -232 0
-105 -245 0
-106 -246 0
-107 -247 0
-108 -248 0
-105 -253 0
-106 -254 0
-107 -255 0
-108 -256 0
-105 -261 0
-106 -262 0
-107 -263 0
-108 -264 0
-105 -273 0
-106 -274 0
-107 -275 0
-108 -276 0
-105 -281 0
-106 -282 0
-107 -283 0
-108 -284 0
-105 -285 0
-106 -286 0
-107 -287 0
-108 -288 0
-105 -293 0
-106 -294 0
-107 -295 0
-108 -296 0
-105 -301 0
-106 -302 0
-107 -303 0
-108 -304 0
-105 -305 0
-106 -306 0
-107 -307 0
-108 -308 0
-105 -321 0
-106 -322 0
-107 -323 0
-108 -324 0
-105 -341 0
-106 -342 0
-107 -343 0
-108 -344 0
-105 -345 0
-106 -346 0
-107 -347 0
-108 -348 0
-105 -357 0
-106 -358 0
-107 -359 0
-108 -360 0
-105 -361 0
-106 -362 0
-107 -363 0
-108 -364 0
-105 -373 0
-106 -374 0
-107 -375 0
-108 -376 0
-105 -381 0
-106 -382 0
-107 -383 0
-108 -384 0
-105 -409 0
-106 -410 0
-107 -411 0
-108 -412 0
-105 -417 0
-106 -418 0
-107 -419 0
-108 -420 0
-105 -421 0
-106 -422 0
-107 -423 0
-108 -424 0
-105 -425 0
-106 -426 0
-107 -427 0
-108 -428 0
-105 -429 0
-106 -430 0
-107 -431 0
-108 -432 0
-105 -437 0
-106 -438 0
-107 -439 0
-108 -440 0
-105 -453 0
-106 -454 0
-107 -455 0
-108 -456 0
-105 -461 0
-106 -462 0
-107 -463 0
-108 -464 0
-105 -465 0
-106 -466 0
-107 -467 0
-108 -468 0
-105 -473 0
-106 -474 0
-107 -475 0
-108 -476 0
-105 -493 0
-106 -494 0
-107 -495 0
-108 -496 0
-105 -505 0
-106 -506 0
-107 -507 0
-108 -508 0
-105 -509 0
-106 -510 0
-107 -511 0
-108 -512 0
-105 -513 0
-106 -514 0
-107 -515 0
-108 -516 0
-105 -517 0
-106 -518 0
-107 -519 0
-108 -520 0
-105 -525 0
-106 -526 0
-107 -527 0
-108 -528 0
-105 -529 0
-106 -530 0
-107 -531 0
-108 -532 0
-105 -537 0
-106 -538 0
-107 -539 0
-108 -540 0
-105 -541 0
-106 -542 0
-107 -543 0
-108 -544 0
-105 -557 0
-106 -558 0
-107 -559 0
-108 -560 0
-105 -565 0
-106 -566 0
-107 -567 0
-108 -568 0
-105 -569 0
-106 -570 0
-107 -571 0
-108 -572 0
-105 -577 0
-106 -578 0
-107 -579 0
-108 -580 0
-105 -581 0
-106 -582 0
-107 -583 0
-108 -584 0
-105 -589 0
-106 -590 0
-107 -591 0
-108 -592 0
-105 -597 0
-106 -598 0
-107 -599 0
-108 -600 0
-109 -113 0
-110 -114 0
-111 -115 0
-112 -116 0
-109 -117 0
-110 -118 0
-111 -119 0
-112 -120 0
-109 -125 0
-110 -126 0
-111 -127 0
-112 -128 0
-109 -129 0
-110 -130 0
-111 -131 0
-112 -132 0
-109 -137 0
-110 -138 0
-111 -139 0
-112 -140 0
-109 -145 0
-110 -146 0
-111 -147 0
-112 -148 0
-109 -149 0
-110 -150 0
-111 -151 0
-112 -152 0
-109 -153 0
-110 -154 0
-111 -155 0
-112 -156 0
-109 -157 0
-110 -158 0
-111 -159 0
-112 -160 0
-109 -161 0
-110 -162 0
-111 -163 0
-112 -164 0
-109 -165 0
-110 -166 0
-111 -167 0
-112 -168 0
-109 -169 0
-110 -170 0
-111 -171 0
-112 -172 0
-109 -181 0
-110 -182 0
-111 -183 0
-112 -184 0
-109 -189 0
-110 -190 0
-111 -191 0
-112 -192 0
-109 -213 0
-110 -214 0
-111 -215 0
-112 -216 0
-109 -217 0
-110 -218 0
-111 -219 0
-112 -220 0
-109 -221 0
-110 -222 0
-111 -223 0
-112 -224 0
-109 -225 0
-110 -226 0
-111 -227 0
-112 -228 0
-109 -233 0
-110 -234 0
-111 -235 0
-112 -236 0
-109 -237 0
-110 -238 0
-111 -239 0
-112 -240 0
-109 -257 0
-110 -258 0
-111 -259 0
-112 -260 0
-109 -261 0
-110 -262 0
-111 -263 0
-112 -264 0
-109 -265 0
-110 -266 0
-111 -267 0
-112 -268 0
-109 -277 0
-110 -278 0
-111 -279 0
-112 -280 0
-109 -281 0
-110 -282 0
-111 -283 0
-112 -284 0
-109 -285 0
-110 -286 0
-111 -287 0
-112 -288 0
-109 -289 0
-110 -290 0
-111 -291 0
-112 -292 0
-109 -297 0
-110 -298 0
-111 -299 0
-112 -300 0
-109 -305 0
-110 -306 0
-111 -307 0
-112 -308 0
-109 -313 0
-110 -314 0
-111 -315 0
-112 -316 0
-109 -317 0
-110 -318 0
-111 -319 0
-112 -320 0
-109 -333 0
-110 -334 0
-111 -335 0
-112 -336 0
-109 -337 0
-110 -338 0
-111 -339 0
-112 -340 0
-109 -341 0
-110 -342 0
-111 -343 0
-112 -344 0
-109 -353 0
-110 -354 0
-111 -355 0
-112 -356 0
-109 -361 0
-110 -362 0
-111 -363 0
-112 -364 0
-109 -365 0
-110 -366 0
-111 -367 0
-112 -368 0
-109 -369 0
-110 -370 0
-111 -371 0
-112 -372 0
-109 -377 0
-110 -378 0
-111 -379 0
-112 -380 0
-109 -381 0
-110 -382 0
-111 -383 0
-112 -384 0
-109 -389 0
-110 -390 0
-111 -391 0
-112 -392 0
-109 -397 0
-110 -398 0
-111 -399 0
-112 -400 0
-109 -401 0
-110 -402 0
-111 -403 0
-112 -404 0
-109 -409 0
-110 -410 0
-111 -411 0
-112 -412 0
-109 -425 0
-110 -426 0
-111 -427 0
-112 -428 0
-109 -433 0
-110 -434 0
-111 -435 0
-112 -436 0
-109 -441 0
-110 -442 0
-111 -443 0
-112 -444 0
-109 -449 0
-110 -450 0
-111 -451 0
-112 -452 0
-109 -453 0
-110 -454 0
-111 -455 0
-112 -456 0
-109 -457 0
-110 -458 0
-111 -459 0
-112 -460 0
-109 -473 0
-110 -474 0
-111 -475 0
-112 -476 0
-109 -481 0
-110 -482 0
-111 -483 0
-112 -484 0
-109 -489 0
-110 -490 0
-111 -491 0
-112 -492 0
-109 -497 0
-110 -498 0
-111 -499 0
-112 -500 0
-109 -501 0
-110 -502 0
-111 -503 0
-112 -504 0
-109 -509 0
-110 -510 0
-111 -511 0
-112 -512 0
-109 -513 0
-110 -514 0
-111 -515 0
-112 -516 0
-109 -521 0
-110 -522 0
-111 -523 0
-112 -524 0
-109 -529 0
-110 -530 0
-111 -531 0
-112 -532 0
-109 -533 0
-110 -534 0
-111 -535 0
-112 -536 0
-109 -545 0
-110 -546 0
-111 -547 0
-112 -548 0
-109 -557 0
-110 -558 0
-111 -559 0
-112 -560 0
-109 -581 0
-110 -582 0
-111 -583 0
-112 -584 0
-109 -589 0
-110 -590 0
-111 -591 0
-112 -592 0
-109 -597 0
-110 -598 0
-111 -599 0
-112 -600 0
-113 -125 0
-114 -126 0
-115 -127 0
-116 -128 0
-113 -129 0
-114 -130 0
-115 -131 0
-116 -132 0
-113 -133 0
-114 -134 0
-115 -135 0
-116 -136 0
-113 -145 0
-114 -146 0
-115 -147 0
-116 -148 0
-113 -153 0
-114 -154 0
-115 -155 0
-116 -156 0
-113 -161 0
-114 -162 0
-115 -163 0
-116 -164 0
-113 -173 0
-114 -174 0
-115 -175 0
-116 -176 0
-113 -177 0
-114 -178 0
-115 -179 0
-116 -180 0
-113 -193 0
-114 -194 0
-115 -195 0
-116 -196 0
-113 -197 0
-114 -198 0
-115 -199 0
-116 -200 0
-113 -201 0
-114 -202 0
-115 -203 0
-116 -204 0
-113 -217 0
-114 -218 0
-115 -219 0
-116 -220 0
-113 -221 0
-114 -222 0
-115 -223 0
-116 -224 0
-113 -225 0
-114 -226 0
-115 -227 0
-116 -228 0
-113 -233 0
-114 -234 0
-115 -235 0
-116 -236 0
-113 -237 0
-114 -238 0
-115 -239 0
-116 -240 0
-113 -245 0
-114 -246 0
-115 -247 0
-116 -248 0
-113 -249 0
-114 -250 0
-115 -251 0
-116 -252 0
-113 -253 0
-114 -254 0
-115 -255 0
-116 -256 0
-113 -265 0
-114 -266 0
-115 -267 0
-116 -268 0
-113 -269 0
-114 -270 0
-115 -271 0
-116 -272 0
-113 -273 0
-114 -274 0
-115 -275 0
-116 -276 0
-113 -277 0
-114 -278 0
-115 -279 0
-116 -280 0
-113 -289 0
-114 -290 0
-115 -291 0
-116 -292 0
-113 -293 0
-114 -294 0
-115 -295 0
-116 -296 0
-113 -297 0
-114 -298 0
-115 -299 0
-116 -300 0
-113 -309 0
-114 -310 0
-115 -311 0
-116 -312 0
-113 -317 0
-114 -318 0
-115 -319 0
-116 -320 0
-113 -321 0
-114 -322 0
-115 -323 0
-116 -324 0
-113 -325 0
-114 -326 0
-115 -327 0
-116 -328 0
-113 -333 0
-114 -334 0
-115 -335 0
-116 -336 0
-113 -341 0
-114 -342 0
-115 -343 0
-116 -344 0
-113 -345 0
-114 -346 0
-115 -347 0
-116 -348 0
-113 -357 0
-114 -358 0
-115 -359 0
-116 -360 0
-113 -365 0
-114 -366 0
-115 -367 0
-116 -368 0
-113 -369 0
-114 -370 0
-115 -371 0
-116 -372 0
-113 -389 0
-114 -390 0
-115 -391 0
-116 -392 0
-113 -397 0
-114 -398 0
-115 -399 0
-116 -400 0
-113 -401 0
-114 -402 0
-115 -403 0
-116 -404 0
-113 -413 0
-114 -414 0
-115 -415 0
-116 -416 0
-113 -417 0
-114 -418 0
-115 -419 0
-116 -420 0
-113 -421 0
-114 -422 0
-115 -423 0
-116 -424 0
-113 -425 0
-114 -426 0
-115 -427 0
-116 -428 0
-113 -433 0
-114 -434 0
-115 -435 0
-116 -436 0
-113 -437 0
-114 -438 0
-115 -439 0
-116 -440 0
-113 -441 0
-114 -442 0
-115 -443 0
-116 -444 0
-113 -461 0
-114 -462 0
-115 -463 0
-116 -464 0
-113 -473 0
-114 -474 0
-115 -475 0
-116 -476 0
-113 -477 0
-114 -478 0
-115 -479 0
-116 -480 0
-113 -485 0
-114 -486 0
-115 -487 0
-116 -488 0
-113 -489 0
-114 -490 0
-115 -491 0
-116 -492 0
-113 -493 0
-114 -494 0
-115 -495 0
-116 -496 0
-113 -497 0
-114 -498 0
-115 -499 0
-116 -500 0
-113 -501 0
-114 -502 0
-115 -503 0
-116 -504 0
-113 -509 0
-114 -510 0
-115 -511 0
-116 -512 0
-113 -513 0
-114 -514 0
-115 -515 0
-116 -516 0
-113 -517 0
-114 -518 0
-115 -519 0
-116 -520 0
-113 -521 0
-114 -522 0
-115 -523 0
-116 -524 0
-113 -533 0
-114 -534 0
-115 -535 0
-116 -536 0
-113 -541 0
-114 -542 0
-115 -543 0
-116 -544 0
-113 -545 0
-114 -546 0
-115 -547 0
-116 -548 0
-113 -553 0
-114 -554 0
-115 -555 0
-116 -556 0
-113 -561 0
-114 -562 0
-115 -563 0
-116 -564 0
-113 -573 0
-114 -574 0
-115 -575 0
-116 -576 0
-117 -129 0
-118 -130 0
-119 -131 0
-120 -132 0
-117 -133 0
-118 -134 0
-119 -135 0
-120 -136 0
-117 -145 0
-118 -146 0
-119 -147 0
-120 -148 0
-117 -149 0
-118 -150 0
-119 -151 0
-120 -152 0
-117 -173 0
-118 -174 0
-119 -175 0
-120 -176 0
-117 -189 0
-118 -190 0
-119 -191 0
-120 -192 0
-117 -205 0
-118 -206 0
-119 -207 0
-120 -208 0
-117 -209 0
-118 -210 0
-119 -211 0
-120 -212 0
-117 -213 0
-118 -214 0
-119 -215 0
-120 -216 0
-117 -217 0
-118 -218 0
-119 -219 0
-120 -220 0
-117 -241 0
-118 -242 0
-119 -243 0
-120 -244 0
-117 -245 0
-118 -246 0
-119 -247 0
-120 -248 0
-117 -253 0
-118 -254 0
-119 -255 0
-120 -256 0
-117 -261 0
-118 -262 0
-119 -263 0
-120 -264 0
-117 -269 0
-118 -270 0
-119 -271 0
-120 -272 0
-117 -285 0
-118 -286 0
-119 -287 0
-120 -288 0
-117 -289 0
-118 -290 0
-119 -291 0
-120 -292 0
-117 -293 0
-118 -294 0
-119 -295 0
-120 -296 0
-117 -301 0
-118 -302 0
-119 -303 0
-120 -304 0
-117 -321 0
-118 -322 0
-119 -323 0
-120 -324 0
-117 -329 0
-118 -330 0
-119 -331 0
-120 -332 0
-117 -333 0
-118 -334 0
-119 -335 0
-120 -336 0
-117 -337 0
-118 -338 0
-119 -339 0
-120 -340 0
-117 -341 0
-118 -342 0
-119 -343 0
-120 -344 0
-117 -353 0
-118 -354 0
-119 -355 0
-120 -356 0
-117 -357 0
-118 -358 0
-119 -359 0
-120 -360 0
-117 -361 0
-118 -362 0
-119 -363 0
-120 -364 0
-117 -369 0
-118 -370 0
-119 -371 0
-120 -372 0
-117 -373 0
-118 -374 0
-119 -375 0
-120 -376 0
-117 -377 0
-118 -378 0
-119 -379 0
-120 -380 0
-117 -393 0
-118 -394 0
-119 -395 0
-120 -396 0
-117 -417 0
-118 -418 0
-119 -419 0
-120 -420 0
-117 -421 0
-118 -422 0
-119 -423 0
-120 -424 0
-117 -429 0
-118 -430 0
-119 -431 0
-120 -432 0
-117 -437 0
-118 -438 0
-119 -439 0
-120 -440 0
-117 -453 0
-118 -454 0
-119 -455 0
-120 -456 0
-117 -457 0
-118 -458 0
-119 -459 0
-120 -460 0
-117 -461 0
-118 -462 0
-119 -463 0
-120 -464 0
-117 -465 0
-118 -466 0
-119 -467 0
-120 -468 0
-117 -469 0
-118 -470 0
-119 -471 0
-120 -472 0
-117 -473 0
-118 -474 0
-119 -475 0
-120 -476 0
-117 -477 0
-118 -478 0
-119 -479 0
-120 -480 0
-117 -493 0
-118 -494 0
-119 -495 0
-120 -496 0
-117 -501 0
-118 -502 0
-119 -503 0
-120 -504 0
-117 -505 0
-118 -506 0
-119 -507 0
-120 -508 0
-117 -513 0
-118 -514 0
-119 -515 0
-120 -516 0
-117 -517 0
-118 -518 0
-119 -519 0
-120 -520 0
-117 -525 0
-118 -526 0
-119 -527 0
-120 -528 0
-117 -533 0
-118 -534 0
-119 -535 0
-120 -536 0
-117 -537 0
-118 -538 0
-119 -539 0
-120 -540 0
-117 -549 0
-118 -550 0
-119 -551 0
-120 -552 0
-117 -553 0
-118 -554 0
-119 -555 0
-120 -556 0
-117 -569 0
-118 -570 0
-119 -571 0
-120 -572 0
-117 -573 0
-118 -574 0
-119 -575 0
-120 -576 0
-117 -577 0
-118 -578 0
-119 -579 0
-120 -580 0
-117 -581 0
-118 -582 0
-119 -583 0
-120 -584 0
-117 -589 0
-118 -590 0
-119 -591 0
-120 -592 0
-117 -593 0
-118 -594 0
-119 -595 0
-120 -596 0
-121 -137 0
-122 -138 0
-123 -139 0
-124 -140 0
-121 -145 0
-122 -146 0
-123 -147 0
-124 -148 0
-121 -149 0
-122 -150 0
-123 -151 0
-124 -152 0
-121 -165 0
-122 -166 0
-123 -167 0
-124 -168 0
-121 -169 0
-122 -170 0
-123 -171 0
-124 -172 0
-121 -177 0
-122 -178 0
-123 -179 0
-124 -180 0
-121 -193 0
-122 -194 0
-123 -195 0
-124 -196 0
-121 -205 0
-122 -206 0
-123 -207 0
-124 -208 0
-121 -209 0
-122 -210 0
-123 -211 0
-124 -212 0
-121 -213 0
-122 -214 0
-123 -215 0
-124 -216 0
-121 -217 0
-122 -218 0
-123 -219 0
-124 -220 0
-121 -229 0
-122 -230 0
-123 -231 0
-124 -232 0
-121 -233 0
-122 -234 0
-123 -235 0
-124 -236 0
-121 -241 0
-122 -242 0
-123 -243 0
-124 -244 0
-121 -245 0
-122 -246 0
-123 -247 0
-124 -248 0
-121 -265 0
-122 -266 0
-123 -267 0
-124 -268 0
-121 -285 0
-122 -286 0
-123 -287 0
-124 -288 0
-121 -293 0
-122 -294 0
-123 -295 0
-124 -296 0
-121 -305 0
-122 -306 0
-123 -307 0
-124 -308 0
-121 -321 0
-122 -322 0
-123 -323 0
-124 -324 0
-121 -329 0
-122 -330 0
-123 -331 0
-124 -332 0
-121 -337 0
-122 -338 0
-123 -339 0
-124 -340 0
-121 -353 0
-122 -354 0
-123 -355 0
-124 -356 0
-121 -357 0
-122 -358 0
-123 -359 0
-124 -360 0
-121 -361 0
-122 -362 0
-123 -363 0
-124 -364 0
-121 -373 0
-122 -374 0
-123 -375 0
-124 -376 0
-121 -377 0
-122 -378 0
-123 -379 0
-124 -380 0
-121 -381 0
-122 -382 0
-123 -383 0
-124 -384 0
-121 -393 0
-122 -394 0
-123 -395 0
-124 -396 0
-121 -409 0
-122 -410 0
-123 -411 0
-124 -412 0
-121 -417 0
-122 -418 0
-123 -419 0
-124 -420 0
-121 -421 0
-122 -422 0
-123 -423 0
-124 -424 0
-121 -425 0
-122 -426 0
-123 -427 0
-124 -428 0
-121 -437 0
-122 -438 0
-123 -439 0
-124 -440 0
-121 -445 0
-122 -446 0
-123 -447 0
-124 -448 0
-121 -449 0
-122 -450 0
-123 -451 0
-124 -452 0
-121 -457 0
-122 -458 0
-123 -459 0
-124 -460 0
-121 -461 0
-122 -462 0
-123 -463 0
-124 -464 0
-121 -465 0
-122 -466 0
-123 -467 0
-124 -468 0
-121 -501 0
-122 -502 0
-123 -503 0
-124 -504 0
-121 -505 0
-122 -506 0
-123 -507 0
-124 -508 0
-121 -513 0
-122 -514 0
-123 -515 0
-124 -516 0
-121 -517 0
-122 -518 0
-123 -519 0
-124 -520 0
-121 -525 0
-122 -526 0
-123 -527 0
-124 -528 0
-121 -529 0
-122 -530 0
-123 -531 0
-124 -532 0
-121 -533 0
-122 -534 0
-123 -535 0
-124 -536 0
-121 -549 0
-122 -550 0
-123 -551 0
-124 -552 0
-121 -557 0
-122 -558 0
-123 -559 0
-124 -560 0
-121 -565 0
-122 -566 0
-123 -567 0
-124 -568 0
-121 -577 0
-122 -578 0
-123 -579 0
-124 -580 0
-121 -581 0
-122 -582 0
-123 -583 0
-124 -584 0
-121 -585 0
-122 -586 0
-123 -587 0
-124 -588 0
-121 -593 0
-122 -594 0
-123 -595 0
-124 -596 0
-125 -129 0
-126 -130 0
-127 -131 0
-128 -132 0
-125 -133 0
-126 -134 0
-127 -135 0
-128 -136 0
-125 -137 0
-126 -138 0
-127 -139 0
-128 -140 0
-125 -145 0
-126 -146 0
-127 -147 0
-128 -148 0
-125 -169 0
-126 -170 0
-127 -171 0
-128 -172 0
-125 -173 0
-126 -174 0
-127 -175 0
-128 -176 0
-125 -177 0
-126 -178 0
-127 -179 0
-128 -180 0
-125 -185 0
-126 -186 0
-127 -187 0
-128 -188 0
-125 -189 0
-126 -190 0
-127 -191 0
-128 -192 0
-125 -193 0
-126 -194 0
-127 -195 0
-128 -196 0
-125 -205 0
-126 -206 0
-127 -207 0
-128 -208 0
-125 -209 0
-126 -210 0
-127 -211 0
-128 -212 0
-125 -213 0
-126 -214 0
-127 -215 0
-128 -216 0
-125 -217 0
-126 -218 0
-127 -219 0
-128 -220 0
-125 -221 0
-126 -222 0
-127 -223 0
-128 -224 0
-125 -229 0
-126 -230 0
-127 -231 0
-128 -232 0
-125 -233 0
-126 -234 0
-127 -235 0
-128 -236 0
-125 -241 0
-126 -242 0
-127 -243 0
-128 -244 0
-125 -245 0
-126 -246 0
-127 -247 0
-128 -248 0
-125 -253 0
-126 -254 0
-127 -255 0
-128 -256 0
-125 -261 0
-126 -262 0
-127 -263 0
-128 -264 0
-125 -265 0
-126 -266 0
-127 -267 0
-128 -268 0
-125 -273 0
-126 -274 0
-127 -275 0
-128 -276 0
-125 -281 0
-126 -282 0
-127 -283 0
-128 -284 0
-125 -285 0
-126 -286 0
-127 -287 0
-128 -288 0
-125 -289 0
-126 -290 0
-127 -291 0
-128 -292 0
-125 -293 0
-126 -294 0
-127 -295 0
-128 -296 0
-125 -301 0
-126 -302 0
-127 -303 0
-128 -304 0
-125 -305 0
-126 -306 0
-127 -307 0
-128 -308 0
-125 -329 0
-126 -330 0
-127 -331 0
-128 -332 0
-125 -333 0
-126 -334 0
-127 -335 0
-128 -336 0
-125 -337 0
-126 -338 0
-127 -339 0
-128 -340 0
-125 -341 0
-126 -342 0
-127 -343 0
-128 -344 0
-125 -353 0
-126 -354 0
-127 -355 0
-128 -356 0
-125 -369 0
-126 -370 0
-127 -371 0
-128 -372 0
-125 -377 0
-126 -378 0
-127 -379 0
-128 -380 0
-125 -381 0
-126 -382 0
-127 -383 0
-128 -384 0
-125 -385 0
-126 -386 0
-127 -387 0
-128 -388 0
-125 -409 0
-126 -410 0
-127 -411 0
-128 -412 0
-125 -417 0
-126 -418 0
-127 -419 0
-128 -420 0
-125 -425 0
-126 -426 0
-127 -427 0
-128 -428 0
-125 -429 0
-126 -430 0
-127 -431 0
-128 -432 0
-125 -437 0
-126 -438 0
-127 -439 0
-128 -440 0
-125 -453 0
-126 -454 0
-127 -455 0
-128 -456 0
-125 -461 0
-126 -462 0
-127 -463 0
-128 -464 0
-125 -465 0
-126 -466 0
-127 -467 0
-128 -468 0
-125 -477 0
-126 -478 0
-127 -479 0
-128 -480 0
-125 -493 0
-126 -494 0
-127 -495 0
-128 -496 0
-125 -501 0
-126 -502 0
-127 -503 0
-128 -504 0
-125 -505 0
-126 -506 0
-127 -507 0
-128 -508 0
-125 -509 0
-126 -510 0
-127 -511 0
-128 -512 0
-125 -517 0
-126 -518 0
-127 -519 0
-128 -520 0
-125 -525 0
-126 -526 0
-127 -527 0
-128 -528 0
-125 -529 0
-126 -530 0
-127 -531 0
-128 -532 0
-125 -533 0
-126 -534 0
-127 -535 0
-128 -536 0
-125 -549 0
-126 -550 0
-127 -551 0
-128 -552 0
-125 -561 0
-126 -562 0
-127 -563 0
-128 -564 0
-125 -565 0
-126 -566 0
-127 -567 0
-128 -568 0
-125 -569 0
-126 -570 0
-127 -571 0
-128 -572 0
-125 -573 0
-126 -574 0
-127 -575 0
-128 -576 0
-125 -577 0
-126 -578 0
-127 -579 0
-128 -580 0
-125 -581 0
-126 -582 0
-127 -583 0
-128 -584 0
-125 -589 0
-126 -590 0
-127 -591 0
-128 -592 0
-125 -593 0
-126 -594 0
-127 -595 0
-128 -596 0
-129 -133 0
-130 -134 0
-131 -135 0
-132 -136 0
-129 -149 0
-130 -150 0
-131 -151 0
-132 -152 0
-129 -153 0
-130 -154 0
-131 -155 0
-132 -156 0
-129 -157 0
-130 -158 0
-131 -159 0
-132 -160 0
-129 -161 0
-130 -162 0
-131 -163 0
-132 -164 0
-129 -165 0
-130 -166 0
-131 -167 0
-132 -168 0
-129 -169 0
-130 -170 0
-131 -171 0
-132 -172 0
-129 -173 0
-130 -174 0
-131 -175 0
-132 -176 0
-129 -181 0
-130 -182 0
-131 -183 0
-132 -184 0
-129 -189 0
-130 -190 0
-131 -191 0
-132 -192 0
-129 -193 0
-130 -194 0
-131 -195 0
-132 -196 0
-129 -209 0
-130 -210 0
-131 -211 0
-132 -212 0
-129 -225 0
-130 -226 0
-131 -227 0
-132 -228 0
-129 -229 0
-130 -230 0
-131 -231 0
-132 -232 0
-129 -241 0
-130 -242 0
-131 -243 0
-132 -244 0
-129 -245 0
-130 -246 0
-131 -247 0
-132 -248 0
-129 -249 0
-130 -250 0
-131 -251 0
-132 -252 0
-129 -261 0
-130 -262 0
-131 -263 0
-132 -264 0
-129 -273 0
-130 -274 0
-131 -275 0
-132 -276 0
-129 -277 0
-130 -278 0
-131 -279 0
-132 -280 0
-129 -281 0
-130 -282 0
-131 -283 0
-132 -284 0
-129 -293 0
-130 -294 0
-131 -295 0
-132 -296 0
-129 -297 0
-130 -298 0
-131 -299 0
-132 -300 0
-129 -301 0
-130 -302 0
-131 -303 0
-132 -304 0
-129 -305 0
-130 -306 0
-131 -307 0
-132 -308 0
-129 -313 0
-130 -314 0
-131 -315 0
-132 -316 0
-129 -317 0
-130 -318 0
-131 -319 0
-132 -320 0
-129 -325 0
-130 -326 0
-131 -327 0
-132 -328 0
-129 -337 0
-130 -338 0
-131 -339 0
-132 -340 0
-129 -345 0
-130 -346 0
-131 -347 0
-132 -348 0
-129 -353 0
-130 -354 0
-131 -355 0
-132 -356 0
-129 -373 0
-130 -374 0
-131 -375 0
-132 -376 0
-129 -377 0
-130 -378 0
-131 -379 0
-132 -380 0
-129 -381 0
-130 -382 0
-131 -383 0
-132 -384 0
-129 -393 0
-130 -394 0
-131 -395 0
-132 -396 0
-129 -397 0
-130 -398 0
-131 -399 0
-132 -400 0
-129 -405 0
-130 -406 0
-131 -407 0
-132 -408 0
-129 -409 0
-130 -410 0
-131 -411 0
-132 -412 0
-129 -413 0
-130 -414 0
-131 -415 0
-132 -416 0
-129 -421 0
-130 -422 0
-131 -423 0
-132 -424 0
-129 -433 0
-130 -434 0
-131 -435 0
-132 -436 0
-129 -437 0
-130 -438 0
-131 -439 0
-132 -440 0
-129 -465 0
-130 -466 0
-131 -467 0
-132 -468 0
-129 -469 0
-130 -470 0
-131 -471 0
-132 -472 0
-129 -481 0
-130 -482 0
-131 -483 0
-132 -484 0
-129 -489 0
-130 -490 0
-131 -491 0
-132 -492 0
-129 -505 0
-130 -506 0
-131 -507 0
-132 -508 0
-129 -517 0
-130 -518 0
-131 -519 0
-132 -520 0
-129 -521 0
-130 -522 0
-131 -523 0
-132 -524 0
-129 -525 0
-130 -526 0
-131 -527 0
-132 -528 0
-129 -541 0
-130 -542 0
-131 -543 0
-132 -544 0
-129 -545 0
-130 -546 0
-131 -547 0
-132 -548 0
-129 -549 0
-130 -550 0
-131 -551 0
-132 -552 0
-129 -565 0
-130 -566 0
-131 -567 0
-132 -568 0
-129 -577 0
-130 -578 0
-131 -579 0
-132 -580 0
-129 -581 0
-130 -582 0
-131 -583 0
-132 -584 0
-129 -589 0
-130 -590 0
-131 -591 0
-132 -592 0
-129 -593 0
-130 -594 0
-131 -595 0
-132 -596 0
-133 -137 0
-134 -138 0
-135 -139 0
-136 -140 0
-133 -141 0
-134 -142 0
-135 -143 0
-136 -144 0
-133 -145 0
-134 -146 0
-135 -147 0
-136 -148 0
-133 -149 0
-134 -150 0
-135 -151 0
-136 -152 0
-133 -157 0
-134 -158 0
-135 -159 0
-136 -160 0
-133 -161 0
-134 -162 0
-135 -163 0
-136 -164 0
-133 -165 0
-134 -166 0
-135 -167 0
-136 -168 0
-133 -169 0
-134 -170 0
-135 -171 0
-136 -172 0
-133 -181 0
-134 -182 0
-135 -183 0
-136 -184 0
-133 -189 0
-134 -190 0
-135 -191 0
-136 -192 0
-133 -197 0
-134 -198 0
-135 -199 0
-136 -200 0
-133 -205 0
-134 -206 0
-135 -207 0
-136 -208 0
-133 -209 0
-134 -210 0
-135 -211 0
-136 -212 0
-133 -217 0
-134 -218 0
-135 -219 0
-136 -220 0
-133 -221 0
-134 -222 0
-135 -223 0
-136 -224 0
-133 -225 0
-134 -226 0
-135 -227 0
-136 -228 0
-133 -233 0
-134 -234 0
-135 -235 0
-136 -236 0
-133 -277 0
-134 -278 0
-135 -279 0
-136 -280 0
-133 -281 0
-134 -282 0
-135 -283 0
-136 -284 0
-133 -285 0
-134 -286 0
-135 -287 0
-136 -288 0
-133 -289 0
-134 -290 0
-135 -291 0
-136 -292 0
-133 -297 0
-134 -298 0
-135 -299 0
-136 -300 0
-133 -305 0
-134 -306 0
-135 -307 0
-136 -308 0
-133 -309 0
-134 -310 0
-135 -311 0
-136 -312 0
-133 -313 0
-134 -314 0
-135 -315 0
-136 -316 0
-133 -317 0
-134 -318 0
-135 -319 0
-136 -320 0
-133 -325 0
-134 -326 0
-135 -327 0
-136 -328 0
-133 -333 0
-134 -334 0
-135 -335 0
-136 -336 0
-133 -337 0
-134 -338 0
-135 -339 0
-136 -340 0
-133 -341 0
-134 -342 0
-135 -343 0
-136 -344 0
-133 -361 0
-134 -362 0
-135 -363 0
-136 -364 0
-133 -365 0
-134 -366 0
-135 -367 0
-136 -368 0
-133 -369 0
-134 -370 0
-135 -371 0
-136 -372 0
-133 -377 0
-134 -378 0
-135 -379 0
-136 -380 0
-133 -389 0
-134 -390 0
-135 -391 0
-136 -392 0
-133 -397 0
-134 -398 0
-135 -399 0
-136 -400 0
-133 -401 0
-134 -402 0
-135 -403 0
-136 -404 0
-133 -409 0
-134 -410 0
-135 -411 0
-136 -412 0
-133 -413 0
-134 -414 0
-135 -415 0
-136 -416 0
-133 -425 0
-134 -426 0
-135 -427 0
-136 -428 0
-133 -441 0
-134 -442 0
-135 -443 0
-136 -444 0
-133 -453 0
-134 -454 0
-135 -455 0
-136 -456 0
-133 -461 0
-134 -462 0
-135 -463 0
-136 -464 0
-133 -477 0
-134 -478 0
-135 -479 0
-136 -480 0
-133 -481 0
-134 -482 0
-135 -483 0
-136 -484 0
-133 -485 0
-134 -486 0
-135 -487 0
-136 -488 0
-133 -489 0
-134 -490 0
-135 -491 0
-136 -492 0
-133 -497 0
-134 -498 0
-135 -499 0
-136 -500 0
-133 -501 0
-134 -502 0
-135 -503 0
-136 -504 0
-133 -505 0
-134 -506 0
-135 -507 0
-136 -508 0
-133 -509 0
-134 -510 0
-135 -511 0
-136 -512 0
-133 -513 0
-134 -514 0
-135 -515 0
-136 -516 0
-133 -521 0
-134 -522 0
-135 -523 0
-136 -524 0
-133 -525 0
-134 -526 0
-135 -527 0
-136 -528 0
-133 -529 0
-134 -530 0
-135 -531 0
-136 -532 0
-133 -533 0
-134 -534 0
-135 -535 0
-136 -536 0
-133 -537 0
-134 -538 0
-135 -539 0
-136 -540 0
-133 -545 0
-134 -546 0
-135 -547 0
-136 -548 0
-133 -553 0
-134 -554 0
-135 -555 0
-136 -556 0
-133 -565 0
-134 -566 0
-135 -567 0
-136 -568 0
-133 -569 0
-134 -570 0
-135 -571 0
-136 -572 0
-133 -581 0
-134 -582 0
-135 -583 0
-136 -584 0
-133 -589 0
-134 -590 0
-135 -591 0
-136 -592 0
-133 -597 0
-134 -598 0
-135 -599 0
-136 -600 0
-137 -141 0
-138 -142 0
-139 -143 0
-140 -144 0
-137 -145 0
-138 -146 0
-139 -147 0
-140 -148 0
-137 -153 0
-138 -154 0
-139 -155 0
-140 -156 0
-137 -161 0
-138 -162 0
-139 -163 0
-140 -164 0
-137 -173 0
-138 -174 0
-139 -175 0
-140 -176 0
-137 -177 0
-138 -178 0
-139 -179 0
-140 -180 0
-137 -181 0
-138 -182 0
-139 -183 0
-140 -184 0
-137 -185 0
-138 -186 0
-139 -187 0
-140 -188 0
-137 -193 0
-138 -194 0
-139 -195 0
-140 -196 0
-137 -201 0
-138 -202 0
-139 -203 0
-140 -204 0
-137 -213 0
-138 -214 0
-139 -215 0
-140 -216 0
-137 -217 0
-138 -218 0
-139 -219 0
-140 -220 0
-137 -229 0
-138 -230 0
-139 -231 0
-140 -232 0
-137 -233 0
-138 -234 0
-139 -235 0
-140 -236 0
-137 -245 0
-138 -246 0
-139 -247 0
-140 -248 0
-137 -249 0
-138 -250 0
-139 -251 0
-140 -252 0
-137 -257 0
-138 -258 0
-139 -259 0
-140 -260 0
-137 -265 0
-138 -266 0
-139 -267 0
-140 -268 0
-137 -269 0
-138 -270 0
-139 -271 0
-140 -272 0
-137 -273 0
-138 -274 0
-139 -275 0
-140 -276 0
-137 -277 0
-138 -278 0
-139 -279 0
-140 -280 0
-137 -289 0
-138 -290 0
-139 -291 0
-140 -292 0
-137 -297 0
-138 -298 0
-139 -299 0
-140 -300 0
-137 -309 0
-138 -310 0
-139 -311 0
-140 -312 0
-137 -313 0
-138 -314 0
-139 -315 0
-140 -316 0
-137 -317 0
-138 -318 0
-139 -319 0
-140 -320 0
-137 -321 0
-138 -322 0
-139 -323 0
-140 -324 0
-137 -329 0
-138 -330 0
-139 -331 0
-140 -332 0
-137 -333 0
-138 -334 0
-139 -335 0
-140 -336 0
-137 -341 0
-138 -342 0
-139 -343 0
-140 -344 0
-137 -365 0
-138 -366 0
-139 -367 0
-140 -368 0
-137 -369 0
-138 -370 0
-139 -371 0
-140 -372 0
-137 -373 0
-138 -374 0
-139 -375 0
-140 -376 0
-137 -389 0
-138 -390 0
-139 -391 0
-140 -392 0
-137 -393 0
-138 -394 0
-139 -395 0
-140 -396 0
-137 -397 0
-138 -398 0
-139 -399 0
-140 -400 0
-137 -401 0
-138 -402 0
-139 -403 0
-140 -404 0
-137 -413 0
-138 -414 0
-139 -415 0
-140 -416 0
-137 -417 0
-138 -418 0
-139 -419 0
-140 -420 0
-137 -421 0
-138 -422 0
-139 -423 0
-140 -424 0
-137 -425 0
-138 -426 0
-139 -427 0
-140 -428 0
-137 -433 0
-138 -434 0
-139 -435 0
-140 -436 0
-137 -437 0
-138 -438 0
-139 -439 0
-140 -440 0
-137 -441 0
-138 -442 0
-139 -443 0
-140 -444 0
-137 -457 0
-138 -458 0
-139 -459 0
-140 -460 0
-137 -461 0
-138 -462 0
-139 -463 0
-140 -464 0
-137 -473 0
-138 -474 0
-139 -475 0
-140 -476 0
-137 -477 0
-138 -478 0
-139 -479 0
-140 -480 0
-137 -481 0
-138 -482 0
-139 -483 0
-140 -484 0
-137 -485 0
-138 -486 0
-139 -487 0
-140 -488 0
-137 -489 0
-138 -490 0
-139 -491 0
-140 -492 0
-137 -493 0
-138 -494 0
-139 -495 0
-140 -496 0
-137 -497 0
-138 -498 0
-139 -499 0
-140 -500 0
-137 -501 0
-138 -502 0
-139 -503 0
-140 -504 0
-137 -509 0
-138 -510 0
-139 -511 0
-140 -512 0
-137 -513 0
-138 -514 0
-139 -515 0
-140 -516 0
-137 -533 0
-138 -534 0
-139 -535 0
-140 -536 0
-137 -537 0
-138 -538 0
-139 -539 0
-140 -540 0
-137 -541 0
-138 -542 0
-139 -543 0
-140 -544 0
-137 -545 0
-138 -546 0
-139 -547 0
-140 -548 0
-137 -553 0
-138 -554 0
-139 -555 0
-140 -556 0
-137 -561 0
-138 -562 0
-139 -563 0
-140 -564 0
-137 -569 0
-138 -570 0
-139 -571 0
-140 -572 0
-137 -573 0
-138 -574 0
-139 -575 0
-140 -576 0
-137 -577 0
-138 -578 0
-139 -579 0
-140 -580 0
-141 -149 0
-142 -150 0
-143 -151 0
-144 -152 0
-141 -165 0
-142 -166 0
-143 -167 0
-144 -168 0
-141 -173 0
-142 -174 0
-143 -175 0
-144 -176 0
-141 -177 0
-142 -178 0
-143 -179 0
-144 -180 0
-141 -185 0
-142 -186 0
-143 -187 0
-144 -188 0
-141 -189 0
-142 -190 0
-143 -191 0
-144 -192 0
-141 -205 0
-142 -206 0
-143 -207 0
-144 -208 0
-141 -209 0
-142 -210 0
-143 -211 0
-144 -212 0
-141 -217 0
-142 -218 0
-143 -219 0
-144 -220 0
-141 -221 0
-142 -222 0
-143 -223 0
-144 -224 0
-141 -229 0
-142 -230 0
-143 -231 0
-144 -232 0
-141 -233 0
-142 -234 0
-143 -235 0
-144 -236 0
-141 -241 0
-142 -242 0
-143 -243 0
-144 -244 0
-141 -261 0
-142 -262 0
-143 -263 0
-144 -264 0
-141 -265 0
-142 -266 0
-143 -267 0
-144 -268 0
-141 -269 0
-142 -270 0
-143 -271 0
-144 -272 0
-141 -273 0
-142 -274 0
-143 -275 0
-144 -276 0
-141 -281 0
-142 -282 0
-143 -283 0
-144 -284 0
-141 -285 0
-142 -286 0
-143 -287 0
-144 -288 0
-141 -289 0
-142 -290 0
-143 -291 0
-144 -292 0
-141 -301 0
-142 -302 0
-143 -303 0
-144 -304 0
-141 -321 0
-142 -322 0
-143 -323 0
-144 -324 0
-141 -329 0
-142 -330 0
-143 -331 0
-144 -332 0
-141 -333 0
-142 -334 0
-143 -335 0
-144 -336 0
-141 -341 0
-142 -342 0
-143 -343 0
-144 -344 0
-141 -345 0
-142 -346 0
-143 -347 0
-144 -348 0
-141 -353 0
-142 -354 0
-143 -355 0
-144 -356 0
-141 -361 0
-142 -362 0
-143 -363 0
-144 -364 0
-141 -369 0
-142 -370 0
-143 -371 0
-144 -372 0
-141 -373 0
-142 -374 0
-143 -375 0
-144 -376 0
-141 -381 0
-142 -382 0
-143 -383 0
-144 -384 0
-141 -385 0
-142 -386 0
-143 -387 0
-144 -388 0
-141 -393 0
-142 -394 0
-143 -395 0
-144 -396 0
-141 -405 0
-142 -406 0
-143 -407 0
-144 -408 0
-141 -409 0
-142 -410 0
-143 -411 0
-144 -412 0
-141 -437 0
-142 -438 0
-143 -439 0
-144 -440 0
-141 -445 0
-142 -446 0
-143 -447 0
-144 -448 0
-141 -449 0
-142 -450 0
-143 -451 0
-144 -452 0
-141 -453 0
-142 -454 0
-143 -455 0
-144 -456 0
-141 -457 0
-142 -458 0
-143 -459 0
-144 -460 0
-141 -465 0
-142 -466 0
-143 -467 0
-144 -468 0
-141 -469 0
-142 -470 0
-143 -471 0
-144 -472 0
-141 -473 0
-142 -474 0
-143 -475 0
-144 -476 0
-141 -485 0
-142 -486 0
-143 -487 0
-144 -488 0
-141 -501 0
-142 -502 0
-143 -503 0
-144 -504 0
-141 -505 0
-142 -506 0
-143 -507 0
-144 -508 0
-141 -513 0
-142 -514 0
-143 -515 0
-144 -516 0
-141 -529 0
-142 -530 0
-143 -531 0
-144 -532 0
-141 -537 0
-142 -538 0
-143 -539 0
-144 -540 0
-141 -549 0
-142 -550 0
-143 -551 0
-144 -552 0
-141 -553 0
-142 -554 0
-143 -555 0
-144 -556 0
-141 -557 0
-142 -558 0
-143 -559 0
-144 -560 0
-141 -561 0
-142 -562 0
-143 -563 0
-144 -564 0
-141 -565 0
-142 -566 0
-143 -567 0
-144 -568 0
-141 -573 0
-142 -574 0
-143 -575 0
-144 -576 0
-141 -577 0
-142 -578 0
-143 -579 0
-144 -580 0
-141 -581 0
-142 -582 0
-143 -583 0
-144 -584 0
-141 -593 0
-142 -594 0
-143 -595 0
-144 -596 0
-141 -597 0
-142 -598 0
-143 -599 0
-144 -600 0
-145 -157 0
-146 -158 0
-147 -159 0
-148 -160 0
-145 -161 0
-146 -162 0
-147 -163 0
-148 -164 0
-145 -165 0
-146 -166 0
-147 -167 0
-148 -168 0
-145 -169 0
-146 -170 0
-147 -171 0
-148 -172 0
-145 -177 0
-146 -178 0
-147 -179 0
-148 -180 0
-145 -185 0
-146 -186 0
-147 -187 0
-148 -188 0
-145 -189 0
-146 -190 0
-147 -191 0
-148 -192 0
-145 -197 0
-146 -198 0
-147 -199 0
-148 -200 0
-145 -201 0
-146 -202 0
-147 -203 0
-148 -204 0
-145 -209 0
-146 -210 0
-147 -211 0
-148 -212 0
-145 -225 0
-146 -226 0
-147 -227 0
-148 -228 0
-145 -229 0
-146 -230 0
-147 -231 0
-148 -232 0
-145 -245 0
-146 -246 0
-147 -247 0
-148 -248 0
-145 -249 0
-146 -250 0
-147 -251 0
-148 -252 0
-145 -257 0
-146 -258 0
-147 -259 0
-148 -260 0
-145 -261 0
-146 -262 0
-147 -263 0
-148 -264 0
-145 -273 0
-146 -274 0
-147 -275 0
-148 -276 0
-145 -277 0
-146 -278 0
-147 -279 0
-148 -280 0
-145 -285 0
-146 -286 0
-147 -287 0
-148 -288 0
-145 -293 0
-146 -294 0
-147 -295 0
-148 -296 0
-145 -301 0
-146 -302 0
-147 -303 0
-148 -304 0
-145 -305 0
-146 -306 0
-147 -307 0
-148 -308 0
-145 -309 0
-146 -310 0
-147 -311 0
-148 -312 0
-145 -321 0
-146 -322 0
-147 -323 0
-148 -324 0
-145 -329 0
-146 -330 0
-147 -331 0
-148 -332 0
-145 -345 0
-146 -346 0
-147 -347 0
-148 -348 0
-145 -349 0
-146 -350 0
-147 -351 0
-148 -352 0
-145 -353 0
-146 -354 0
-147 -355 0
-148 -356 0
-145 -357 0
-146 -358 0
-147 -359 0
-148 -360 0
-145 -361 0
-146 -362 0
-147 -363 0
-148 -364 0
-145 -365 0
-146 -366 0
-147 -367 0
-148 -368 0
-145 -373 0
-146 -374 0
-147 -375 0
-148 -376 0
-145 -377 0
-146 -378 0
-147 -379 0
-148 -380 0
-145 -381 0
-146 -382 0
-147 -383 0
-148 -384 0
-145 -385 0
-146 -386 0
-147 -387 0
-148 -388 0
-145 -389 0
-146 -390 0
-147 -391 0
-148 -392 0
-145 -393 0
-146 -394 0
-147 -395 0
-148 -396 0
-145 -401 0
-146 -402 0
-147 -403 0
-148 -404 0
-145 -409 0
-146 -410 0
-147 -411 0
-148 -412 0
-145 -413 0
-146 -414 0
-147 -415 0
-148 -416 0
-145 -417 0
-146 -418 0
-147 -419 0
-148 -420 0
-145 -421 0
-146 -422 0
-147 -423 0
-148 -424 0
-145 -429 0
-146 -430 0
-147 -431 0
-148 -432 0
-145 -433 0
-146 -434 0
-147 -435 0
-148 -436 0
-145 -445 0
-146 -446 0
-147 -447 0
-148 -448 0
-145 -489 0
-146 -490 0
-147 -491 0
-148 -492 0
-145 -497 0
-146 -498 0
-147 -499 0
-148 -500 0
-145 -517 0
-146 -518 0
-147 -519 0
-148 -520 0
-145 -521 0
-146 -522 0
-147 -523 0
-148 -524 0
-145 -525 0
-146 -526 0
-147 -527 0
-148 -528 0
-145 -529 0
-146 -530 0
-147 -531 0
-148 -532 0
-145 -541 0
-146 -542 0
-147 -543 0
-148 -544 0
-145 -545 0
-146 -546 0
-147 -547 0
-148 -548 0
-145 -549 0
-146 -550 0
-147 -551 0
-148 -552 0
-145 -565 0
-146 -566 0
-147 -567 0
-148 -568 0
-145 -577 0
-146 -578 0
-147 -579 0
-148 -580 0
-145 -589 0
-146 -590 0
-147 -591 0
-148 -592 0
-145 -593 0
-146 -594 0
-147 -595 0
-148 -596 0
-149 -153 0
-150 -154 0
-151 -155 0
-152 -156 0
-149 -161 0
-150 -162 0
-151 -163 0
-152 -164 0
-149 -173 0
-150 -174 0
-151 -175 0
-152 -176 0
-149 -177 0
-150 -178 0
-151 -179 0
-152 -180 0
-149 -181 0
-150 -182 0
-151 -183 0
-152 -184 0
-149 -193 0
-150 -194 0
-151 -195 0
-152 -196 0
-149 -197 0
-150 -198 0
-151 -199 0
-152 -200 0
-149 -201 0
-150 -202 0
-151 -203 0
-152 -204 0
-149 -205 0
-150 -206 0
-151 -207 0
-152 -208 0
-149 -213 0
-150 -214 0
-151 -215 0
-152 -216 0
-149 -217 0
-150 -218 0
-151 -219 0
-152 -220 0
-149 -221 0
-150 -222 0
-151 -223 0
-152 -224 0
-149 -229 0
-150 -230 0
-151 -231 0
-152 -232 0
-149 -237 0
-150 -238 0
-151 -239 0
-152 -240 0
-149 -241 0
-150 -242 0
-151 -243 0
-152 -244 0
-149 -245 0
-150 -246 0
-151 -247 0
-152 -248 0
-149 -249 0
-150 -250 0
-151 -251 0
-152 -252 0
-149 -253 0
-150 -254 0
-151 -255 0
-152 -256 0
-149 -257 0
-150 -258 0
-151 -259 0
-152 -260 0
-149 -269 0
-150 -270 0
-151 -271 0
-152 -272 0
-149 -273 0
-150 -274 0
-151 -275 0
-152 -276 0
-149 -277 0
-150 -278 0
-151 -279 0
-152 -280 0
-149 -289 0
-150 -290 0
-151 -291 0
-152 -292 0
-149 -293 0
-150 -294 0
-151 -295 0
-152 -296 0
-149 -309 0
-150 -310 0
-151 -311 0
-152 -312 0
-149 -313 0
-150 -314 0
-151 -315 0
-152 -316 0
-149 -317 0
-150 -318 0
-151 -319 0
-152 -320 0
-149 -321 0
-150 -322 0
-151 -323 0
-152 -324 0
-149 -325 0
-150 -326 0
-151 -327 0
-152 -328 0
-149 -333 0
-150 -334 0
-151 -335 0
-152 -336 0
-149 -345 0
-150 -346 0
-151 -347 0
-152 -348 0
-149 -349 0
-150 -350 0
-151 -351 0
-152 -352 0
-149 -357 0
-150 -358 0
-151 -359 0
-152 -360 0
-149 -389 0
-150 -390 0
-151 -391 0
-152 -392 0
-149 -397 0
-150 -398 0
-151 -399 0
-152 -400 0
-149 -413 0
-150 -414 0
-151 -415 0
-152 -416 0
-149 -417 0
-150 -418 0
-151 -419 0
-152 -420 0
-149 -421 0
-150 -422 0
-151 -423 0
-152 -424 0
-149 -437 0
-150 -438 0
-151 -439 0
-152 -440 0
-149 -441 0
-150 -442 0
-151 -443 0
-152 -444 0
-149 -449 0
-150 -450 0
-151 -451 0
-152 -452 0
-149 -465 0
-150 -466 0
-151 -467 0
-152 -468 0
-149 -469 0
-150 -470 0
-151 -471 0
-152 -472 0
-149 -473 0
-150 -474 0
-151 -475 0
-152 -476 0
-149 -477 0
-150 -478 0
-151 -479 0
-152 -480 0
-149 -481 0
-150 -482 0
-151 -483 0
-152 -484 0
-149 -489 0
-150 -490 0
-151 -491 0
-152 -492 0
-149 -493 0
-150 -494 0
-151 -495 0
-152 -496 0
-149 -497 0
-150 -498 0
-151 -499 0
-152 -500 0
-149 -501 0
-150 -502 0
-151 -503 0
-152 -504 0
-149 -509 0
-150 -510 0
-151 -511 0
-152 -512 0
-149 -517 0
-150 -518 0
-151 -519 0
-152 -520 0
-149 -521 0
-150 -522 0
-151 -523 0
-152 -524 0
-149 -541 0
-150 -542 0
-151 -543 0
-152 -544 0
-149 -553 0
-150 -554 0
-151 -555 0
-152 -556 0
-149 -557 0
-150 -558 0
-151 -559 0
-152 -560 0
-149 -561 0
-150 -562 0
-151 -563 0
-152 -564 0
-149 -573 0
-150 -574 0
-151 -575 0
-152 -576 0
-149 -577 0
-150 -578 0
-151 -579 0
-152 -580 0
-149 -585 0
-150 -586 0
-151 -587 0
-152 -588 0
-153 -165 0
-154 -166 0
-155 -167 0
-156 -168 0
-153 -169 0
-154 -170 0
-155 -171 0
-156 -172 0
-153 -173 0
-154 -174 0
-155 -175 0
-156 -176 0
-153 -177 0
-154 -178 0
-155 -179 0
-156 -180 0
-153 -185 0
-154 -186 0
-155 -187 0
-156 -188 0
-153 -205 0
-154 -206 0
-155 -207 0
-156 -208 0
-153 -209 0
-154 -210 0
-155 -211 0
-156 -212 0
-153 -213 0
-154 -214 0
-155 -215 0
-156 -216 0
-153 -217 0
-154 -218 0
-155 -219 0
-156 -220 0
-153 -221 0
-154 -222 0
-155 -223 0
-156 -224 0
-153 -245 0
-154 -246 0
-155 -247 0
-156 -248 0
-153 -253 0
-154 -254 0
-155 -255 0
-156 -256 0
-153 -261 0
-154 -262 0
-155 -263 0
-156 -264 0
-153 -265 0
-154 -266 0
-155 -267 0
-156 -268 0
-153 -273 0
-154 -274 0
-155 -275 0
-156 -276 0
-153 -281 0
-154 -282 0
-155 -283 0
-156 -284 0
-153 -285 0
-154 -286 0
-155 -287 0
-156 -288 0
-153 -289 0
-154 -290 0
-155 -291 0
-156 -292 0
-153 -293 0
-154 -294 0
-155 -295 0
-156 -296 0
-153 -305 0
-154 -306 0
-155 -307 0
-156 -308 0
-153 -321 0
-154 -322 0
-155 -323 0
-156 -324 0
-153 -329 0
-154 -330 0
-155 -331 0
-156 -332 0
-153 -333 0
-154 -334 0
-155 -335 0
-156 -336 0
-153 -337 0
-154 -338 0
-155 -339 0
-156 -340 0
-153 -341 0
-154 -342 0
-155 -343 0
-156 -344 0
-153 -353 0
-154 -354 0
-155 -355 0
-156 -356 0
-153 -357 0
-154 -358 0
-155 -359 0
-156 -360 0
-153 -361 0
-154 -362 0
-155 -363 0
-156 -364 0
-153 -369 0
-154 -370 0
-155 -371 0
-156 -372 0
-153 -373 0
-154 -374 0
-155 -375 0
-156 -376 0
-153 -377 0
-154 -378 0
-155 -379 0
-156 -380 0
-153 -381 0
-154 -382 0
-155 -383 0
-156 -384 0
-153 -393 0
-154 -394 0
-155 -395 0
-156 -396 0
-153 -405 0
-154 -406 0
-155 -407 0
-156 -408 0
-153 -409 0
-154 -410 0
-155 -411 0
-156 -412 0
-153 -425 0
-154 -426 0
-155 -427 0
-156 -428 0
-153 -429 0
-154 -430 0
-155 -431 0
-156 -432 0
-153 -445 0
-154 -446 0
-155 -447 0
-156 -448 0
-153 -449 0
-154 -450 0
-155 -451 0
-156 -452 0
-153 -457 0
-154 -458 0
-155 -459 0
-156 -460 0
-153 -461 0
-154 -462 0
-155 -463 0
-156 -464 0
-153 -465 0
-154 -466 0
-155 -467 0
-156 -468 0
-153 -469 0
-154 -470 0
-155 -471 0
-156 -472 0
-153 -473 0
-154 -474 0
-155 -475 0
-156 -476 0
-153 -477 0
-154 -478 0
-155 -479 0
-156 -480 0
-153 -485 0
-154 -486 0
-155 -487 0
-156 -488 0
-153 -493 0
-154 -494 0
-155 -495 0
-156 -496 0
-153 -501 0
-154 -502 0
-155 -503 0
-156 -504 0
-153 -505 0
-154 -506 0
-155 -507 0
-156 -508 0
-153 -513 0
-154 -514 0
-155 -515 0
-156 -516 0
-153 -517 0
-154 -518 0
-155 -519 0
-156 -520 0
-153 -525 0
-154 -526 0
-155 -527 0
-156 -528 0
-153 -529 0
-154 -530 0
-155 -531 0
-156 -532 0
-153 -533 0
-154 -534 0
-155 -535 0
-156 -536 0
-153 -553 0
-154 -554 0
-155 -555 0
-156 -556 0
-153 -557 0
-154 -558 0
-155 -559 0
-156 -560 0
-153 -561 0
-154 -562 0
-155 -563 0
-156 -564 0
-153 -569 0
-154 -570 0
-155 -571 0
-156 -572 0
-153 -573 0
-154 -574 0
-155 -575 0
-156 -576 0
-153 -577 0
-154 -578 0
-155 -579 0
-156 -580 0
-153 -581 0
-154 -582 0
-155 -583 0
-156 -584 0
-153 -589 0
-154 -590 0
-155 -591 0
-156 -592 0
-153 -593 0
-154 -594 0
-155 -595 0
-156 -596 0
-153 -597 0
-154 -598 0
-155 -599 0
-156 -600 0
-157 -165 0
-158 -166 0
-159 -167 0
-160 -168 0
-157 -169 0
-158 -170 0
-159 -171 0
-160 -172 0
-157 -177 0
-158 -178 0
-159 -179 0
-160 -180 0
-157 -193 0
-158 -194 0
-159 -195 0
-160 -196 0
-157 -201 0
-158 -202 0
-159 -203 0
-160 -204 0
-157 -205 0
-158 -206 0
-159 -207 0
-160 -208 0
-157 -209 0
-158 -210 0
-159 -211 0
-160 -212 0
-157 -221 0
-158 -222 0
-159 -223 0
-160 -224 0
-157 -229 0
-158 -230 0
-159 -231 0
-160 -232 0
-157 -241 0
-158 -242 0
-159 -243 0
-160 -244 0
-157 -253 0
-158 -254 0
-159 -255 0
-160 -256 0
-157 -261 0
-158 -262 0
-159 -263 0
-160 -264 0
-157 -265 0
-158 -266 0
-159 -267 0
-160 -268 0
-157 -289 0
-158 -290 0
-159 -291 0
-160 -292 0
-157 -305 0
-158 -306 0
-159 -307 0
-160 -308 0
-157 -321 0
-158 -322 0
-159 -323 0
-160 -324 0
-157 -329 0
-158 -330 0
-159 -331 0
-160 -332 0
-157 -333 0
-158 -334 0
-159 -335 0
-160 -336 0
-157 -337 0
-158 -338 0
-159 -339 0
-160 -340 0
-157 -341 0
-158 -342 0
-159 -343 0
-160 -344 0
-157 -345 0
-158 -346 0
-159 -347 0
-160 -348 0
-157 -357 0
-158 -358 0
-159 -359 0
-160 -360 0
-157 -361 0
-158 -362 0
-159 -363 0
-160 -364 0
-157 -369 0
-158 -370 0
-159 -371 0
-160 -372 0
-157 -373 0
-158 -374 0
-159 -375 0
-160 -376 0
-157 -381 0
-158 -382 0
-159 -383 0
-160 -384 0
-157 -385 0
-158 -386 0
-159 -387 0
-160 -388 0
-157 -393 0
-158 -394 0
-159 -395 0
-160 -396 0
-157 -405 0
-158 -406 0
-159 -407 0
-160 -408 0
-157 -409 0
-158 -410 0
-159 -411 0
-160 -412 0
-157 -421 0
-158 -422 0
-159 -423 0
-160 -424 0
-157 -425 0
-158 -426 0
-159 -427 0
-160 -428 0
-157 -429 0
-158 -430 0
-159 -431 0
-160 -432 0
-157 -445 0
-158 -446 0
-159 -447 0
-160 -448 0
-157 -449 0
-158 -450 0
-159 -451 0
-160 -452 0
-157 -453 0
-158 -454 0
-159 -455 0
-160 -456 0
-157 -461 0
-158 -462 0
-159 -463 0
-160 -464 0
-157 -465 0
-158 -466 0
-159 -467 0
-160 -468 0
-157 -469 0
-158 -470 0
-159 -471 0
-160 -472 0
-157 -473 0
-158 -474 0
-159 -475 0
-160 -476 0
-157 -477 0
-158 -478 0
-159 -479 0
-160 -480 0
-157 -485 0
-158 -486 0
-159 -487 0
-160 -488 0
-157 -493 0
-158 -494 0
-159 -495 0
-160 -496 0
-157 -501 0
-158 -502 0
-159 -503 0
-160 -504 0
-157 -505 0
-158 -506 0
-159 -507 0
-160 -508 0
-157 -509 0
-158 -510 0
-159 -511 0
-160 -512 0
-157 -513 0
-158 -514 0
-159 -515 0
-160 -516 0
-157 -517 0
-158 -518 0
-159 -519 0
-160 -520 0
-157 -525 0
-158 -526 0
-159 -527 0
-160 -528 0
-157 -529 0
-158 -530 0
-159 -531 0
-160 -532 0
-157 -533 0
-158 -534 0
-159 -535 0
-160 -536 0
-157 -537 0
-158 -538 0
-159 -539 0
-160 -540 0
-157 -541 0
-158 -542 0
-159 -543 0
-160 -544 0
-157 -549 0
-158 -550 0
-159 -551 0
-160 -552 0
-157 -553 0
-158 -554 0
-159 -555 0
-160 -556 0
-157 -557 0
-158 -558 0
-159 -559 0
-160 -560 0
-157 -565 0
-158 -566 0
-159 -567 0
-160 -568 0
-157 -569 0
-158 -570 0
-159 -571 0
-160 -572 0
-157 -573 0
-158 -574 0
-159 -575 0
-160 -576 0
-157 -577 0
-158 -578 0
-159 -579 0
-160 -580 0
-157 -589 0
-158 -590 0
-159 -591 0
-160 -592 0
-157 -593 0
-158 -594 0
-159 -595 0
-160 -596 0
-161 -165 0
-162 -166 0
-163 -167 0
-164 -168 0
-161 -177 0
-162 -178 0
-163 -179 0
-164 -180 0
-161 -189 0
-162 -190 0
-163 -191 0
-164 -192 0
-161 -201 0
-162 -202 0
-163 -203 0
-164 -204 0
-161 -205 0
-162 -206 0
-163 -207 0
-164 -208 0
-161 -213 0
-162 -214 0
-163 -215 0
-164 -216 0
-161 -217 0
-162 -218 0
-163 -219 0
-164 -220 0
-161 -229 0
-162 -230 0
-163 -231 0
-164 -232 0
-161 -241 0
-162 -242 0
-163 -243 0
-164 -244 0
-161 -253 0
-162 -254 0
-163 -255 0
-164 -256 0
-161 -265 0
-162 -266 0
-163 -267 0
-164 -268 0
-161 -269 0
-162 -270 0
-163 -271 0
-164 -272 0
-161 -273 0
-162 -274 0
-163 -275 0
-164 -276 0
-161 -285 0
-162 -286 0
-163 -287 0
-164 -288 0
-161 -293 0
-162 -294 0
-163 -295 0
-164 -296 0
-161 -301 0
-162 -302 0
-163 -303 0
-164 -304 0
-161 -305 0
-162 -306 0
-163 -307 0
-164 -308 0
-161 -329 0
-162 -330 0
-163 -331 0
-164 -332 0
-161 -333 0
-162 -334 0
-163 -335 0
-164 -336 0
-161 -341 0
-162 -342 0
-163 -343 0
-164 -344 0
-161 -345 0
-162 -346 0
-163 -347 0
-164 -348 0
-161 -353 0
-162 -354 0
-163 -355 0
-164 -356 0
-161 -357 0
-162 -358 0
-163 -359 0
-164 -360 0
-161 -361 0
-162 -362 0
-163 -363 0
-164 -364 0
-161 -369 0
-162 -370 0
-163 -371 0
-164 -372 0
-161 -377 0
-162 -378 0
-163 -379 0
-164 -380 0
-161 -381 0
-162 -382 0
-163 -383 0
-164 -384 0
-161 -385 0
-162 -386 0
-163 -387 0
-164 -388 0
-161 -393 0
-162 -394 0
-163 -395 0
-164 -396 0
-161 -405 0
-162 -406 0
-163 -407 0
-164 -408 0
-161 -409 0
-162 -410 0
-163 -411 0
-164 -412 0
-161 -417 0
-162 -418 0
-163 -419 0
-164 -420 0
-161 -425 0
-162 -426 0
-163 -427 0
-164 -428 0
-161 -429 0
-162 -430 0
-163 -431 0
-164 -432 0
-161 -437 0
-162 -438 0
-163 -439 0
-164 -440 0
-161 -445 0
-162 -446 0
-163 -447 0
-164 -448 0
-161 -453 0
-162 -454 0
-163 -455 0
-164 -456 0
-161 -461 0
-162 -462 0
-163 -463 0
-164 -464 0
-161 -465 0
-162 -466 0
-163 -467 0
-164 -468 0
-161 -469 0
-162 -470 0
-163 -471 0
-164 -472 0
-161 -473 0
-162 -474 0
-163 -475 0
-164 -476 0
-161 -493 0
-162 -494 0
-163 -495 0
-164 -496 0
-161 -501 0
-162 -502 0
-163 -503 0
-164 -504 0
-161 -505 0
-162 -506 0
-163 -507 0
-164 -508 0
-161 -509 0
-162 -510 0
-163 -511 0
-164 -512 0
-161 -517 0
-162 -518 0
-163 -519 0
-164 -520 0
-161 -529 0
-162 -530 0
-163 -531 0
-164 -532 0
-161 -541 0
-162 -542 0
-163 -543 0
-164 -544 0
-161 -565 0
-162 -566 0
-163 -567 0
-164 -568 0
-161 -573 0
-162 -574 0
-163 -575 0
-164 -576 0
-161 -577 0
-162 -578 0
-163 -579 0
-164 -580 0
-161 -581 0
-162 -582 0
-163 -583 0
-164 -584 0
-161 -585 0
-162 -586 0
-163 -587 0
-164 -588 0
-161 -589 0
-162 -590 0
-163 -591 0
-164 -592 0
-161 -593 0
-162 -594 0
-163 -595 0
-164 -596 0
-161 -597 0
-162 -598 0
-163 -599 0
-164 -600 0
-165 -173 0
-166 -174 0
-167 -175 0
-168 -176 0
-165 -185 0
-166 -186 0
-167 -187 0
-168 -188 0
-165 -193 0
-166 -194 0
-167 -195 0
-168 -196 0
-165 -197 0
-166 -198 0
-167 -199 0
-168 -200 0
-165 -201 0
-166 -202 0
-167 -203 0
-168 -204 0
-165 -213 0
-166 -214 0
-167 -215 0
-168 -216 0
-165 -217 0
-166 -218 0
-167 -219 0
-168 -220 0
-165 -221 0
-166 -222 0
-167 -223 0
-168 -224 0
-165 -225 0
-166 -226 0
-167 -227 0
-168 -228 0
-165 -229 0
-166 -230 0
-167 -231 0
-168 -232 0
-165 -233 0
-166 -234 0
-167 -235 0
-168 -236 0
-165 -237 0
-166 -238 0
-167 -239 0
-168 -240 0
-165 -249 0
-166 -250 0
-167 -251 0
-168 -252 0
-165 -269 0
-166 -270 0
-167 -271 0
-168 -272 0
-165 -273 0
-166 -274 0
-167 -275 0
-168 -276 0
-165 -289 0
-166 -290 0
-167 -291 0
-168 -292 0
-165 -293 0
-166 -294 0
-167 -295 0
-168 -296 0
-165 -297 0
-166 -298 0
-167 -299 0
-168 -300 0
-165 -309 0
-166 -310 0
-167 -311 0
-168 -312 0
-165 -313 0
-166 -314 0
-167 -315 0
-168 -316 0
-165 -321 0
-166 -322 0
-167 -323 0
-168 -324 0
-165 -325 0
-166 -326 0
-167 -327 0
-168 -328 0
-165 -329 0
-166 -330 0
-167 -331 0
-168 -332 0
-165 -333 0
-166 -334 0
-167 -335 0
-168 -336 0
-165 -341 0
-166 -342 0
-167 -343 0
-168 -344 0
-165 -345 0
-166 -346 0
-167 -347 0
-168 -348 0
-165 -357 0
-166 -358 0
-167 -359 0
-168 -360 0
-165 -369 0
-166 -370 0
-167 -371 0
-168 -372 0
-165 -393 0
-166 -394 0
-167 -395 0
-168 -396 0
-165 -397 0
-166 -398 0
-167 -399 0
-168 -400 0
-165 -401 0
-166 -402 0
-167 -403 0
-168 -404 0
-165 -421 0
-166 -422 0
-167 -423 0
-168 -424 0
-165 -425 0
-166 -426 0
-167 -427 0
-168 -428 0
-165 -433 0
-166 -434 0
-167 -435 0
-168 -436 0
-165 -437 0
-166 -438 0
-167 -439 0
-168 -440 0
-165 -449 0
-166 -450 0
-167 -451 0
-168 -452 0
-165 -457 0
-166 -458 0
-167 -459 0
-168 -460 0
-165 -465 0
-166 -466 0
-167 -467 0
-168 -468 0
-165 -469 0
-166 -470 0
-167 -471 0
-168 -472 0
-165 -485 0
-166 -486 0
-167 -487 0
-168 -488 0
-165 -489 0
-166 -490 0
-167 -491 0
-168 -492 0
-165 -493 0
-166 -494 0
-167 -495 0
-168 -496 0
-165 -497 0
-166 -498 0
-167 -499 0
-168 -500 0
-165 -501 0
-166 -502 0
-167 -503 0
-168 -504 0
-165 -509 0
-166 -510 0
-167 -511 0
-168 -512 0
-165 -521 0
-166 -522 0
-167 -523 0
-168 -524 0
-165 -533 0
-166 -534 0
-167 -535 0
-168 -536 0
-165 -537 0
-166 -538 0
-167 -539 0
-168 -540 0
-165 -541 0
-166 -542 0
-167 -543 0
-168 -544 0
-165 -545 0
-166 -546 0
-167 -547 0
-168 -548 0
-165 -549 0
-166 -550 0
-167 -551 0
-168 -552 0
-165 -561 0
-166 -562 0
-167 -563 0
-168 -564 0
-165 -585 0
-166 -586 0
-167 -587 0
-168 -588 0
-165 -593 0
-166 -594 0
-167 -595 0
-168 -596 0
-169 -177 0
-170 -178 0
-171 -179 0
-172 -180 0
-169 -197 0
-170 -198 0
-171 -199 0
-172 -200 0
-169 -205 0
-170 -206 0
-171 -207 0
-172 -208 0
-169 -213 0
-170 -214 0
-171 -215 0
-172 -216 0
-169 -217 0
-170 -218 0
-171 -219 0
-172 -220 0
-169 -225 0
-170 -226 0
-171 -227 0
-172 -228 0
-169 -229 0
-170 -230 0
-171 -231 0
-172 -232 0
-169 -233 0
-170 -234 0
-171 -235 0
-172 -236 0
-169 -241 0
-170 -242 0
-171 -243 0
-172 -244 0
-169 -245 0
-170 -246 0
-171 -247 0
-172 -248 0
-169 -253 0
-170 -254 0
-171 -255 0
-172 -256 0
-169 -265 0
-170 -266 0
-171 -267 0
-172 -268 0
-169 -269 0
-170 -270 0
-171 -271 0
-172 -272 0
-169 -277 0
-170 -278 0
-171 -279 0
-172 -280 0
-169 -289 0
-170 -290 0
-171 -291 0
-172 -292 0
-169 -293 0
-170 -294 0
-171 -295 0
-172 -296 0
-169 -297 0
-170 -298 0
-171 -299 0
-172 -300 0
-169 -309 0
-170 -310 0
-171 -311 0
-172 -312 0
-169 -317 0
-170 -318 0
-171 -319 0
-172 -320 0
-169 -321 0
-170 -322 0
-171 -323 0
-172 -324 0
-169 -325 0
-170 -326 0
-171 -327 0
-172 -328 0
-169 -329 0
-170 -330 0
-171 -331 0
-172 -332 0
-169 -341 0
-170 -342 0
-171 -343 0
-172 -344 0
-169 -345 0
-170 -346 0
-171 -347 0
-172 -348 0
-169 -349 0
-170 -350 0
-171 -351 0
-172 -352 0
-169 -357 0
-170 -358 0
-171 -359 0
-172 -360 0
-169 -365 0
-170 -366 0
-171 -367 0
-172 -368 0
-169 -373 0
-170 -374 0
-171 -375 0
-172 -376 0
-169 -389 0
-170 -390 0
-171 -391 0
-172 -392 0
-169 -397 0
-170 -398 0
-171 -399 0
-172 -400 0
-169 -401 0
-170 -402 0
-171 -403 0
-172 -404 0
-169 -413 0
-170 -414 0
-171 -415 0
-172 -416 0
-169 -417 0
-170 -418 0
-171 -419 0
-172 -420 0
-169 -421 0
-170 -422 0
-171 -423 0
-172 -424 0
-169 -425 0
-170 -426 0
-171 -427 0
-172 -428 0
-169 -433 0
-170 -434 0
-171 -435 0
-172 -436 0
-169 -437 0
-170 -438 0
-171 -439 0
-172 -440 0
-169 -441 0
-170 -442 0
-171 -443 0
-172 -444 0
-169 -449 0
-170 -450 0
-171 -451 0
-172 -452 0
-169 -457 0
-170 -458 0
-171 -459 0
-172 -460 0
-169 -461 0
-170 -462 0
-171 -463 0
-172 -464 0
-169 -465 0
-170 -466 0
-171 -467 0
-172 -468 0
-169 -469 0
-170 -470 0
-171 -471 0
-172 -472 0
-169 -473 0
-170 -474 0
-171 -475 0
-172 -476 0
-169 -481 0
-170 -482 0
-171 -483 0
-172 -484 0
-169 -485 0
-170 -486 0
-171 -487 0
-172 -488 0
-169 -489 0
-170 -490 0
-171 -491 0
-172 -492 0
-169 -501 0
-170 -502 0
-171 -503 0
-172 -504 0
-169 -509 0
-170 -510 0
-171 -511 0
-172 -512 0
-169 -517 0
-170 -518 0
-171 -519 0
-172 -520 0
-169 -521 0
-170 -522 0
-171 -523 0
-172 -524 0
-169 -541 0
-170 -542 0
-171 -543 0
-172 -544 0
-169 -545 0
-170 -546 0
-171 -547 0
-172 -548 0
-169 -549 0
-170 -550 0
-171 -551 0
-172 -552 0
-169 -561 0
-170 -562 0
-171 -563 0
-172 -564 0
-169 -569 0
-170 -570 0
-171 -571 0
-172 -572 0
-169 -573 0
-170 -574 0
-171 -575 0
-172 -576 0
-169 -585 0
-170 -586 0
-171 -587 0
-172 -588 0
-169 -593 0
-170 -594 0
-171 -595 0
-172 -596 0
-173 -181 0
-174 -182 0
-175 -183 0
-176 -184 0
-173 -189 0
-174 -190 0
-175 -191 0
-176 -192 0
-173 -197 0
-174 -198 0
-175 -199 0
-176 -200 0
-173 -205 0
-174 -206 0
-175 -207 0
-176 -208 0
-173 -209 0
-174 -210 0
-175 -211 0
-176 -212 0
-173 -217 0
-174 -218 0
-175 -219 0
-176 -220 0
-173 -221 0
-174 -222 0
-175 -223 0
-176 -224 0
-173 -225 0
-174 -226 0
-175 -227 0
-176 -228 0
-173 -233 0
-174 -234 0
-175 -235 0
-176 -236 0
-173 -237 0
-174 -238 0
-175 -239 0
-176 -240 0
-173 -249 0
-174 -250 0
-175 -251 0
-176 -252 0
-173 -253 0
-174 -254 0
-175 -255 0
-176 -256 0
-173 -257 0
-174 -258 0
-175 -259 0
-176 -260 0
-173 -261 0
-174 -262 0
-175 -263 0
-176 -264 0
-173 -265 0
-174 -266 0
-175 -267 0
-176 -268 0
-173 -277 0
-174 -278 0
-175 -279 0
-176 -280 0
-173 -281 0
-174 -282 0
-175 -283 0
-176 -284 0
-173 -285 0
-174 -286 0
-175 -287 0
-176 -288 0
-173 -289 0
-174 -290 0
-175 -291 0
-176 -292 0
-173 -297 0
-174 -298 0
-175 -299 0
-176 -300 0
-173 -305 0
-174 -306 0
-175 -307 0
-176 -308 0
-173 -313 0
-174 -314 0
-175 -315 0
-176 -316 0
-173 -317 0
-174 -318 0
-175 -319 0
-176 -320 0
-173 -333 0
-174 -334 0
-175 -335 0
-176 -336 0
-173 -337 0
-174 -338 0
-175 -339 0
-176 -340 0
-173 -341 0
-174 -342 0
-175 -343 0
-176 -344 0
-173 -349 0
-174 -350 0
-175 -351 0
-176 -352 0
-173 -353 0
-174 -354 0
-175 -355 0
-176 -356 0
-173 -361 0
-174 -362 0
-175 -363 0
-176 -364 0
-173 -365 0
-174 -366 0
-175 -367 0
-176 -368 0
-173 -381 0
-174 -382 0
-175 -383 0
-176 -384 0
-173 -397 0
-174 -398 0
-175 -399 0
-176 -400 0
-173 -401 0
-174 -402 0
-175 -403 0
-176 -404 0
-173 -405 0
-174 -406 0
-175 -407 0
-176 -408 0
-173 -409 0
-174 -410 0
-175 -411 0
-176 -412 0
-173 -413 0
-174 -414 0
-175 -415 0
-176 -416 0
-173 -425 0
-174 -426 0
-175 -427 0
-176 -428 0
-173 -429 0
-174 -430 0
-175 -431 0
-176 -432 0
-173 -441 0
-174 -442 0
-175 -443 0
-176 -444 0
-173 -445 0
-174 -446 0
-175 -447 0
-176 -448 0
-173 -449 0
-174 -450 0
-175 -451 0
-176 -452 0
-173 -473 0
-174 -474 0
-175 -475 0
-176 -476 0
-173 -481 0
-174 -482 0
-175 -483 0
-176 -484 0
-173 -493 0
-174 -494 0
-175 -495 0
-176 -496 0
-173 -497 0
-174 -498 0
-175 -499 0
-176 -500 0
-173 -505 0
-174 -506 0
-175 -507 0
-176 -508 0
-173 -509 0
-174 -510 0
-175 -511 0
-176 -512 0
-173 -513 0
-174 -514 0
-175 -515 0
-176 -516 0
-173 -525 0
-174 -526 0
-175 -527 0
-176 -528 0
-173 -529 0
-174 -530 0
-175 -531 0
-176 -532 0
-173 -545 0
-174 -546 0
-175 -547 0
-176 -548 0
-173 -553 0
-174 -554 0
-175 -555 0
-176 -556 0
-173 -557 0
-174 -558 0
-175 -559 0
-176 -560 0
-173 -561 0
-174 -562 0
-175 -563 0
-176 -564 0
-173 -565 0
-174 -566 0
-175 -567 0
-176 -568 0
-173 -569 0
-174 -570 0
-175 -571 0
-176 -572 0
-173 -581 0
-174 -582 0
-175 -583 0
-176 -584 0
-173 -589 0
-174 -590 0
-175 -591 0
-176 -592 0
-177 -181 0
-178 -182 0
-179 -183 0
-180 -184 0
-177 -197 0
-178 -198 0
-179 -199 0
-180 -200 0
-177 -205 0
-178 -206 0
-179 -207 0
-180 -208 0
-177 -213 0
-178 -214 0
-179 -215 0
-180 -216 0
-177 -217 0
-178 -218 0
-179 -219 0
-180 -220 0
-177 -221 0
-178 -222 0
-179 -223 0
-180 -224 0
-177 -225 0
-178 -226 0
-179 -227 0
-180 -228 0
-177 -233 0
-178 -234 0
-179 -235 0
-180 -236 0
-177 -237 0
-178 -238 0
-179 -239 0
-180 -240 0
-177 -253 0
-178 -254 0
-179 -255 0
-180 -256 0
-177 -265 0
-178 -266 0
-179 -267 0
-180 -268 0
-177 -277 0
-178 -278 0
-179 -279 0
-180 -280 0
-177 -285 0
-178 -286 0
-179 -287 0
-180 -288 0
-177 -289 0
-178 -290 0
-179 -291 0
-180 -292 0
-177 -301 0
-178 -302 0
-179 -303 0
-180 -304 0
-177 -309 0
-178 -310 0
-179 -311 0
-180 -312 0
-177 -313 0
-178 -314 0
-179 -315 0
-180 -316 0
-177 -317 0
-178 -318 0
-179 -319 0
-180 -320 0
-177 -325 0
-178 -326 0
-179 -327 0
-180 -328 0
-177 -333 0
-178 -334 0
-179 -335 0
-180 -336 0
-177 -337 0
-178 -338 0
-179 -339 0
-180 -340 0
-177 -341 0
-178 -342 0
-179 -343 0
-180 -344 0
-177 -349 0
-178 -350 0
-179 -351 0
-180 -352 0
-177 -353 0
-178 -354 0
-179 -355 0
-180 -356 0
-177 -365 0
-178 -366 0
-179 -367 0
-180 -368 0
-177 -369 0
-178 -370 0
-179 -371 0
-180 -372 0
-177 -377 0
-178 -378 0
-179 -379 0
-180 -380 0
-177 -381 0
-178 -382 0
-179 -383 0
-180 -384 0
-177 -385 0
-178 -386 0
-179 -387 0
-180 -388 0
-177 -389 0
-178 -390 0
-179 -391 0
-180 -392 0
-177 -397 0
-178 -398 0
-179 -399 0
-180 -400 0
-177 -401 0
-178 -402 0
-179 -403 0
-180 -404 0
-177 -405 0
-178 -406 0
-179 -407 0
-180 -408 0
-177 -409 0
-178 -410 0
-179 -411 0
-180 -412 0
-177 -413 0
-178 -414 0
-179 -415 0
-180 -416 0
-177 -425 0
-178 -426 0
-179 -427 0
-180 -428 0
-177 -445 0
-178 -446 0
-179 -447 0
-180 -448 0
-177 -449 0
-178 -450 0
-179 -451 0
-180 -452 0
-177 -453 0
-178 -454 0
-179 -455 0
-180 -456 0
-177 -477 0
-178 -478 0
-179 -479 0
-180 -480 0
-177 -481 0
-178 -482 0
-179 -483 0
-180 -484 0
-177 -485 0
-178 -486 0
-179 -487 0
-180 -488 0
-177 -489 0
-178 -490 0
-179 -491 0
-180 -492 0
-177 -493 0
-178 -494 0
-179 -495 0
-180 -496 0
-177 -505 0
-178 -506 0
-179 -507 0
-180 -508 0
-177 -509 0
-178 -510 0
-179 -511 0
-180 -512 0
-177 -521 0
-178 -522 0
-179 -523 0
-180 -524 0
-177 -529 0
-178 -530 0
-179 -531 0
-180 -532 0
-177 -537 0
-178 -538 0
-179 -539 0
-180 -540 0
-177 -553 0
-178 -554 0
-179 -555 0
-180 -556 0
-177 -557 0
-178 -558 0
-179 -559 0
-180 -560 0
-177 -561 0
-178 -562 0
-179 -563 0
-180 -564 0
-177 -569 0
-178 -570 0
-179 -571 0
-180 -572 0
-177 -585 0
-178 -586 0
-179 -587 0
-180 -588 0
-177 -589 0
-178 -590 0
-179 -591 0
-180 -592 0
-177 -597 0
-178 -598 0
-179 -599 0
-180 -600 0
-181 -185 0
-182 -186 0
-183 -187 0
-184 -188 0
-181 -189 0
-182 -190 0
-183 -191 0
-184 -192 0
-181 -193 0
-182 -194 0
-183 -195 0
-184 -196 0
-181 -205 0
-182 -206 0
-183 -207 0
-184 -208 0
-181 -209 0
-182 -210 0
-183 -211 0
-184 -212 0
-181 -213 0
-182 -214 0
-183 -215 0
-184 -216 0
-181 -217 0
-182 -218 0
-183 -219 0
-184 -220 0
-181 -229 0
-182 -230 0
-183 -231 0
-184 -232 0
-181 -233 0
-182 -234 0
-183 -235 0
-184 -236 0
-181 -241 0
-182 -242 0
-183 -243 0
-184 -244 0
-181 -261 0
-182 -262 0
-183 -263 0
-184 -264 0
-181 -265 0
-182 -266 0
-183 -267 0
-184 -268 0
-181 -269 0
-182 -270 0
-183 -271 0
-184 -272 0
-181 -273 0
-182 -274 0
-183 -275 0
-184 -276 0
-181 -281 0
-182 -282 0
-183 -283 0
-184 -284 0
-181 -285 0
-182 -286 0
-183 -287 0
-184 -288 0
-181 -289 0
-182 -290 0
-183 -291 0
-184 -292 0
-181 -293 0
-182 -294 0
-183 -295 0
-184 -296 0
-181 -305 0
-182 -306 0
-183 -307 0
-184 -308 0
-181 -321 0
-182 -322 0
-183 -323 0
-184 -324 0
-181 -329 0
-182 -330 0
-183 -331 0
-184 -332 0
-181 -333 0
-182 -334 0
-183 -335 0
-184 -336 0
-181 -345 0
-182 -346 0
-183 -347 0
-184 -348 0
-181 -353 0
-182 -354 0
-183 -355 0
-184 -356 0
-181 -357 0
-182 -358 0
-183 -359 0
-184 -360 0
-181 -361 0
-182 -362 0
-183 -363 0
-184 -364 0
-181 -369 0
-182 -370 0
-183 -371 0
-184 -372 0
-181 -373 0
-182 -374 0
-183 -375 0
-184 -376 0
-181 -377 0
-182 -378 0
-183 -379 0
-184 -380 0
-181 -381 0
-182 -382 0
-183 -383 0
-184 -384 0
-181 -385 0
-182 -386 0
-183 -387 0
-184 -388 0
-181 -393 0
-182 -394 0
-183 -395 0
-184 -396 0
-181 -405 0
-182 -406 0
-183 -407 0
-184 -408 0
-181 -417 0
-182 -418 0
-183 -419 0
-184 -420 0
-181 -421 0
-182 -422 0
-183 -423 0
-184 -424 0
-181 -429 0
-182 -430 0
-183 -431 0
-184 -432 0
-181 -437 0
-182 -438 0
-183 -439 0
-184 -440 0
-181 -445 0
-182 -446 0
-183 -447 0
-184 -448 0
-181 -449 0
-182 -450 0
-183 -451 0
-184 -452 0
-181 -453 0
-182 -454 0
-183 -455 0
-184 -456 0
-181 -461 0
-182 -462 0
-183 -463 0
-184 -464 0
-181 -465 0
-182 -466 0
-183 -467 0
-184 -468 0
-181 -469 0
-182 -470 0
-183 -471 0
-184 -472 0
-181 -473 0
-182 -474 0
-183 -475 0
-184 -476 0
-181 -485 0
-182 -486 0
-183 -487 0
-184 -488 0
-181 -501 0
-182 -502 0
-183 -503 0
-184 -504 0
-181 -505 0
-182 -506 0
-183 -507 0
-184 -508 0
-181 -537 0
-182 -538 0
-183 -539 0
-184 -540 0
-181 -541 0
-182 -542 0
-183 -543 0
-184 -544 0
-181 -549 0
-182 -550 0
-183 -551 0
-184 -552 0
-181 -561 0
-182 -562 0
-183 -563 0
-184 -564 0
-181 -565 0
-182 -566 0
-183 -567 0
-184 -568 0
-181 -573 0
-182 -574 0
-183 -575 0
-184 -576 0
-181 -589 0
-182 -590 0
-183 -591 0
-184 -592 0
-181 -593 0
-182 -594 0
-183 -595 0
-184 -596 0
-185 -197 0
-186 -198 0
-187 -199 0
-188 -200 0
-185 -205 0
-186 -206 0
-187 -207 0
-188 -208 0
-185 -209 0
-186 -210 0
-187 -211 0
-188 -212 0
-185 -213 0
-186 -214 0
-187 -215 0
-188 -216 0
-185 -217 0
-186 -218 0
-187 -219 0
-188 -220 0
-185 -221 0
-186 -222 0
-187 -223 0
-188 -224 0
-185 -225 0
-186 -226 0
-187 -227 0
-188 -228 0
-185 -233 0
-186 -234 0
-187 -235 0
-188 -236 0
-185 -253 0
-186 -254 0
-187 -255 0
-188 -256 0
-185 -257 0
-186 -258 0
-187 -259 0
-188 -260 0
-185 -261 0
-186 -262 0
-187 -263 0
-188 -264 0
-185 -265 0
-186 -266 0
-187 -267 0
-188 -268 0
-185 -277 0
-186 -278 0
-187 -279 0
-188 -280 0
-185 -281 0
-186 -282 0
-187 -283 0
-188 -284 0
-185 -297 0
-186 -298 0
-187 -299 0
-188 -300 0
-185 -301 0
-186 -302 0
-187 -303 0
-188 -304 0
-185 -305 0
-186 -306 0
-187 -307 0
-188 -308 0
-185 -309 0
-186 -310 0
-187 -311 0
-188 -312 0
-185 -313 0
-186 -314 0
-187 -315 0
-188 -316 0
-185 -317 0
-186 -318 0
-187 -319 0
-188 -320 0
-185 -325 0
-186 -326 0
-187 -327 0
-188 -328 0
-185 -333 0
-186 -334 0
-187 -335 0
-188 -336 0
-185 -337 0
-186 -338 0
-187 -339 0
-188 -340 0
-185 -341 0
-186 -342 0
-187 -343 0
-188 -344 0
-185 -349 0
-186 -350 0
-187 -351 0
-188 -352 0
-185 -353 0
-186 -354 0
-187 -355 0
-188 -356 0
-185 -365 0
-186 -366 0
-187 -367 0
-188 -368 0
-185 -377 0
-186 -378 0
-187 -379 0
-188 -380 0
-185 -381 0
-186 -382 0
-187 -383 0
-188 -384 0
-185 -385 0
-186 -386 0
-187 -387 0
-188 -388 0
-185 -389 0
-186 -390 0
-187 -391 0
-188 -392 0
-185 -397 0
-186 -398 0
-187 -399 0
-188 -400 0
-185 -401 0
-186 -402 0
-187 -403 0
-188 -404 0
-185 -405 0
-186 -406 0
-187 -407 0
-188 -408 0
-185 -409 0
-186 -410 0
-187 -411 0
-188 -412 0
-185 -413 0
-186 -414 0
-187 -415 0
-188 -416 0
-185 -425 0
-186 -426 0
-187 -427 0
-188 -428 0
-185 -433 0
-186 -434 0
-187 -435 0
-188 -436 0
-185 -441 0
-186 -442 0
-187 -443 0
-188 -444 0
-185 -449 0
-186 -450 0
-187 -451 0
-188 -452 0
-185 -453 0
-186 -454 0
-187 -455 0
-188 -456 0
-185 -457 0
-186 -458 0
-187 -459 0
-188 -460 0
-185 -461 0
-186 -462 0
-187 -463 0
-188 -464 0
-185 -477 0
-186 -478 0
-187 -479 0
-188 -480 0
-185 -485 0
-186 -486 0
-187 -487 0
-188 -488 0
-185 -489 0
-186 -490 0
-187 -491 0
-188 -492 0
-185 -493 0
-186 -494 0
-187 -495 0
-188 -496 0
-185 -501 0
-186 -502 0
-187 -503 0
-188 -504 0
-185 -505 0
-186 -506 0
-187 -507 0
-188 -508 0
-185 -509 0
-186 -510 0
-187 -511 0
-188 -512 0
-185 -513 0
-186 -514 0
-187 -515 0
-188 -516 0
-185 -521 0
-186 -522 0
-187 -523 0
-188 -524 0
-185 -533 0
-186 -534 0
-187 -535 0
-188 -536 0
-185 -545 0
-186 -546 0
-187 -547 0
-188 -548 0
-185 -553 0
-186 -554 0
-187 -555 0
-188 -556 0
-185 -557 0
-186 -558 0
-187 -559 0
-188 -560 0
-185 -561 0
-186 -562 0
-187 -563 0
-188 -564 0
-185 -565 0
-186 -566 0
-187 -567 0
-188 -568 0
-185 -585 0
-186 -586 0
-187 -587 0
-188 -588 0
-185 -589 0
-186 -590 0
-187 -591 0
-188 -592 0
-185 -597 0
-186 -598 0
-187 -599 0
-188 -600 0
-189 -197 0
-190 -198 0
-191 -199 0
-192 -200 0
-189 -201 0
-190 -202 0
-191 -203 0
-192 -204 0
-189 -213 0
-190 -214 0
-191 -215 0
-192 -216 0
-189 -217 0
-190 -218 0
-191 -219 0
-192 -220 0
-189 -221 0
-190 -222 0
-191 -223 0
-192 -224 0
-189 -225 0
-190 -226 0
-191 -227 0
-192 -228 0
-189 -233 0
-190 -234 0
-191 -235 0
-192 -236 0
-189 -237 0
-190 -238 0
-191 -239 0
-192 -240 0
-189 -241 0
-190 -242 0
-191 -243 0
-192 -244 0
-189 -245 0
-190 -246 0
-191 -247 0
-192 -248 0
-189 -249 0
-190 -250 0
-191 -251 0
-192 -252 0
-189 -253 0
-190 -254 0
-191 -255 0
-192 -256 0
-189 -257 0
-190 -258 0
-191 -259 0
-192 -260 0
-189 -269 0
-190 -270 0
-191 -271 0
-192 -272 0
-189 -273 0
-190 -274 0
-191 -275 0
-192 -276 0
-189 -277 0
-190 -278 0
-191 -279 0
-192 -280 0
-189 -289 0
-190 -290 0
-191 -291 0
-192 -292 0
-189 -297 0
-190 -298 0
-191 -299 0
-192 -300 0
-189 -313 0
-190 -314 0
-191 -315 0
-192 -316 0
-189 -317 0
-190 -318 0
-191 -319 0
-192 -320 0
-189 -325 0
-190 -326 0
-191 -327 0
-192 -328 0
-189 -329 0
-190 -330 0
-191 -331 0
-192 -332 0
-189 -333 0
-190 -334 0
-191 -335 0
-192 -336 0
-189 -341 0
-190 -342 0
-191 -343 0
-192 -344 0
-189 -345 0
-190 -346 0
-191 -347 0
-192 -348 0
-189 -349 0
-190 -350 0
-191 -351 0
-192 -352 0
-189 -357 0
-190 -358 0
-191 -359 0
-192 -360 0
-189 -365 0
-190 -366 0
-191 -367 0
-192 -368 0
-189 -373 0
-190 -374 0
-191 -375 0
-192 -376 0
-189 -389 0
-190 -390 0
-191 -391 0
-192 -392 0
-189 -397 0
-190 -398 0
-191 -399 0
-192 -400 0
-189 -401 0
-190 -402 0
-191 -403 0
-192 -404 0
-189 -413 0
-190 -414 0
-191 -415 0
-192 -416 0
-189 -417 0
-190 -418 0
-191 -419 0
-192 -420 0
-189 -421 0
-190 -422 0
-191 -423 0
-192 -424 0
-189 -425 0
-190 -426 0
-191 -427 0
-192 -428 0
-189 -437 0
-190 -438 0
-191 -439 0
-192 -440 0
-189 -457 0
-190 -458 0
-191 -459 0
-192 -460 0
-189 -461 0
-190 -462 0
-191 -463 0
-192 -464 0
-189 -465 0
-190 -466 0
-191 -467 0
-192 -468 0
-189 -469 0
-190 -470 0
-191 -471 0
-192 -472 0
-189 -473 0
-190 -474 0
-191 -475 0
-192 -476 0
-189 -477 0
-190 -478 0
-191 -479 0
-192 -480 0
-189 -481 0
-190 -482 0
-191 -483 0
-192 -484 0
-189 -485 0
-190 -486 0
-191 -487 0
-192 -488 0
-189 -489 0
-190 -490 0
-191 -491 0
-192 -492 0
-189 -493 0
-190 -494 0
-191 -495 0
-192 -496 0
-189 -501 0
-190 -502 0
-191 -503 0
-192 -504 0
-189 -509 0
-190 -510 0
-191 -511 0
-192 -512 0
-189 -513 0
-190 -514 0
-191 -515 0
-192 -516 0
-189 -533 0
-190 -534 0
-191 -535 0
-192 -536 0
-189 -537 0
-190 -538 0
-191 -539 0
-192 -540 0
-189 -541 0
-190 -542 0
-191 -543 0
-192 -544 0
-189 -549 0
-190 -550 0
-191 -551 0
-192 -552 0
-189 -553 0
-190 -554 0
-191 -555 0
-192 -556 0
-189 -557 0
-190 -558 0
-191 -559 0
-192 -560 0
-189 -569 0
-190 -570 0
-191 -571 0
-192 -572 0
-189 -585 0
-190 -586 0
-191 -587 0
-192 -588 0
-193 -197 0
-194 -198 0
-195 -199 0
-196 -200 0
-193 -205 0
-194 -206 0
-195 -207 0
-196 -208 0
-193 -209 0
-194 -210 0
-195 -211 0
-196 -212 0
-193 -217 0
-194 -218 0
-195 -219 0
-196 -220 0
-193 -221 0
-194 -222 0
-195 -223 0
-196 -224 0
-193 -253 0
-194 -254 0
-195 -255 0
-196 -256 0
-193 -257 0
-194 -258 0
-195 -259 0
-196 -260 0
-193 -261 0
-194 -262 0
-195 -263 0
-196 -264 0
-193 -277 0
-194 -278 0
-195 -279 0
-196 -280 0
-193 -281 0
-194 -282 0
-195 -283 0
-196 -284 0
-193 -285 0
-194 -286 0
-195 -287 0
-196 -288 0
-193 -289 0
-194 -290 0
-195 -291 0
-196 -292 0
-193 -301 0
-194 -302 0
-195 -303 0
-196 -304 0
-193 -305 0
-194 -306 0
-195 -307 0
-196 -308 0
-193 -317 0
-194 -318 0
-195 -319 0
-196 -320 0
-193 -325 0
-194 -326 0
-195 -327 0
-196 -328 0
-193 -333 0
-194 -334 0
-195 -335 0
-196 -336 0
-193 -337 0
-194 -338 0
-195 -339 0
-196 -340 0
-193 -361 0
-194 -362 0
-195 -363 0
-196 -364 0
-193 -365 0
-194 -366 0
-195 -367 0
-196 -368 0
-193 -377 0
-194 -378 0
-195 -379 0
-196 -380 0
-193 -385 0
-194 -386 0
-195 -387 0
-196 -388 0
-193 -389 0
-194 -390 0
-195 -391 0
-196 -392 0
-193 -401 0
-194 -402 0
-195 -403 0
-196 -404 0
-193 -405 0
-194 -406 0
-195 -407 0
-196 -408 0
-193 -413 0
-194 -414 0
-195 -415 0
-196 -416 0
-193 -425 0
-194 -426 0
-195 -427 0
-196 -428 0
-193 -433 0
-194 -434 0
-195 -435 0
-196 -436 0
-193 -445 0
-194 -446 0
-195 -447 0
-196 -448 0
-193 -449 0
-194 -450 0
-195 -451 0
-196 -452 0
-193 -457 0
-194 -458 0
-195 -459 0
-196 -460 0
-193 -461 0
-194 -462 0
-195 -463 0
-196 -464 0
-193 -485 0
-194 -486 0
-195 -487 0
-196 -488 0
-193 -497 0
-194 -498 0
-195 -499 0
-196 -500 0
-193 -501 0
-194 -502 0
-195 -503 0
-196 -504 0
-193 -505 0
-194 -506 0
-195 -507 0
-196 -508 0
-193 -509 0
-194 -510 0
-195 -511 0
-196 -512 0
-193 -525 0
-194 -526 0
-195 -527 0
-196 -528 0
-193 -529 0
-194 -530 0
-195 -531 0
-196 -532 0
-193 -533 0
-194 -534 0
-195 -535 0
-196 -536 0
-193 -537 0
-194 -538 0
-195 -539 0
-196 -540 0
-193 -553 0
-194 -554 0
-195 -555 0
-196 -556 0
-193 -557 0
-194 -558 0
-195 -559 0
-196 -560 0
-193 -561 0
-194 -562 0
-195 -563 0
-196 -564 0
-193 -565 0
-194 -566 0
-195 -567 0
-196 -568 0
-193 -581 0
-194 -582 0
-195 -583 0
-196 -584 0
-193 -597 0
-194 -598 0
-195 -599 0
-196 -600 0
-197 -201 0
-198 -202 0
-199 -203 0
-200 -204 0
-197 -205 0
-198 -206 0
-199 -207 0
-200 -208 0
-197 -209 0
-198 -210 0
-199 -211 0
-200 -212 0
-197 -213 0
-198 -214 0
-199 -215 0
-200 -216 0
-197 -221 0
-198 -222 0
-199 -223 0
-200 -224 0
-197 -229 0
-198 -230 0
-199 -231 0
-200 -232 0
-197 -233 0
-198 -234 0
-199 -235 0
-200 -236 0
-197 -241 0
-198 -242 0
-199 -243 0
-200 -244 0
-197 -245 0
-198 -246 0
-199 -247 0
-200 -248 0
-197 -253 0
-198 -254 0
-199 -255 0
-200 -256 0
-197 -261 0
-198 -262 0
-199 -263 0
-200 -264 0
-197 -265 0
-198 -266 0
-199 -267 0
-200 -268 0
-197 -269 0
-198 -270 0
-199 -271 0
-200 -272 0
-197 -273 0
-198 -274 0
-199 -275 0
-200 -276 0
-197 -281 0
-198 -282 0
-199 -283 0
-200 -284 0
-197 -285 0
-198 -286 0
-199 -287 0
-200 -288 0
-197 -289 0
-198 -290 0
-199 -291 0
-200 -292 0
-197 -293 0
-198 -294 0
-199 -295 0
-200 -296 0
-197 -301 0
-198 -302 0
-199 -303 0
-200 -304 0
-197 -305 0
-198 -306 0
-199 -307 0
-200 -308 0
-197 -321 0
-198 -322 0
-199 -323 0
-200 -324 0
-197 -329 0
-198 -330 0
-199 -331 0
-200 -332 0
-197 -341 0
-198 -342 0
-199 -343 0
-200 -344 0
-197 -353 0
-198 -354 0
-199 -355 0
-200 -356 0
-197 -357 0
-198 -358 0
-199 -359 0
-200 -360 0
-197 -361 0
-198 -362 0
-199 -363 0
-200 -364 0
-197 -369 0
-198 -370 0
-199 -371 0
-200 -372 0
-197 -373 0
-198 -374 0
-199 -375 0
-200 -376 0
-197 -381 0
-198 -382 0
-199 -383 0
-200 -384 0
-197 -405 0
-198 -406 0
-199 -407 0
-200 -408 0
-197 -409 0
-198 -410 0
-199 -411 0
-200 -412 0
-197 -425 0
-198 -426 0
-199 -427 0
-200 -428 0
-197 -429 0
-198 -430 0
-199 -431 0
-200 -432 0
-197 -437 0
-198 -438 0
-199 -439 0
-200 -440 0
-197 -449 0
-198 -450 0
-199 -451 0
-200 -452 0
-197 -457 0
-198 -458 0
-199 -459 0
-200 -460 0
-197 -461 0
-198 -462 0
-199 -463 0
-200 -464 0
-197 -465 0
-198 -466 0
-199 -467 0
-200 -468 0
-197 -469 0
-198 -470 0
-199 -471 0
-200 -472 0
-197 -473 0
-198 -474 0
-199 -475 0
-200 -476 0
-197 -477 0
-198 -478 0
-199 -479 0
-200 -480 0
-197 -501 0
-198 -502 0
-199 -503 0
-200 -504 0
-197 -505 0
-198 -506 0
-199 -507 0
-200 -508 0
-197 -509 0
-198 -510 0
-199 -511 0
-200 -512 0
-197 -513 0
-198 -514 0
-199 -515 0
-200 -516 0
-197 -517 0
-198 -518 0
-199 -519 0
-200 -520 0
-197 -525 0
-198 -526 0
-199 -527 0
-200 -528 0
-197 -529 0
-198 -530 0
-199 -531 0
-200 -532 0
-197 -533 0
-198 -534 0
-199 -535 0
-200 -536 0
-197 -537 0
-198 -538 0
-199 -539 0
-200 -540 0
-197 -549 0
-198 -550 0
-199 -551 0
-200 -552 0
-197 -553 0
-198 -554 0
-199 -555 0
-200 -556 0
-197 -561 0
-198 -562 0
-199 -563 0
-200 -564 0
-197 -565 0
-198 -566 0
-199 -567 0
-200 -568 0
-197 -569 0
-198 -570 0
-199 -571 0
-200 -572 0
-197 -573 0
-198 -574 0
-199 -575 0
-200 -576 0
-197 -577 0
-198 -578 0
-199 -579 0
-200 -580 0
-197 -581 0
-198 -582 0
-199 -583 0
-200 -584 0
-197 -589 0
-198 -590 0
-199 -591 0
-200 -592 0
-197 -593 0
-198 -594 0
-199 -595 0
-200 -596 0
-197 -597 0
-198 -598 0
-199 -599 0
-200 -600 0
-201 -205 0
-202 -206 0
-203 -207 0
-204 -208 0
-201 -213 0
-202 -214 0
-203 -215 0
-204 -216 0
-201 -217 0
-202 -218 0
-203 -219 0
-204 -220 0
-201 -221 0
-202 -222 0
-203 -223 0
-204 -224 0
-201 -233 0
-202 -234 0
-203 -235 0
-204 -236 0
-201 -237 0
-202 -238 0
-203 -239 0
-204 -240 0
-201 -249 0
-202 -250 0
-203 -251 0
-204 -252 0
-201 -257 0
-202 -258 0
-203 -259 0
-204 -260 0
-201 -261 0
-202 -262 0
-203 -263 0
-204 -264 0
-201 -281 0
-202 -282 0
-203 -283 0
-204 -284 0
-201 -297 0
-202 -298 0
-203 -299 0
-204 -300 0
-201 -301 0
-202 -302 0
-203 -303 0
-204 -304 0
-201 -309 0
-202 -310 0
-203 -311 0
-204 -312 0
-201 -317 0
-202 -318 0
-203 -319 0
-204 -320 0
-201 -333 0
-202 -334 0
-203 -335 0
-204 -336 0
-201 -337 0
-202 -338 0
-203 -339 0
-204 -340 0
-201 -341 0
-202 -342 0
-203 -343 0
-204 -344 0
-201 -353 0
-202 -354 0
-203 -355 0
-204 -356 0
-201 -369 0
-202 -370 0
-203 -371 0
-204 -372 0
-201 -377 0
-202 -378 0
-203 -379 0
-204 -380 0
-201 -385 0
-202 -386 0
-203 -387 0
-204 -388 0
-201 -397 0
-202 -398 0
-203 -399 0
-204 -400 0
-201 -401 0
-202 -402 0
-203 -403 0
-204 -404 0
-201 -413 0
-202 -414 0
-203 -415 0
-204 -416 0
-201 -429 0
-202 -430 0
-203 -431 0
-204 -432 0
-201 -441 0
-202 -442 0
-203 -443 0
-204 -444 0
-201 -445 0
-202 -446 0
-203 -447 0
-204 -448 0
-201 -449 0
-202 -450 0
-203 -451 0
-204 -452 0
-201 -453 0
-202 -454 0
-203 -455 0
-204 -456 0
-201 -457 0
-202 -458 0
-203 -459 0
-204 -460 0
-201 -461 0
-202 -462 0
-203 -463 0
-204 -464 0
-201 -473 0
-202 -474 0
-203 -475 0
-204 -476 0
-201 -477 0
-202 -478 0
-203 -479 0
-204 -480 0
-201 -481 0
-202 -482 0
-203 -483 0
-204 -484 0
-201 -485 0
-202 -486 0
-203 -487 0
-204 -488 0
-201 -497 0
-202 -498 0
-203 -499 0
-204 -500 0
-201 -501 0
-202 -502 0
-203 -503 0
-204 -504 0
-201 -505 0
-202 -506 0
-203 -507 0
-204 -508 0
-201 -509 0
-202 -510 0
-203 -511 0
-204 -512 0
-201 -513 0
-202 -514 0
-203 -515 0
-204 -516 0
-201 -521 0
-202 -522 0
-203 -523 0
-204 -524 0
-201 -525 0
-202 -526 0
-203 -527 0
-204 -528 0
-201 -529 0
-202 -530 0
-203 -531 0
-204 -532 0
-201 -533 0
-202 -534 0
-203 -535 0
-204 -536 0
-201 -537 0
-202 -538 0
-203 -539 0
-204 -540 0
-201 -545 0
-202 -546 0
-203 -547 0
-204 -548 0
-201 -553 0
-202 -554 0
-203 -555 0
-204 -556 0
-201 -565 0
-202 -566 0
-203 -567 0
-204 -568 0
-201 -569 0
-202 -570 0
-203 -571 0
-204 -572 0
-201 -585 0
-202 -586 0
-203 -587 0
-204 -588 0
-201 -589 0
-202 -590 0
-203 -591 0
-204 -592 0
-205 -209 0
-206 -210 0
-207 -211 0
-208 -212 0
-205 -225 0
-206 -226 0
-207 -227 0
-208 -228 0
-205 -229 0
-206 -230 0
-207 -231 0
-208 -232 0
-205 -237 0
-206 -238 0
-207 -239 0
-208 -240 0
-205 -241 0
-206 -242 0
-207 -243 0
-208 -244 0
-205 -249 0
-206 -250 0
-207 -251 0
-208 -252 0
-205 -257 0
-206 -258 0
-207 -259 0
-208 -260 0
-205 -261 0
-206 -262 0
-207 -263 0
-208 -264 0
-205 -269 0
-206 -270 0
-207 -271 0
-208 -272 0
-205 -277 0
-206 -278 0
-207 -279 0
-208 -280 0
-205 -281 0
-206 -282 0
-207 -283 0
-208 -284 0
-205 -285 0
-206 -286 0
-207 -287 0
-208 -288 0
-205 -297 0
-206 -298 0
-207 -299 0
-208 -300 0
-205 -305 0
-206 -306 0
-207 -307 0
-208 -308 0
-205 -313 0
-206 -314 0
-207 -315 0
-208 -316 0
-205 -317 0
-206 -318 0
-207 -319 0
-208 -320 0
-205 -329 0
-206 -330 0
-207 -331 0
-208 -332 0
-205 -337 0
-206 -338 0
-207 -339 0
-208 -340 0
-205 -345 0
-206 -346 0
-207 -347 0
-208 -348 0
-205 -349 0
-206 -350 0
-207 -351 0
-208 -352 0
-205 -353 0
-206 -354 0
-207 -355 0
-208 -356 0
-205 -357 0
-206 -358 0
-207 -359 0
-208 -360 0
-205 -365 0
-206 -366 0
-207 -367 0
-208 -368 0
-205 -381 0
-206 -382 0
-207 -383 0
-208 -384 0
-205 -385 0
-206 -386 0
-207 -387 0
-208 -388 0
-205 -389 0
-206 -390 0
-207 -391 0
-208 -392 0
-205 -393 0
-206 -394 0
-207 -395 0
-208 -396 0
-205 -397 0
-206 -398 0
-207 -399 0
-208 -400 0
-205 -401 0
-206 -402 0
-207 -403 0
-208 -404 0
-205 -405 0
-206 -406 0
-207 -407 0
-208 -408 0
-205 -409 0
-206 -410 0
-207 -411 0
-208 -412 0
-205 -417 0
-206 -418 0
-207 -419 0
-208 -420 0
-205 -421 0
-206 -422 0
-207 -423 0
-208 -424 0
-205 -429 0
-206 -430 0
-207 -431 0
-208 -432 0
-205 -441 0
-206 -442 0
-207 -443 0
-208 -444 0
-205 -445 0
-206 -446 0
-207 -447 0
-208 -448 0
-205 -453 0
-206 -454 0
-207 -455 0
-208 -456 0
-205 -465 0
-206 -466 0
-207 -467 0
-208 -468 0
-205 -481 0
-206 -482 0
-207 -483 0
-208 -484 0
-205 -489 0
-206 -490 0
-207 -491 0
-208 -492 0
-205 -497 0
-206 -498 0
-207 -499 0
-208 -500 0
-205 -505 0
-206 -506 0
-207 -507 0
-208 -508 0
-205 -521 0
-206 -522 0
-207 -523 0
-208 -524 0
-205 -525 0
-206 -526 0
-207 -527 0
-208 -528 0
-205 -529 0
-206 -530 0
-207 -531 0
-208 -532 0
-205 -541 0
-206 -542 0
-207 -543 0
-208 -544 0
-205 -549 0
-206 -550 0
-207 -551 0
-208 -552 0
-205 -565 0
-206 -566 0
-207 -567 0
-208 -568 0
-205 -573 0
-206 -574 0
-207 -575 0
-208 -576 0
-205 -577 0
-206 -578 0
-207 -579 0
-208 -580 0
-205 -581 0
-206 -582 0
-207 -583 0
-208 -584 0
-205 -589 0
-206 -590 0
-207 -591 0
-208 -592 0
-205 -593 0
-206 -594 0
-207 -595 0
-208 -596 0
-205 -597 0
-206 -598 0
-207 -599 0
-208 -600 0
-209 -213 0
-210 -214 0
-211 -215 0
-212 -216 0
-209 -217 0
-210 -218 0
-211 -219 0
-212 -220 0
-209 -221 0
-210 -222 0
-211 -223 0
-212 -224 0
-209 -225 0
-210 -226 0
-211 -227 0
-212 -228 0
-209 -233 0
-210 -234 0
-211 -235 0
-212 -236 0
-209 -237 0
-210 -238 0
-211 -239 0
-212 -240 0
-209 -249 0
-210 -250 0
-211 -251 0
-212 -252 0
-209 -253 0
-210 -254 0
-211 -255 0
-212 -256 0
-209 -257 0
-210 -258 0
-211 -259 0
-212 -260 0
-209 -265 0
-210 -266 0
-211 -267 0
-212 -268 0
-209 -269 0
-210 -270 0
-211 -271 0
-212 -272 0
-209 -277 0
-210 -278 0
-211 -279 0
-212 -280 0
-209 -293 0
-210 -294 0
-211 -295 0
-212 -296 0
-209 -297 0
-210 -298 0
-211 -299 0
-212 -300 0
-209 -309 0
-210 -310 0
-211 -311 0
-212 -312 0
-209 -321 0
-210 -322 0
-211 -323 0
-212 -324 0
-209 -325 0
-210 -326 0
-211 -327 0
-212 -328 0
-209 -333 0
-210 -334 0
-211 -335 0
-212 -336 0
-209 -341 0
-210 -342 0
-211 -343 0
-212 -344 0
-209 -345 0
-210 -346 0
-211 -347 0
-212 -348 0
-209 -365 0
-210 -366 0
-211 -367 0
-212 -368 0
-209 -369 0
-210 -370 0
-211 -371 0
-212 -372 0
-209 -373 0
-210 -374 0
-211 -375 0
-212 -376 0
-209 -389 0
-210 -390 0
-211 -391 0
-212 -392 0
-209 -393 0
-210 -394 0
-211 -395 0
-212 -396 0
-209 -401 0
-210 -402 0
-211 -403 0
-212 -404 0
-209 -417 0
-210 -418 0
-211 -419 0
-212 -420 0
-209 -421 0
-210 -422 0
-211 -423 0
-212 -424 0
-209 -425 0
-210 -426 0
-211 -427 0
-212 -428 0
-209 -433 0
-210 -434 0
-211 -435 0
-212 -436 0
-209 -437 0
-210 -438 0
-211 -439 0
-212 -440 0
-209 -441 0
-210 -442 0
-211 -443 0
-212 -444 0
-209 -449 0
-210 -450 0
-211 -451 0
-212 -452 0
-209 -457 0
-210 -458 0
-211 -459 0
-212 -460 0
-209 -465 0
-210 -466 0
-211 -467 0
-212 -468 0
-209 -469 0
-210 -470 0
-211 -471 0
-212 -472 0
-209 -473 0
-210 -474 0
-211 -475 0
-212 -476 0
-209 -481 0
-210 -482 0
-211 -483 0
-212 -484 0
-209 -493 0
-210 -494 0
-211 -495 0
-212 -496 0
-209 -497 0
-210 -498 0
-211 -499 0
-212 -500 0
-209 -501 0
-210 -502 0
-211 -503 0
-212 -504 0
-209 -517 0
-210 -518 0
-211 -519 0
-212 -520 0
-209 -537 0
-210 -538 0
-211 -539 0
-212 -540 0
-209 -541 0
-210 -542 0
-211 -543 0
-212 -544 0
-209 -549 0
-210 -550 0
-211 -551 0
-212 -552 0
-209 -553 0
-210 -554 0
-211 -555 0
-212 -556 0
-209 -557 0
-210 -558 0
-211 -559 0
-212 -560 0
-209 -561 0
-210 -562 0
-211 -563 0
-212 -564 0
-209 -569 0
-210 -570 0
-211 -571 0
-212 -572 0
-209 -585 0
-210 -586 0
-211 -587 0
-212 -588 0
-209 -593 0
-210 -594 0
-211 -595 0
-212 -596 0
-213 -225 0
-214 -226 0
-215 -227 0
-216 -228 0
-213 -229 0
-214 -230 0
-215 -231 0
-216 -232 0
-213 -237 0
-214 -238 0
-215 -239 0
-216 -240 0
-213 -241 0
-214 -242 0
-215 -243 0
-216 -244 0
-213 -245 0
-214 -246 0
-215 -247 0
-216 -248 0
-213 -257 0
-214 -258 0
-215 -259 0
-216 -260 0
-213 -273 0
-214 -274 0
-215 -275 0
-216 -276 0
-213 -281 0
-214 -282 0
-215 -283 0
-216 -284 0
-213 -285 0
-214 -286 0
-215 -287 0
-216 -288 0
-213 -293 0
-214 -294 0
-215 -295 0
-216 -296 0
-213 -301 0
-214 -302 0
-215 -303 0
-216 -304 0
-213 -305 0
-214 -306 0
-215 -307 0
-216 -308 0
-213 -309 0
-214 -310 0
-215 -311 0
-216 -312 0
-213 -313 0
-214 -314 0
-215 -315 0
-216 -316 0
-213 -317 0
-214 -318 0
-215 -319 0
-216 -320 0
-213 -321 0
-214 -322 0
-215 -323 0
-216 -324 0
-213 -325 0
-214 -326 0
-215 -327 0
-216 -328 0
-213 -329 0
-214 -330 0
-215 -331 0
-216 -332 0
-213 -337 0
-214 -338 0
-215 -339 0
-216 -340 0
-213 -345 0
-214 -346 0
-215 -347 0
-216 -348 0
-213 -349 0
-214 -350 0
-215 -351 0
-216 -352 0
-213 -353 0
-214 -354 0
-215 -355 0
-216 -356 0
-213 -357 0
-214 -358 0
-215 -359 0
-216 -360 0
-213 -361 0
-214 -362 0
-215 -363 0
-216 -364 0
-213 -373 0
-214 -374 0
-215 -375 0
-216 -376 0
-213 -381 0
-214 -382 0
-215 -383 0
-216 -384 0
-213 -385 0
-214 -386 0
-215 -387 0
-216 -388 0
-213 -409 0
-214 -410 0
-215 -411 0
-216 -412 0
-213 -417 0
-214 -418 0
-215 -419 0
-216 -420 0
-213 -421 0
-214 -422 0
-215 -423 0
-216 -424 0
-213 -429 0
-214 -430 0
-215 -431 0
-216 -432 0
-213 -437 0
-214 -438 0
-215 -439 0
-216 -440 0
-213 -441 0
-214 -442 0
-215 -443 0
-216 -444 0
-213 -445 0
-214 -446 0
-215 -447 0
-216 -448 0
-213 -465 0
-214 -466 0
-215 -467 0
-216 -468 0
-213 -489 0
-214 -490 0
-215 -491 0
-216 -492 0
-213 -505 0
-214 -506 0
-215 -507 0
-216 -508 0
-213 -517 0
-214 -518 0
-215 -519 0
-216 -520 0
-213 -521 0
-214 -522 0
-215 -523 0
-216 -524 0
-213 -525 0
-214 -526 0
-215 -527 0
-216 -528 0
-213 -529 0
-214 -530 0
-215 -531 0
-216 -532 0
-213 -549 0
-214 -550 0
-215 -551 0
-216 -552 0
-213 -565 0
-214 -566 0
-215 -567 0
-216 -568 0
-213 -573 0
-214 -574 0
-215 -575 0
-216 -576 0
-213 -581 0
-214 -582 0
-215 -583 0
-216 -584 0
-213 -589 0
-214 -590 0
-215 -591 0
-216 -592 0
-213 -593 0
-214 -594 0
-215 -595 0
-216 -596 0
-217 -229 0
-218 -230 0
-219 -231 0
-220 -232 0
-217 -237 0
-218 -238 0
-219 -239 0
-220 -240 0
-217 -241 0
-218 -242 0
-219 -243 0
-220 -244 0
-217 -249 0
-218 -250 0
-219 -251 0
-220 -252 0
-217 -257 0
-218 -258 0
-219 -259 0
-220 -260 0
-217 -269 0
-218 -270 0
-219 -271 0
-220 -272 0
-217 -273 0
-218 -274 0
-219 -275 0
-220 -276 0
-217 -281 0
-218 -282 0
-219 -283 0
-220 -284 0
-217 -285 0
-218 -286 0
-219 -287 0
-220 -288 0
-217 -293 0
-218 -294 0
-219 -295 0
-220 -296 0
-217 -297 0
-218 -298 0
-219 -299 0
-220 -300 0
-217 -301 0
-218 -302 0
-219 -303 0
-220 -304 0
-217 -305 0
-218 -306 0
-219 -307 0
-220 -308 0
-217 -309 0
-218 -310 0
-219 -311 0
-220 -312 0
-217 -317 0
-218 -318 0
-219 -319 0
-220 -320 0
-217 -325 0
-218 -326 0
-219 -327 0
-220 -328 0
-217 -329 0
-218 -330 0
-219 -331 0
-220 -332 0
-217 -337 0
-218 -338 0
-219 -339 0
-220 -340 0
-217 -345 0
-218 -346 0
-219 -347 0
-220 -348 0
-217 -349 0
-218 -350 0
-219 -351 0
-220 -352 0
-217 -353 0
-218 -354 0
-219 -355 0
-220 -356 0
-217 -357 0
-218 -358 0
-219 -359 0
-220 -360 0
-217 -361 0
-218 -362 0
-219 -363 0
-220 -364 0
-217 -365 0
-218 -366 0
-219 -367 0
-220 -368 0
-217 -373 0
-218 -374 0
-219 -375 0
-220 -376 0
-217 -377 0
-218 -378 0
-219 -379 0
-220 -380 0
-217 -381 0
-218 -382 0
-219 -383 0
-220 -384 0
-217 -401 0
-218 -402 0
-219 -403 0
-220 -404 0
-217 -405 0
-218 -406 0
-219 -407 0
-220 -408 0
-217 -409 0
-218 -410 0
-219 -411 0
-220 -412 0
-217 -413 0
-218 -414 0
-219 -415 0
-220 -416 0
-217 -421 0
-218 -422 0
-219 -423 0
-220 -424 0
-217 -429 0
-218 -430 0
-219 -431 0
-220 -432 0
-217 -433 0
-218 -434 0
-219 -435 0
-220 -436 0
-217 -445 0
-218 -446 0
-219 -447 0
-220 -448 0
-217 -453 0
-218 -454 0
-219 -455 0
-220 -456 0
-217 -465 0
-218 -466 0
-219 -467 0
-220 -468 0
-217 -469 0
-218 -470 0
-219 -471 0
-220 -472 0
-217 -489 0
-218 -490 0
-219 -491 0
-220 -492 0
-217 -497 0
-218 -498 0
-219 -499 0
-220 -500 0
-217 -505 0
-218 -506 0
-219 -507 0
-220 -508 0
-217 -529 0
-218 -530 0
-219 -531 0
-220 -532 0
-217 -541 0
-218 -542 0
-219 -543 0
-220 -544 0
-217 -545 0
-218 -546 0
-219 -547 0
-220 -548 0
-217 -549 0
-218 -550 0
-219 -551 0
-220 -552 0
-217 -573 0
-218 -574 0
-219 -575 0
-220 -576 0
-217 -577 0
-218 -578 0
-219 -579 0
-220 -580 0
-217 -581 0
-218 -582 0
-219 -583 0
-220 -584 0
-217 -589 0
-218 -590 0
-219 -591 0
-220 -592 0
-217 -597 0
-218 -598 0
-219 -599 0
-220 -600 0
-221 -229 0
-222 -230 0
-223 -231 0
-224 -232 0
-221 -237 0
-222 -238 0
-223 -239 0
-224 -240 0
-221 -241 0
-222 -242 0
-223 -243 0
-224 -244 0
-221 -245 0
-222 -246 0
-223 -247 0
-224 -248 0
-221 -249 0
-222 -250 0
-223 -251 0
-224 -252 0
-221 -257 0
-222 -258 0
-223 -259 0
-224 -260 0
-221 -261 0
-222 -262 0
-223 -263 0
-224 -264 0
-221 -269 0
-222 -270 0
-223 -271 0
-224 -272 0
-221 -273 0
-222 -274 0
-223 -275 0
-224 -276 0
-221 -277 0
-222 -278 0
-223 -279 0
-224 -280 0
-221 -281 0
-222 -282 0
-223 -283 0
-224 -284 0
-221 -285 0
-222 -286 0
-223 -287 0
-224 -288 0
-221 -293 0
-222 -294 0
-223 -295 0
-224 -296 0
-221 -297 0
-222 -298 0
-223 -299 0
-224 -300 0
-221 -301 0
-222 -302 0
-223 -303 0
-224 -304 0
-221 -309 0
-222 -310 0
-223 -311 0
-224 -312 0
-221 -313 0
-222 -314 0
-223 -315 0
-224 -316 0
-221 -317 0
-222 -318 0
-223 -319 0
-224 -320 0
-221 -321 0
-222 -322 0
-223 -323 0
-224 -324 0
-221 -325 0
-222 -326 0
-223 -327 0
-224 -328 0
-221 -329 0
-222 -330 0
-223 -331 0
-224 -332 0
-221 -337 0
-222 -338 0
-223 -339 0
-224 -340 0
-221 -345 0
-222 -346 0
-223 -347 0
-224 -348 0
-221 -353 0
-222 -354 0
-223 -355 0
-224 -356 0
-221 -357 0
-222 -358 0
-223 -359 0
-224 -360 0
-221 -361 0
-222 -362 0
-223 -363 0
-224 -364 0
-221 -365 0
-222 -366 0
-223 -367 0
-224 -368 0
-221 -373 0
-222 -374 0
-223 -375 0
-224 -376 0
-221 -377 0
-222 -378 0
-223 -379 0
-224 -380 0
-221 -381 0
-222 -382 0
-223 -383 0
-224 -384 0
-221 -389 0
-222 -390 0
-223 -391 0
-224 -392 0
-221 -393 0
-222 -394 0
-223 -395 0
-224 -396 0
-221 -397 0
-222 -398 0
-223 -399 0
-224 -400 0
-221 -401 0
-222 -402 0
-223 -403 0
-224 -404 0
-221 -405 0
-222 -406 0
-223 -407 0
-224 -408 0
-221 -409 0
-222 -410 0
-223 -411 0
-224 -412 0
-221 -413 0
-222 -414 0
-223 -415 0
-224 -416 0
-221 -417 0
-222 -418 0
-223 -419 0
-224 -420 0
-221 -421 0
-222 -422 0
-223 -423 0
-224 -424 0
-221 -429 0
-222 -430 0
-223 -431 0
-224 -432 0
-221 -441 0
-222 -442 0
-223 -443 0
-224 -444 0
-221 -445 0
-222 -446 0
-223 -447 0
-224 -448 0
-221 -481 0
-222 -482 0
-223 -483 0
-224 -484 0
-221 -489 0
-222 -490 0
-223 -491 0
-224 -492 0
-221 -497 0
-222 -498 0
-223 -499 0
-224 -500 0
-221 -505 0
-222 -506 0
-223 -507 0
-224 -508 0
-221 -517 0
-222 -518 0
-223 -519 0
-224 -520 0
-221 -521 0
-222 -522 0
-223 -523 0
-224 -524 0
-221 -529 0
-222 -530 0
-223 -531 0
-224 -532 0
-221 -545 0
-222 -546 0
-223 -547 0
-224 -548 0
-221 -549 0
-222 -550 0
-223 -551 0
-224 -552 0
-221 -573 0
-222 -574 0
-223 -575 0
-224 -576 0
-221 -577 0
-222 -578 0
-223 -579 0
-224 -580 0
-221 -593 0
-222 -594 0
-223 -595 0
-224 -596 0
-225 -229 0
-226 -230 0
-227 -231 0
-228 -232 0
-225 -241 0
-226 -242 0
-227 -243 0
-228 -244 0
-225 -265 0
-226 -266 0
-227 -267 0
-228 -268 0
-225 -269 0
-226 -270 0
-227 -271 0
-228 -272 0
-225 -281 0
-226 -282 0
-227 -283 0
-228 -284 0
-225 -285 0
-226 -286 0
-227 -287 0
-228 -288 0
-225 -289 0
-226 -290 0
-227 -291 0
-228 -292 0
-225 -293 0
-226 -294 0
-227 -295 0
-228 -296 0
-225 -301 0
-226 -302 0
-227 -303 0
-228 -304 0
-225 -305 0
-226 -306 0
-227 -307 0
-228 -308 0
-225 -321 0
-226 -322 0
-227 -323 0
-228 -324 0
-225 -329 0
-226 -330 0
-227 -331 0
-228 -332 0
-225 -333 0
-226 -334 0
-227 -335 0
-228 -336 0
-225 -337 0
-226 -338 0
-227 -339 0
-228 -340 0
-225 -345 0
-226 -346 0
-227 -347 0
-228 -348 0
-225 -353 0
-226 -354 0
-227 -355 0
-228 -356 0
-225 -357 0
-226 -358 0
-227 -359 0
-228 -360 0
-225 -369 0
-226 -370 0
-227 -371 0
-228 -372 0
-225 -373 0
-226 -374 0
-227 -375 0
-228 -376 0
-225 -377 0
-226 -378 0
-227 -379 0
-228 -380 0
-225 -381 0
-226 -382 0
-227 -383 0
-228 -384 0
-225 -405 0
-226 -406 0
-227 -407 0
-228 -408 0
-225 -409 0
-226 -410 0
-227 -411 0
-228 -412 0
-225 -417 0
-226 -418 0
-227 -419 0
-228 -420 0
-225 -425 0
-226 -426 0
-227 -427 0
-228 -428 0
-225 -429 0
-226 -430 0
-227 -431 0
-228 -432 0
-225 -437 0
-226 -438 0
-227 -439 0
-228 -440 0
-225 -449 0
-226 -450 0
-227 -451 0
-228 -452 0
-225 -453 0
-226 -454 0
-227 -455 0
-228 -456 0
-225 -457 0
-226 -458 0
-227 -459 0
-228 -460 0
-225 -465 0
-226 -466 0
-227 -467 0
-228 -468 0
-225 -469 0
-226 -470 0
-227 -471 0
-228 -472 0
-225 -473 0
-226 -474 0
-227 -475 0
-228 -476 0
-225 -477 0
-226 -478 0
-227 -479 0
-228 -480 0
-225 -485 0
-226 -486 0
-227 -487 0
-228 -488 0
-225 -493 0
-226 -494 0
-227 -495 0
-228 -496 0
-225 -501 0
-226 -502 0
-227 -503 0
-228 -504 0
-225 -505 0
-226 -506 0
-227 -507 0
-228 -508 0
-225 -513 0
-226 -514 0
-227 -515 0
-228 -516 0
-225 -517 0
-226 -518 0
-227 -519 0
-228 -520 0
-225 -525 0
-226 -526 0
-227 -527 0
-228 -528 0
-225 -529 0
-226 -530 0
-227 -531 0
-228 -532 0
-225 -537 0
-226 -538 0
-227 -539 0
-228 -540 0
-225 -541 0
-226 -542 0
-227 -543 0
-228 -544 0
-225 -553 0
-226 -554 0
-227 -555 0
-228 -556 0
-225 -561 0
-226 -562 0
-227 -563 0
-228 -564 0
-225 -565 0
-226 -566 0
-227 -567 0
-228 -568 0
-225 -569 0
-226 -570 0
-227 -571 0
-228 -572 0
-225 -577 0
-226 -578 0
-227 -579 0
-228 -580 0
-225 -585 0
-226 -586 0
-227 -587 0
-228 -588 0
-225 -589 0
-226 -590 0
-227 -591 0
-228 -592 0
-225 -593 0
-226 -594 0
-227 -595 0
-228 -596 0
-225 -597 0
-226 -598 0
-227 -599 0
-228 -600 0
-229 -233 0
-230 -234 0
-231 -235 0
-232 -236 0
-229 -237 0
-230 -238 0
-231 -239 0
-232 -240 0
-229 -249 0
-230 -250 0
-231 -251 0
-232 -252 0
-229 -253 0
-230 -254 0
-231 -255 0
-232 -256 0
-229 -257 0
-230 -258 0
-231 -259 0
-232 -260 0
-229 -281 0
-230 -282 0
-231 -283 0
-232 -284 0
-229 -289 0
-230 -290 0
-231 -291 0
-232 -292 0
-229 -297 0
-230 -298 0
-231 -299 0
-232 -300 0
-229 -301 0
-230 -302 0
-231 -303 0
-232 -304 0
-229 -305 0
-230 -306 0
-231 -307 0
-232 -308 0
-229 -313 0
-230 -314 0
-231 -315 0
-232 -316 0
-229 -317 0
-230 -318 0
-231 -319 0
-232 -320 0
-229 -325 0
-230 -326 0
-231 -327 0
-232 -328 0
-229 -333 0
-230 -334 0
-231 -335 0
-232 -336 0
-229 -337 0
-230 -338 0
-231 -339 0
-232 -340 0
-229 -341 0
-230 -342 0
-231 -343 0
-232 -344 0
-229 -349 0
-230 -350 0
-231 -351 0
-232 -352 0
-229 -353 0
-230 -354 0
-231 -355 0
-232 -356 0
-229 -361 0
-230 -362 0
-231 -363 0
-232 -364 0
-229 -365 0
-230 -366 0
-231 -367 0
-232 -368 0
-229 -369 0
-230 -370 0
-231 -371 0
-232 -372 0
-229 -377 0
-230 -378 0
-231 -379 0
-232 -380 0
-229 -381 0
-230 -382 0
-231 -383 0
-232 -384 0
-229 -385 0
-230 -386 0
-231 -387 0
-232 -388 0
-229 -401 0
-230 -402 0
-231 -403 0
-232 -404 0
-229 -405 0
-230 -406 0
-231 -407 0
-232 -408 0
-229 -413 0
-230 -414 0
-231 -415 0
-232 -416 0
-229 -425 0
-230 -426 0
-231 -427 0
-232 -428 0
-229 -429 0
-230 -430 0
-231 -431 0
-232 -432 0
-229 -433 0
-230 -434 0
-231 -435 0
-232 -436 0
-229 -441 0
-230 -442 0
-231 -443 0
-232 -444 0
-229 -449 0
-230 -450 0
-231 -451 0
-232 -452 0
-229 -453 0
-230 -454 0
-231 -455 0
-232 -456 0
-229 -457 0
-230 -458 0
-231 -459 0
-232 -460 0
-229 -473 0
-230 -474 0
-231 -475 0
-232 -476 0
-229 -485 0
-230 -486 0
-231 -487 0
-232 -488 0
-229 -489 0
-230 -490 0
-231 -491 0
-232 -492 0
-229 -505 0
-230 -506 0
-231 -507 0
-232 -508 0
-229 -509 0
-230 -510 0
-231 -511 0
-232 -512 0
-229 -513 0
-230 -514 0
-231 -515 0
-232 -516 0
-229 -521 0
-230 -522 0
-231 -523 0
-232 -524 0
-229 -525 0
-230 -526 0
-231 -527 0
-232 -528 0
-229 -529 0
-230 -530 0
-231 -531 0
-232 -532 0
-229 -537 0
-230 -538 0
-231 -539 0
-232 -540 0
-229 -553 0
-230 -554 0
-231 -555 0
-232 -556 0
-229 -561 0
-230 -562 0
-231 -563 0
-232 -564 0
-229 -565 0
-230 -566 0
-231 -567 0
-232 -568 0
-229 -581 0
-230 -582 0
-231 -583 0
-232 -584 0
-229 -589 0
-230 -590 0
-231 -591 0
-232 -592 0
-233 -241 0
-234 -242 0
-235 -243 0
-236 -244 0
-233 -245 0
-234 -246 0
-235 -247 0
-236 -248 0
-233 -257 0
-234 -258 0
-235 -259 0
-236 -260 0
-233 -261 0
-234 -262 0
-235 -263 0
-236 -264 0
-233 -273 0
-234 -274 0
-235 -275 0
-236 -276 0
-233 -281 0
-234 -282 0
-235 -283 0
-236 -284 0
-233 -285 0
-234 -286 0
-235 -287 0
-236 -288 0
-233 -293 0
-234 -294 0
-235 -295 0
-236 -296 0
-233 -301 0
-234 -302 0
-235 -303 0
-236 -304 0
-233 -317 0
-234 -318 0
-235 -319 0
-236 -320 0
-233 -321 0
-234 -322 0
-235 -323 0
-236 -324 0
-233 -325 0
-234 -326 0
-235 -327 0
-236 -328 0
-233 -329 0
-234 -330 0
-235 -331 0
-236 -332 0
-233 -337 0
-234 -338 0
-235 -339 0
-236 -340 0
-233 -345 0
-234 -346 0
-235 -347 0
-236 -348 0
-233 -349 0
-234 -350 0
-235 -351 0
-236 -352 0
-233 -353 0
-234 -354 0
-235 -355 0
-236 -356 0
-233 -357 0
-234 -358 0
-235 -359 0
-236 -360 0
-233 -361 0
-234 -362 0
-235 -363 0
-236 -364 0
-233 -365 0
-234 -366 0
-235 -367 0
-236 -368 0
-233 -381 0
-234 -382 0
-235 -383 0
-236 -384 0
-233 -389 0
-234 -390 0
-235 -391 0
-236 -392 0
-233 -405 0
-234 -406 0
-235 -407 0
-236 -408 0
-233 -409 0
-234 -410 0
-235 -411 0
-236 -412 0
-233 -413 0
-234 -414 0
-235 -415 0
-236 -416 0
-233 -417 0
-234 -418 0
-235 -419 0
-236 -420 0
-233 -429 0
-234 -430 0
-235 -431 0
-236 -432 0
-233 -433 0
-234 -434 0
-235 -435 0
-236 -436 0
-233 -441 0
-234 -442 0
-235 -443 0
-236 -444 0
-233 -445 0
-234 -446 0
-235 -447 0
-236 -448 0
-233 -453 0
-234 -454 0
-235 -455 0
-236 -456 0
-233 -481 0
-234 -482 0
-235 -483 0
-236 -484 0
-233 -489 0
-234 -490 0
-235 -491 0
-236 -492 0
-233 -497 0
-234 -498 0
-235 -499 0
-236 -500 0
-233 -517 0
-234 -518 0
-235 -519 0
-236 -520 0
-233 -521 0
-234 -522 0
-235 -523 0
-236 -524 0
-233 -529 0
-234 -530 0
-235 -531 0
-236 -532 0
-233 -541 0
-234 -542 0
-235 -543 0
-236 -544 0
-233 -549 0
-234 -550 0
-235 -551 0
-236 -552 0
-233 -573 0
-234 -574 0
-235 -575 0
-236 -576 0
-233 -577 0
-234 -578 0
-235 -579 0
-236 -580 0
-233 -581 0
-234 -582 0
-235 -583 0
-236 -584 0
-233 -589 0
-234 -590 0
-235 -591 0
-236 -592 0
-233 -593 0
-234 -594 0
-235 -595 0
-236 -596 0
-237 -245 0
-238 -246 0
-239 -247 0
-240 -248 0
-237 -261 0
-238 -262 0
-239 -263 0
-240 -264 0
-237 -265 0
-238 -266 0
-239 -267 0
-240 -268 0
-237 -281 0
-238 -282 0
-239 -283 0
-240 -284 0
-237 -285 0
-238 -286 0
-239 -287 0
-240 -288 0
-237 -293 0
-238 -294 0
-239 -295 0
-240 -296 0
-237 -301 0
-238 -302 0
-239 -303 0
-240 -304 0
-237 -305 0
-238 -306 0
-239 -307 0
-240 -308 0
-237 -329 0
-238 -330 0
-239 -331 0
-240 -332 0
-237 -337 0
-238 -338 0
-239 -339 0
-240 -340 0
-237 -341 0
-238 -342 0
-239 -343 0
-240 -344 0
-237 -345 0
-238 -346 0
-239 -347 0
-240 -348 0
-237 -353 0
-238 -354 0
-239 -355 0
-240 -356 0
-237 -357 0
-238 -358 0
-239 -359 0
-240 -360 0
-237 -361 0
-238 -362 0
-239 -363 0
-240 -364 0
-237 -369 0
-238 -370 0
-239 -371 0
-240 -372 0
-237 -377 0
-238 -378 0
-239 -379 0
-240 -380 0
-237 -381 0
-238 -382 0
-239 -383 0
-240 -384 0
-237 -393 0
-238 -394 0
-239 -395 0
-240 -396 0
-237 -409 0
-238 -410 0
-239 -411 0
-240 -412 0
-237 -421 0
-238 -422 0
-239 -423 0
-240 -424 0
-237 -425 0
-238 -426 0
-239 -427 0
-240 -428 0
-237 -429 0
-238 -430 0
-239 -431 0
-240 -432 0
-237 -449 0
-238 -450 0
-239 -451 0
-240 -452 0
-237 -457 0
-238 -458 0
-239 -459 0
-240 -460 0
-237 -461 0
-238 -462 0
-239 -463 0
-240 -464 0
-237 -465 0
-238 -466 0
-239 -467 0
-240 -468 0
-237 -473 0
-238 -474 0
-239 -475 0
-240 -476 0
-237 -477 0
-238 -478 0
-239 -479 0
-240 -480 0
-237 -485 0
-238 -486 0
-239 -487 0
-240 -488 0
-237 -493 0
-238 -494 0
-239 -495 0
-240 -496 0
-237 -501 0
-238 -502 0
-239 -503 0
-240 -504 0
-237 -505 0
-238 -506 0
-239 -507 0
-240 -508 0
-237 -509 0
-238 -510 0
-239 -511 0
-240 -512 0
-237 -513 0
-238 -514 0
-239 -515 0
-240 -516 0
-237 -517 0
-238 -518 0
-239 -519 0
-240 -520 0
-237 -525 0
-238 -526 0
-239 -527 0
-240 -528 0
-237 -529 0
-238 -530 0
-239 -531 0
-240 -532 0
-237 -533 0
-238 -534 0
-239 -535 0
-240 -536 0
-237 -537 0
-238 -538 0
-239 -539 0
-240 -540 0
-237 -541 0
-238 -542 0
-239 -543 0
-240 -544 0
-237 -553 0
-238 -554 0
-239 -555 0
-240 -556 0
-237 -557 0
-238 -558 0
-239 -559 0
-240 -560 0
-237 -561 0
-238 -562 0
-239 -563 0
-240 -564 0
-237 -565 0
-238 -566 0
-239 -567 0
-240 -568 0
-237 -569 0
-238 -570 0
-239 -571 0
-240 -572 0
-237 -573 0
-238 -574 0
-239 -575 0
-240 -576 0
-237 -577 0
-238 -578 0
-239 -579 0
-240 -580 0
-237 -581 0
-238 -582 0
-239 -583 0
-240 -584 0
-237 -585 0
-238 -586 0
-239 -587 0
-240 -588 0
-237 -593 0
-238 -594 0
-239 -595 0
-240 -596 0
-237 -597 0
-238 -598 0
-239 -599 0
-240 -600 0
-241 -249 0
-242 -250 0
-243 -251 0
-244 -252 0
-241 -253 0
-242 -254 0
-243 -255 0
-244 -256 0
-241 -257 0
-242 -258 0
-243 -259 0
-244 -260 0
-241 -261 0
-242 -262 0
-243 -263 0
-244 -264 0
-241 -265 0
-242 -266 0
-243 -267 0
-244 -268 0
-241 -281 0
-242 -282 0
-243 -283 0
-244 -284 0
-241 -285 0
-242 -286 0
-243 -287 0
-244 -288 0
-241 -289 0
-242 -290 0
-243 -291 0
-244 -292 0
-241 -305 0
-242 -306 0
-243 -307 0
-244 -308 0
-241 -309 0
-242 -310 0
-243 -311 0
-244 -312 0
-241 -313 0
-242 -314 0
-243 -315 0
-244 -316 0
-241 -333 0
-242 -334 0
-243 -335 0
-244 -336 0
-241 -349 0
-242 -350 0
-243 -351 0
-244 -352 0
-241 -361 0
-242 -362 0
-243 -363 0
-244 -364 0
-241 -365 0
-242 -366 0
-243 -367 0
-244 -368 0
-241 -369 0
-242 -370 0
-243 -371 0
-244 -372 0
-241 -377 0
-242 -378 0
-243 -379 0
-244 -380 0
-241 -385 0
-242 -386 0
-243 -387 0
-244 -388 0
-241 -389 0
-242 -390 0
-243 -391 0
-244 -392 0
-241 -397 0
-242 -398 0
-243 -399 0
-244 -400 0
-241 -401 0
-242 -402 0
-243 -403 0
-244 -404 0
-241 -405 0
-242 -406 0
-243 -407 0
-244 -408 0
-241 -413 0
-242 -414 0
-243 -415 0
-244 -416 0
-241 -425 0
-242 -426 0
-243 -427 0
-244 -428 0
-241 -429 0
-242 -430 0
-243 -431 0
-244 -432 0
-241 -441 0
-242 -442 0
-243 -443 0
-244 -444 0
-241 -445 0
-242 -446 0
-243 -447 0
-244 -448 0
-241 -449 0
-242 -450 0
-243 -451 0
-244 -452 0
-241 -453 0
-242 -454 0
-243 -455 0
-244 -456 0
-241 -461 0
-242 -462 0
-243 -463 0
-244 -464 0
-241 -473 0
-242 -474 0
-243 -475 0
-244 -476 0
-241 -477 0
-242 -478 0
-243 -479 0
-244 -480 0
-241 -481 0
-242 -482 0
-243 -483 0
-244 -484 0
-241 -485 0
-242 -486 0
-243 -487 0
-244 -488 0
-241 -505 0
-242 -506 0
-243 -507 0
-244 -508 0
-241 -513 0
-242 -514 0
-243 -515 0
-244 -516 0
-241 -521 0
-242 -522 0
-243 -523 0
-244 -524 0
-241 -525 0
-242 -526 0
-243 -527 0
-244 -528 0
-241 -529 0
-242 -530 0
-243 -531 0
-244 -532 0
-241 -533 0
-242 -534 0
-243 -535 0
-244 -536 0
-241 -545 0
-242 -546 0
-243 -547 0
-244 -548 0
-241 -553 0
-242 -554 0
-243 -555 0
-244 -556 0
-241 -561 0
-242 -562 0
-243 -563 0
-244 -564 0
-241 -565 0
-242 -566 0
-243 -567 0
-244 -568 0
-241 -581 0
-242 -582 0
-243 -583 0
-244 -584 0
-241 -585 0
-242 -586 0
-243 -587 0
-244 -588 0
-241 -589 0
-242 -590 0
-243 -591 0
-244 -592 0
-245 -249 0
-246 -250 0
-247 -251 0
-248 -252 0
-245 -253 0
-246 -254 0
-247 -255 0
-248 -256 0
-245 -257 0
-246 -258 0
-247 -259 0
-248 -260 0
-245 -261 0
-246 -262 0
-247 -263 0
-248 -264 0
-245 -265 0
-246 -266 0
-247 -267 0
-248 -268 0
-245 -277 0
-246 -278 0
-247 -279 0
-248 -280 0
-245 -281 0
-246 -282 0
-247 -283 0
-248 -284 0
-245 -285 0
-246 -286 0
-247 -287 0
-248 -288 0
-245 -289 0
-246 -290 0
-247 -291 0
-248 -292 0
-245 -301 0
-246 -302 0
-247 -303 0
-248 -304 0
-245 -305 0
-246 -306 0
-247 -307 0
-248 -308 0
-245 -309 0
-246 -310 0
-247 -311 0
-248 -312 0
-245 -313 0
-246 -314 0
-247 -315 0
-248 -316 0
-245 -317 0
-246 -318 0
-247 -319 0
-248 -320 0
-245 -333 0
-246 -334 0
-247 -335 0
-248 -336 0
-245 -337 0
-246 -338 0
-247 -339 0
-248 -340 0
-245 -353 0
-246 -354 0
-247 -355 0
-248 -356 0
-245 -361 0
-246 -362 0
-247 -363 0
-248 -364 0
-245 -369 0
-246 -370 0
-247 -371 0
-248 -372 0
-245 -389 0
-246 -390 0
-247 -391 0
-248 -392 0
-245 -397 0
-246 -398 0
-247 -399 0
-248 -400 0
-245 -401 0
-246 -402 0
-247 -403 0
-248 -404 0
-245 -405 0
-246 -406 0
-247 -407 0
-248 -408 0
-245 -409 0
-246 -410 0
-247 -411 0
-248 -412 0
-245 -413 0
-246 -414 0
-247 -415 0
-248 -416 0
-245 -425 0
-246 -426 0
-247 -427 0
-248 -428 0
-245 -429 0
-246 -430 0
-247 -431 0
-248 -432 0
-245 -433 0
-246 -434 0
-247 -435 0
-248 -436 0
-245 -441 0
-246 -442 0
-247 -443 0
-248 -444 0
-245 -449 0
-246 -450 0
-247 -451 0
-248 -452 0
-245 -453 0
-246 -454 0
-247 -455 0
-248 -456 0
-245 -473 0
-246 -474 0
-247 -475 0
-248 -476 0
-245 -477 0
-246 -478 0
-247 -479 0
-248 -480 0
-245 -481 0
-246 -482 0
-247 -483 0
-248 -484 0
-245 -489 0
-246 -490 0
-247 -491 0
-248 -492 0
-245 -493 0
-246 -494 0
-247 -495 0
-248 -496 0
-245 -497 0
-246 -498 0
-247 -499 0
-248 -500 0
-245 -501 0
-246 -502 0
-247 -503 0
-248 -504 0
-245 -505 0
-246 -506 0
-247 -507 0
-248 -508 0
-245 -513 0
-246 -514 0
-247 -515 0
-248 -516 0
-245 -521 0
-246 -522 0
-247 -523 0
-248 -524 0
-245 -533 0
-246 -534 0
-247 -535 0
-248 -536 0
-245 -537 0
-246 -538 0
-247 -539 0
-248 -540 0
-245 -545 0
-246 -546 0
-247 -547 0
-248 -548 0
-245 -561 0
-246 -562 0
-247 -563 0
-248 -564 0
-245 -565 0
-246 -566 0
-247 -567 0
-248 -568 0
-245 -569 0
-246 -570 0
-247 -571 0
-248 -572 0
-245 -589 0
-246 -590 0
-247 -591 0
-248 -592 0
-245 -597 0
-246 -598 0
-247 -599 0
-248 -600 0
-249 -253 0
-250 -254 0
-251 -255 0
-252 -256 0
-249 -269 0
-250 -270 0
-251 -271 0
-252 -272 0
-249 -273 0
-250 -274 0
-251 -275 0
-252 -276 0
-249 -281 0
-250 -282 0
-251 -283 0
-252 -284 0
-249 -289 0
-250 -290 0
-251 -291 0
-252 -292 0
-249 -305 0
-250 -306 0
-251 -307 0
-252 -308 0
-249 -321 0
-250 -322 0
-251 -323 0
-252 -324 0
-249 -329 0
-250 -330 0
-251 -331 0
-252 -332 0
-249 -333 0
-250 -334 0
-251 -335 0
-252 -336 0
-249 -337 0
-250 -338 0
-251 -339 0
-252 -340 0
-249 -341 0
-250 -342 0
-251 -343 0
-252 -344 0
-249 -353 0
-250 -354 0
-251 -355 0
-252 -356 0
-249 -373 0
-250 -374 0
-251 -375 0
-252 -376 0
-249 -377 0
-250 -378 0
-251 -379 0
-252 -380 0
-249 -381 0
-250 -382 0
-251 -383 0
-252 -384 0
-249 -385 0
-250 -386 0
-251 -387 0
-252 -388 0
-249 -393 0
-250 -394 0
-251 -395 0
-252 -396 0
-249 -405 0
-250 -406 0
-251 -407 0
-252 -408 0
-249 -417 0
-250 -418 0
-251 -419 0
-252 -420 0
-249 -429 0
-250 -430 0
-251 -431 0
-252 -432 0
-249 -437 0
-250 -438 0
-251 -439 0
-252 -440 0
-249 -445 0
-250 -446 0
-251 -447 0
-252 -448 0
-249 -453 0
-250 -454 0
-251 -455 0
-252 -456 0
-249 -457 0
-250 -458 0
-251 -459 0
-252 -460 0
-249 -465 0
-250 -466 0
-251 -467 0
-252 -468 0
-249 -473 0
-250 -474 0
-251 -475 0
-252 -476 0
-249 -477 0
-250 -478 0
-251 -479 0
-252 -480 0
-249 -485 0
-250 -486 0
-251 -487 0
-252 -488 0
-249 -493 0
-250 -494 0
-251 -495 0
-252 -496 0
-249 -501 0
-250 -502 0
-251 -503 0
-252 -504 0
-249 -505 0
-250 -506 0
-251 -507 0
-252 -508 0
-249 -509 0
-250 -510 0
-251 -511 0
-252 -512 0
-249 -517 0
-250 -518 0
-251 -519 0
-252 -520 0
-249 -525 0
-250 -526 0
-251 -527 0
-252 -528 0
-249 -529 0
-250 -530 0
-251 -531 0
-252 -532 0
-249 -537 0
-250 -538 0
-251 -539 0
-252 -540 0
-249 -549 0
-250 -550 0
-251 -551 0
-252 -552 0
-249 -553 0
-250 -554 0
-251 -555 0
-252 -556 0
-249 -557 0
-250 -558 0
-251 -559 0
-252 -560 0
-249 -561 0
-250 -562 0
-251 -563 0
-252 -564 0
-249 -565 0
-250 -566 0
-251 -567 0
-252 -568 0
-249 -573 0
-250 -574 0
-251 -575 0
-252 -576 0
-249 -581 0
-250 -582 0
-251 -583 0
-252 -584 0
-249 -585 0
-250 -586 0
-251 -587 0
-252 -588 0
-249 -589 0
-250 -590 0
-251 -591 0
-252 -592 0
-249 -593 0
-250 -594 0
-251 -595 0
-252 -596 0
-249 -597 0
-250 -598 0
-251 -599 0
-252 -600 0
-253 -257 0
-254 -258 0
-255 -259 0
-256 -260 0
-253 -261 0
-254 -262 0
-255 -263 0
-256 -264 0
-253 -269 0
-254 -270 0
-255 -271 0
-256 -272 0
-253 -273 0
-254 -274 0
-255 -275 0
-256 -276 0
-253 -281 0
-254 -282 0
-255 -283 0
-256 -284 0
-253 -285 0
-254 -286 0
-255 -287 0
-256 -288 0
-253 -293 0
-254 -294 0
-255 -295 0
-256 -296 0
-253 -297 0
-254 -298 0
-255 -299 0
-256 -300 0
-253 -301 0
-254 -302 0
-255 -303 0
-256 -304 0
-253 -305 0
-254 -306 0
-255 -307 0
-256 -308 0
-253 -309 0
-254 -310 0
-255 -311 0
-256 -312 0
-253 -313 0
-254 -314 0
-255 -315 0
-256 -316 0
-253 -317 0
-254 -318 0
-255 -319 0
-256 -320 0
-253 -325 0
-254 -326 0
-255 -327 0
-256 -328 0
-253 -337 0
-254 -338 0
-255 -339 0
-256 -340 0
-253 -345 0
-254 -346 0
-255 -347 0
-256 -348 0
-253 -349 0
-254 -350 0
-255 -351 0
-256 -352 0
-253 -353 0
-254 -354 0
-255 -355 0
-256 -356 0
-253 -357 0
-254 -358 0
-255 -359 0
-256 -360 0
-253 -361 0
-254 -362 0
-255 -363 0
-256 -364 0
-253 -365 0
-254 -366 0
-255 -367 0
-256 -368 0
-253 -373 0
-254 -374 0
-255 -375 0
-256 -376 0
-253 -377 0
-254 -378 0
-255 -379 0
-256 -380 0
-253 -381 0
-254 -382 0
-255 -383 0
-256 -384 0
-253 -389 0
-254 -390 0
-255 -391 0
-256 -392 0
-253 -397 0
-254 -398 0
-255 -399 0
-256 -400 0
-253 -401 0
-254 -402 0
-255 -403 0
-256 -404 0
-253 -405 0
-254 -406 0
-255 -407 0
-256 -408 0
-253 -417 0
-254 -418 0
-255 -419 0
-256 -420 0
-253 -429 0
-254 -430 0
-255 -431 0
-256 -432 0
-253 -433 0
-254 -434 0
-255 -435 0
-256 -436 0
-253 -441 0
-254 -442 0
-255 -443 0
-256 -444 0
-253 -481 0
-254 -482 0
-255 -483 0
-256 -484 0
-253 -489 0
-254 -490 0
-255 -491 0
-256 -492 0
-253 -497 0
-254 -498 0
-255 -499 0
-256 -500 0
-253 -505 0
-254 -506 0
-255 -507 0
-256 -508 0
-253 -517 0
-254 -518 0
-255 -519 0
-256 -520 0
-253 -521 0
-254 -522 0
-255 -523 0
-256 -524 0
-253 -525 0
-254 -526 0
-255 -527 0
-256 -528 0
-253 -529 0
-254 -530 0
-255 -531 0
-256 -532 0
-253 -541 0
-254 -542 0
-255 -543 0
-256 -544 0
-253 -545 0
-254 -546 0
-255 -547 0
-256 -548 0
-253 -565 0
-254 -566 0
-255 -567 0
-256 -568 0
-253 -573 0
-254 -574 0
-255 -575 0
-256 -576 0
-253 -577 0
-254 -578 0
-255 -579 0
-256 -580 0
-253 -581 0
-254 -582 0
-255 -583 0
-256 -584 0
-253 -593 0
-254 -594 0
-255 -595 0
-256 -596 0
-257 -261 0
-258 -262 0
-259 -263 0
-260 -264 0
-257 -265 0
-258 -266 0
-259 -267 0
-260 -268 0
-257 -281 0
-258 -282 0
-259 -283 0
-260 -284 0
-257 -285 0
-258 -286 0
-259 -287 0
-260 -288 0
-257 -289 0
-258 -290 0
-259 -291 0
-260 -292 0
-257 -301 0
-258 -302 0
-259 -303 0
-260 -304 0
-257 -305 0
-258 -306 0
-259 -307 0
-260 -308 0
-257 -321 0
-258 -322 0
-259 -323 0
-260 -324 0
-257 -333 0
-258 -334 0
-259 -335 0
-260 -336 0
-257 -341 0
-258 -342 0
-259 -343 0
-260 -344 0
-257 -345 0
-258 -346 0
-259 -347 0
-260 -348 0
-257 -353 0
-258 -354 0
-259 -355 0
-260 -356 0
-257 -361 0
-258 -362 0
-259 -363 0
-260 -364 0
-257 -377 0
-258 -378 0
-259 -379 0
-260 -380 0
-257 -381 0
-258 -382 0
-259 -383 0
-260 -384 0
-257 -393 0
-258 -394 0
-259 -395 0
-260 -396 0
-257 -405 0
-258 -406 0
-259 -407 0
-260 -408 0
-257 -417 0
-258 -418 0
-259 -419 0
-260 -420 0
-257 -425 0
-258 -426 0
-259 -427 0
-260 -428 0
-257 -437 0
-258 -438 0
-259 -439 0
-260 -440 0
-257 -453 0
-258 -454 0
-259 -455 0
-260 -456 0
-257 -461 0
-258 -462 0
-259 -463 0
-260 -464 0
-257 -465 0
-258 -466 0
-259 -467 0
-260 -468 0
-257 -473 0
-258 -474 0
-259 -475 0
-260 -476 0
-257 -485 0
-258 -486 0
-259 -487 0
-260 -488 0
-257 -493 0
-258 -494 0
-259 -495 0
-260 -496 0
-257 -501 0
-258 -502 0
-259 -503 0
-260 -504 0
-257 -505 0
-258 -506 0
-259 -507 0
-260 -508 0
-257 -509 0
-258 -510 0
-259 -511 0
-260 -512 0
-257 -513 0
-258 -514 0
-259 -515 0
-260 -516 0
-257 -517 0
-258 -518 0
-259 -519 0
-260 -520 0
-257 -525 0
-258 -526 0
-259 -527 0
-260 -528 0
-257 -533 0
-258 -534 0
-259 -535 0
-260 -536 0
-257 -541 0
-258 -542 0
-259 -543 0
-260 -544 0
-257 -549 0
-258 -550 0
-259 -551 0
-260 -552 0
-257 -553 0
-258 -554 0
-259 -555 0
-260 -556 0
-257 -557 0
-258 -558 0
-259 -559 0
-260 -560 0
-257 -561 0
-258 -562 0
-259 -563 0
-260 -564 0
-257 -569 0
-258 -570 0
-259 -571 0
-260 -572 0
-257 -573 0
-258 -574 0
-259 -575 0
-260 -576 0
-257 -581 0
-258 -582 0
-259 -583 0
-260 -584 0
-257 -589 0
-258 -590 0
-259 -591 0
-260 -592 0
-257 -597 0
-258 -598 0
-259 -599 0
-260 -600 0
-261 -265 0
-262 -266 0
-263 -267 0
-264 -268 0
-261 -269 0
-262 -270 0
-263 -271 0
-264 -272 0
-261 -273 0
-262 -274 0
-263 -275 0
-264 -276 0
-261 -277 0
-262 -278 0
-263 -279 0
-264 -280 0
-261 -289 0
-262 -290 0
-263 -291 0
-264 -292 0
-261 -293 0
-262 -294 0
-263 -295 0
-264 -296 0
-261 -297 0
-262 -298 0
-263 -299 0
-264 -300 0
-261 -313 0
-262 -314 0
-263 -315 0
-264 -316 0
-261 -317 0
-262 -318 0
-263 -319 0
-264 -320 0
-261 -321 0
-262 -322 0
-263 -323 0
-264 -324 0
-261 -325 0
-262 -326 0
-263 -327 0
-264 -328 0
-261 -341 0
-262 -342 0
-263 -343 0
-264 -344 0
-261 -349 0
-262 -350 0
-263 -351 0
-264 -352 0
-261 -357 0
-262 -358 0
-263 -359 0
-264 -360 0
-261 -365 0
-262 -366 0
-263 -367 0
-264 -368 0
-261 -369 0
-262 -370 0
-263 -371 0
-264 -372 0
-261 -373 0
-262 -374 0
-263 -375 0
-264 -376 0
-261 -393 0
-262 -394 0
-263 -395 0
-264 -396 0
-261 -397 0
-262 -398 0
-263 -399 0
-264 -400 0
-261 -401 0
-262 -402 0
-263 -403 0
-264 -404 0
-261 -413 0
-262 -414 0
-263 -415 0
-264 -416 0
-261 -417 0
-262 -418 0
-263 -419 0
-264 -420 0
-261 -421 0
-262 -422 0
-263 -423 0
-264 -424 0
-261 -425 0
-262 -426 0
-263 -427 0
-264 -428 0
-261 -433 0
-262 -434 0
-263 -435 0
-264 -436 0
-261 -449 0
-262 -450 0
-263 -451 0
-264 -452 0
-261 -465 0
-262 -466 0
-263 -467 0
-264 -468 0
-261 -469 0
-262 -470 0
-263 -471 0
-264 -472 0
-261 -473 0
-262 -474 0
-263 -475 0
-264 -476 0
-261 -477 0
-262 -478 0
-263 -479 0
-264 -480 0
-261 -481 0
-262 -482 0
-263 -483 0
-264 -484 0
-261 -485 0
-262 -486 0
-263 -487 0
-264 -488 0
-261 -489 0
-262 -490 0
-263 -491 0
-264 -492 0
-261 -497 0
-262 -498 0
-263 -499 0
-264 -500 0
-261 -501 0
-262 -502 0
-263 -503 0
-264 -504 0
-261 -513 0
-262 -514 0
-263 -515 0
-264 -516 0
-261 -517 0
-262 -518 0
-263 -519 0
-264 -520 0
-261 -533 0
-262 -534 0
-263 -535 0
-264 -536 0
-261 -537 0
-262 -538 0
-263 -539 0
-264 -540 0
-261 -541 0
-262 -542 0
-263 -543 0
-264 -544 0
-261 -545 0
-262 -546 0
-263 -547 0
-264 -548 0
-261 -549 0
-262 -550 0
-263 -551 0
-264 -552 0
-261 -561 0
-262 -562 0
-263 -563 0
-264 -564 0
-261 -569 0
-262 -570 0
-263 -571 0
-264 -572 0
-261 -577 0
-262 -578 0
-263 -579 0
-264 -580 0
-261 -585 0
-262 -586 0
-263 -587 0
-264 -588 0
-261 -593 0
-262 -594 0
-263 -595 0
-264 -596 0
-265 -273 0
-266 -274 0
-267 -275 0
-268 -276 0
-265 -281 0
-266 -282 0
-267 -283 0
-268 -284 0
-265 -285 0
-266 -286 0
-267 -287 0
-268 -288 0
-265 -301 0
-266 -302 0
-267 -303 0
-268 -304 0
-265 -305 0
-266 -306 0
-267 -307 0
-268 -308 0
-265 -309 0
-266 -310 0
-267 -311 0
-268 -312 0
-265 -313 0
-266 -314 0
-267 -315 0
-268 -316 0
-265 -317 0
-266 -318 0
-267 -319 0
-268 -320 0
-265 -325 0
-266 -326 0
-267 -327 0
-268 -328 0
-265 -329 0
-266 -330 0
-267 -331 0
-268 -332 0
-265 -349 0
-266 -350 0
-267 -351 0
-268 -352 0
-265 -353 0
-266 -354 0
-267 -355 0
-268 -356 0
-265 -361 0
-266 -362 0
-267 -363 0
-268 -364 0
-265 -365 0
-266 -366 0
-267 -367 0
-268 -368 0
-265 -393 0
-266 -394 0
-267 -395 0
-268 -396 0
-265 -397 0
-266 -398 0
-267 -399 0
-268 -400 0
-265 -401 0
-266 -402 0
-267 -403 0
-268 -404 0
-265 -405 0
-266 -406 0
-267 -407 0
-268 -408 0
-265 -409 0
-266 -410 0
-267 -411 0
-268 -412 0
-265 -413 0
-266 -414 0
-267 -415 0
-268 -416 0
-265 -421 0
-266 -422 0
-267 -423 0
-268 -424 0
-265 -429 0
-266 -430 0
-267 -431 0
-268 -432 0
-265 -441 0
-266 -442 0
-267 -443 0
-268 -444 0
-265 -453 0
-266 -454 0
-267 -455 0
-268 -456 0
-265 -465 0
-266 -466 0
-267 -467 0
-268 -468 0
-265 -469 0
-266 -470 0
-267 -471 0
-268 -472 0
-265 -481 0
-266 -482 0
-267 -483 0
-268 -484 0
-265 -489 0
-266 -490 0
-267 -491 0
-268 -492 0
-265 -497 0
-266 -498 0
-267 -499 0
-268 -500 0
-265 -517 0
-266 -518 0
-267 -519 0
-268 -520 0
-265 -521 0
-266 -522 0
-267 -523 0
-268 -524 0
-265 -529 0
-266 -530 0
-267 -531 0
-268 -532 0
-265 -541 0
-266 -542 0
-267 -543 0
-268 -544 0
-265 -545 0
-266 -546 0
-267 -547 0
-268 -548 0
-265 -549 0
-266 -550 0
-267 -551 0
-268 -552 0
-265 -565 0
-266 -566 0
-267 -567 0
-268 -568 0
-265 -573 0
-266 -574 0
-267 -575 0
-268 -576 0
-265 -577 0
-266 -578 0
-267 -579 0
-268 -580 0
-265 -581 0
-266 -582 0
-267 -583 0
-268 -584 0
-269 -277 0
-270 -278 0
-271 -279 0
-272 -280 0
-269 -281 0
-270 -282 0
-271 -283 0
-272 -284 0
-269 -285 0
-270 -286 0
-271 -287 0
-272 -288 0
-269 -289 0
-270 -290 0
-271 -291 0
-272 -292 0
-269 -301 0
-270 -302 0
-271 -303 0
-272 -304 0
-269 -309 0
-270 -310 0
-271 -311 0
-272 -312 0
-269 -317 0
-270 -318 0
-271 -319 0
-272 -320 0
-269 -325 0
-270 -326 0
-271 -327 0
-272 -328 0
-269 -333 0
-270 -334 0
-271 -335 0
-272 -336 0
-269 -341 0
-270 -342 0
-271 -343 0
-272 -344 0
-269 -353 0
-270 -354 0
-271 -355 0
-272 -356 0
-269 -365 0
-270 -366 0
-271 -367 0
-272 -368 0
-269 -369 0
-270 -370 0
-271 -371 0
-272 -372 0
-269 -377 0
-270 -378 0
-271 -379 0
-272 -380 0
-269 -389 0
-270 -390 0
-271 -391 0
-272 -392 0
-269 -397 0
-270 -398 0
-271 -399 0
-272 -400 0
-269 -401 0
-270 -402 0
-271 -403 0
-272 -404 0
-269 -405 0
-270 -406 0
-271 -407 0
-272 -408 0
-269 -409 0
-270 -410 0
-271 -411 0
-272 -412 0
-269 -413 0
-270 -414 0
-271 -415 0
-272 -416 0
-269 -433 0
-270 -434 0
-271 -435 0
-272 -436 0
-269 -441 0
-270 -442 0
-271 -443 0
-272 -444 0
-269 -449 0
-270 -450 0
-271 -451 0
-272 -452 0
-269 -457 0
-270 -458 0
-271 -459 0
-272 -460 0
-269 -461 0
-270 -462 0
-271 -463 0
-272 -464 0
-269 -473 0
-270 -474 0
-271 -475 0
-272 -476 0
-269 -477 0
-270 -478 0
-271 -479 0
-272 -480 0
-269 -481 0
-270 -482 0
-271 -483 0
-272 -484 0
-269 -493 0
-270 -494 0
-271 -495 0
-272 -496 0
-269 -501 0
-270 -502 0
-271 -503 0
-272 -504 0
-269 -505 0
-270 -506 0
-271 -507 0
-272 -508 0
-269 -509 0
-270 -510 0
-271 -511 0
-272 -512 0
-269 -521 0
-270 -522 0
-271 -523 0
-272 -524 0
-269 -525 0
-270 -526 0
-271 -527 0
-272 -528 0
-269 -529 0
-270 -530 0
-271 -531 0
-272 -532 0
-269 -545 0
-270 -546 0
-271 -547 0
-272 -548 0
-269 -553 0
-270 -554 0
-271 -555 0
-272 -556 0
-269 -557 0
-270 -558 0
-271 -559 0
-272 -560 0
-269 -565 0
-270 -566 0
-271 -567 0
-272 -568 0
-269 -569 0
-270 -570 0
-271 -571 0
-272 -572 0
-269 -581 0
-270 -582 0
-271 -583 0
-272 -584 0
-269 -585 0
-270 -586 0
-271 -587 0
-272 -588 0
-269 -589 0
-270 -590 0
-271 -591 0
-272 -592 0
-273 -277 0
-274 -278 0
-275 -279 0
-276 -280 0
-273 -281 0
-274 -282 0
-275 -283 0
-276 -284 0
-273 -297 0
-274 -298 0
-275 -299 0
-276 -300 0
-273 -301 0
-274 -302 0
-275 -303 0
-276 -304 0
-273 -305 0
-274 -306 0
-275 -307 0
-276 -308 0
-273 -309 0
-274 -310 0
-275 -311 0
-276 -312 0
-273 -313 0
-274 -314 0
-275 -315 0
-276 -316 0
-273 -325 0
-274 -326 0
-275 -327 0
-276 -328 0
-273 -333 0
-274 -334 0
-275 -335 0
-276 -336 0
-273 -337 0
-274 -338 0
-275 -339 0
-276 -340 0
-273 -349 0
-274 -350 0
-275 -351 0
-276 -352 0
-273 -353 0
-274 -354 0
-275 -355 0
-276 -356 0
-273 -361 0
-274 -362 0
-275 -363 0
-276 -364 0
-273 -365 0
-274 -366 0
-275 -367 0
-276 -368 0
-273 -369 0
-274 -370 0
-275 -371 0
-276 -372 0
-273 -377 0
-274 -378 0
-275 -379 0
-276 -380 0
-273 -381 0
-274 -382 0
-275 -383 0
-276 -384 0
-273 -385 0
-274 -386 0
-275 -387 0
-276 -388 0
-273 -389 0
-274 -390 0
-275 -391 0
-276 -392 0
-273 -397 0
-274 -398 0
-275 -399 0
-276 -400 0
-273 -401 0
-274 -402 0
-275 -403 0
-276 -404 0
-273 -405 0
-274 -406 0
-275 -407 0
-276 -408 0
-273 -413 0
-274 -414 0
-275 -415 0
-276 -416 0
-273 -425 0
-274 -426 0
-275 -427 0
-276 -428 0
-273 -429 0
-274 -430 0
-275 -431 0
-276 -432 0
-273 -433 0
-274 -434 0
-275 -435 0
-276 -436 0
-273 -449 0
-274 -450 0
-275 -451 0
-276 -452 0
-273 -453 0
-274 -454 0
-275 -455 0
-276 -456 0
-273 -473 0
-274 -474 0
-275 -475 0
-276 -476 0
-273 -477 0
-274 -478 0
-275 -479 0
-276 -480 0
-273 -481 0
-274 -482 0
-275 -483 0
-276 -484 0
-273 -485 0
-274 -486 0
-275 -487 0
-276 -488 0
-273 -489 0
-274 -490 0
-275 -491 0
-276 -492 0
-273 -493 0
-274 -494 0
-275 -495 0
-276 -496 0
-273 -497 0
-274 -498 0
-275 -499 0
-276 -500 0
-273 -501 0
-274 -502 0
-275 -503 0
-276 -504 0
-273 -509 0
-274 -510 0
-275 -511 0
-276 -512 0
-273 -521 0
-274 -522 0
-275 -523 0
-276 -524 0
-273 -529 0
-274 -530 0
-275 -531 0
-276 -532 0
-273 -545 0
-274 -546 0
-275 -547 0
-276 -548 0
-273 -553 0
-274 -554 0
-275 -555 0
-276 -556 0
-273 -565 0
-274 -566 0
-275 -567 0
-276 -568 0
-273 -569 0
-274 -570 0
-275 -571 0
-276 -572 0
-273 -581 0
-274 -582 0
-275 -583 0
-276 -584 0
-273 -589 0
-274 -590 0
-275 -591 0
-276 -592 0
-273 -597 0
-274 -598 0
-275 -599 0
-276 -600 0
-277 -281 0
-278 -282 0
-279 -283 0
-280 -284 0
-277 -285 0
-278 -286 0
-279 -287 0
-280 -288 0
-277 -289 0
-278 -290 0
-279 -291 0
-280 -292 0
-277 -301 0
-278 -302 0
-279 -303 0
-280 -304 0
-277 -305 0
-278 -306 0
-279 -307 0
-280 -308 0
-277 -329 0
-278 -330 0
-279 -331 0
-280 -332 0
-277 -333 0
-278 -334 0
-279 -335 0
-280 -336 0
-277 -341 0
-278 -342 0
-279 -343 0
-280 -344 0
-277 -353 0
-278 -354 0
-279 -355 0
-280 -356 0
-277 -357 0
-278 -358 0
-279 -359 0
-280 -360 0
-277 -361 0
-278 -362 0
-279 -363 0
-280 -364 0
-277 -369 0
-278 -370 0
-279 -371 0
-280 -372 0
-277 -373 0
-278 -374 0
-279 -375 0
-280 -376 0
-277 -377 0
-278 -378 0
-279 -379 0
-280 -380 0
-277 -381 0
-278 -382 0
-279 -383 0
-280 -384 0
-277 -393 0
-278 -394 0
-279 -395 0
-280 -396 0
-277 -405 0
-278 -406 0
-279 -407 0
-280 -408 0
-277 -409 0
-278 -410 0
-279 -411 0
-280 -412 0
-277 -425 0
-278 -426 0
-279 -427 0
-280 -428 0
-277 -437 0
-278 -438 0
-279 -439 0
-280 -440 0
-277 -457 0
-278 -458 0
-279 -459 0
-280 -460 0
-277 -461 0
-278 -462 0
-279 -463 0
-280 -464 0
-277 -465 0
-278 -466 0
-279 -467 0
-280 -468 0
-277 -469 0
-278 -470 0
-279 -471 0
-280 -472 0
-277 -473 0
-278 -474 0
-279 -475 0
-280 -476 0
-277 -477 0
-278 -478 0
-279 -479 0
-280 -480 0
-277 -501 0
-278 -502 0
-279 -503 0
-280 -504 0
-277 -513 0
-278 -514 0
-279 -515 0
-280 -516 0
-277 -529 0
-278 -530 0
-279 -531 0
-280 -532 0
-277 -549 0
-278 -550 0
-279 -551 0
-280 -552 0
-277 -553 0
-278 -554 0
-279 -555 0
-280 -556 0
-277 -561 0
-278 -562 0
-279 -563 0
-280 -564 0
-277 -565 0
-278 -566 0
-279 -567 0
-280 -568 0
-277 -569 0
-278 -570 0
-279 -571 0
-280 -572 0
-277 -573 0
-278 -574 0
-279 -575 0
-280 -576 0
-277 -581 0
-278 -582 0
-279 -583 0
-280 -584 0
-277 -585 0
-278 -586 0
-279 -587 0
-280 -588 0
-277 -589 0
-278 -590 0
-279 -591 0
-280 -592 0
-277 -593 0
-278 -594 0
-279 -595 0
-280 -596 0
-277 -597 0
-278 -598 0
-279 -599 0
-280 -600 0
-281 -289 0
-282 -290 0
-283 -291 0
-284 -292 0
-281 -293 0
-282 -294 0
-283 -295 0
-284 -296 0
-281 -297 0
-282 -298 0
-283 -299 0
-284 -300 0
-281 -313 0
-282 -314 0
-283 -315 0
-284 -316 0
-281 -317 0
-282 -318 0
-283 -319 0
-284 -320 0
-281 -321 0
-282 -322 0
-283 -323 0
-284 -324 0
-281 -325 0
-282 -326 0
-283 -327 0
-284 -328 0
-281 -329 0
-282 -330 0
-283 -331 0
-284 -332 0
-281 -333 0
-282 -334 0
-283 -335 0
-284 -336 0
-281 -345 0
-282 -346 0
-283 -347 0
-284 -348 0
-281 -349 0
-282 -350 0
-283 -351 0
-284 -352 0
-281 -365 0
-282 -366 0
-283 -367 0
-284 -368 0
-281 -369 0
-282 -370 0
-283 -371 0
-284 -372 0
-281 -373 0
-282 -374 0
-283 -375 0
-284 -376 0
-281 -389 0
-282 -390 0
-283 -391 0
-284 -392 0
-281 -393 0
-282 -394 0
-283 -395 0
-284 -396 0
-281 -397 0
-282 -398 0
-283 -399 0
-284 -400 0
-281 -413 0
-282 -414 0
-283 -415 0
-284 -416 0
-281 -417 0
-282 -418 0
-283 -419 0
-284 -420 0
-281 -421 0
-282 -422 0
-283 -423 0
-284 -424 0
-281 -425 0
-282 -426 0
-283 -427 0
-284 -428 0
-281 -433 0
-282 -434 0
-283 -435 0
-284 -436 0
-281 -437 0
-282 -438 0
-283 -439 0
-284 -440 0
-281 -449 0
-282 -450 0
-283 -451 0
-284 -452 0
-281 -457 0
-282 -458 0
-283 -459 0
-284 -460 0
-281 -461 0
-282 -462 0
-283 -463 0
-284 -464 0
-281 -465 0
-282 -466 0
-283 -467 0
-284 -468 0
-281 -469 0
-282 -470 0
-283 -471 0
-284 -472 0
-281 -473 0
-282 -474 0
-283 -475 0
-284 -476 0
-281 -477 0
-282 -478 0
-283 -479 0
-284 -480 0
-281 -481 0
-282 -482 0
-283 -483 0
-284 -484 0
-281 -489 0
-282 -490 0
-283 -491 0
-284 -492 0
-281 -493 0
-282 -494 0
-283 -495 0
-284 -496 0
-281 -501 0
-282 -502 0
-283 -503 0
-284 -504 0
-281 -537 0
-282 -538 0
-283 -539 0
-284 -540 0
-281 -545 0
-282 -546 0
-283 -547 0
-284 -548 0
-281 -549 0
-282 -550 0
-283 -551 0
-284 -552 0
-281 -553 0
-282 -554 0
-283 -555 0
-284 -556 0
-281 -557 0
-282 -558 0
-283 -559 0
-284 -560 0
-281 -561 0
-282 -562 0
-283 -563 0
-284 -564 0
-281 -577 0
-282 -578 0
-283 -579 0
-284 -580 0
-281 -585 0
-282 -586 0
-283 -587 0
-284 -588 0
-285 -289 0
-286 -290 0
-287 -291 0
-288 -292 0
-285 -293 0
-286 -294 0
-287 -295 0
-288 -296 0
-285 -297 0
-286 -298 0
-287 -299 0
-288 -300 0
-285 -313 0
-286 -314 0
-287 -315 0
-288 -316 0
-285 -317 0
-286 -318 0
-287 -319 0
-288 -320 0
-285 -321 0
-286 -322 0
-287 -323 0
-288 -324 0
-285 -333 0
-286 -334 0
-287 -335 0
-288 -336 0
-285 -345 0
-286 -346 0
-287 -347 0
-288 -348 0
-285 -349 0
-286 -350 0
-287 -351 0
-288 -352 0
-285 -357 0
-286 -358 0
-287 -359 0
-288 -360 0
-285 -365 0
-286 -366 0
-287 -367 0
-288 -368 0
-285 -369 0
-286 -370 0
-287 -371 0
-288 -372 0
-285 -393 0
-286 -394 0
-287 -395 0
-288 -396 0
-285 -397 0
-286 -398 0
-287 -399 0
-288 -400 0
-285 -417 0
-286 -418 0
-287 -419 0
-288 -420 0
-285 -421 0
-286 -422 0
-287 -423 0
-288 -424 0
-285 -433 0
-286 -434 0
-287 -435 0
-288 -436 0
-285 -437 0
-286 -438 0
-287 -439 0
-288 -440 0
-285 -441 0
-286 -442 0
-287 -443 0
-288 -444 0
-285 -449 0
-286 -450 0
-287 -451 0
-288 -452 0
-285 -461 0
-286 -462 0
-287 -463 0
-288 -464 0
-285 -465 0
-286 -466 0
-287 -467 0
-288 -468 0
-285 -469 0
-286 -470 0
-287 -471 0
-288 -472 0
-285 -477 0
-286 -478 0
-287 -479 0
-288 -480 0
-285 -481 0
-286 -482 0
-287 -483 0
-288 -484 0
-285 -485 0
-286 -486 0
-287 -487 0
-288 -488 0
-285 -489 0
-286 -490 0
-287 -491 0
-288 -492 0
-285 -493 0
-286 -494 0
-287 -495 0
-288 -496 0
-285 -497 0
-286 -498 0
-287 -499 0
-288 -500 0
-285 -501 0
-286 -502 0
-287 -503 0
-288 -504 0
-285 -509 0
-286 -510 0
-287 -511 0
-288 -512 0
-285 -513 0
-286 -514 0
-287 -515 0
-288 -516 0
-285 -517 0
-286 -518 0
-287 -519 0
-288 -520 0
-285 -521 0
-286 -522 0
-287 -523 0
-288 -524 0
-285 -533 0
-286 -534 0
-287 -535 0
-288 -536 0
-285 -537 0
-286 -538 0
-287 -539 0
-288 -540 0
-285 -541 0
-286 -542 0
-287 -543 0
-288 -544 0
-285 -545 0
-286 -546 0
-287 -547 0
-288 -548 0
-285 -549 0
-286 -550 0
-287 -551 0
-288 -552 0
-285 -553 0
-286 -554 0
-287 -555 0
-288 -556 0
-285 -557 0
-286 -558 0
-287 -559 0
-288 -560 0
-285 -561 0
-286 -562 0
-287 -563 0
-288 -564 0
-285 -569 0
-286 -570 0
-287 -571 0
-288 -572 0
-285 -573 0
-286 -574 0
-287 -575 0
-288 -576 0
-285 -577 0
-286 -578 0
-287 -579 0
-288 -580 0
-285 -585 0
-286 -586 0
-287 -587 0
-288 -588 0
-285 -593 0
-286 -594 0
-287 -595 0
-288 -596 0
-289 -293 0
-290 -294 0
-291 -295 0
-292 -296 0
-289 -297 0
-290 -298 0
-291 -299 0
-292 -300 0
-289 -305 0
-290 -306 0
-291 -307 0
-292 -308 0
-289 -309 0
-290 -310 0
-291 -311 0
-292 -312 0
-289 -317 0
-290 -318 0
-291 -319 0
-292 -320 0
-289 -321 0
-290 -322 0
-291 -323 0
-292 -324 0
-289 -325 0
-290 -326 0
-291 -327 0
-292 -328 0
-289 -353 0
-290 -354 0
-291 -355 0
-292 -356 0
-289 -357 0
-290 -358 0
-291 -359 0
-292 -360 0
-289 -361 0
-290 -362 0
-291 -363 0
-292 -364 0
-289 -373 0
-290 -374 0
-291 -375 0
-292 -376 0
-289 -377 0
-290 -378 0
-291 -379 0
-292 -380 0
-289 -381 0
-290 -382 0
-291 -383 0
-292 -384 0
-289 -385 0
-290 -386 0
-291 -387 0
-292 -388 0
-289 -389 0
-290 -390 0
-291 -391 0
-292 -392 0
-289 -393 0
-290 -394 0
-291 -395 0
-292 -396 0
-289 -397 0
-290 -398 0
-291 -399 0
-292 -400 0
-289 -401 0
-290 -402 0
-291 -403 0
-292 -404 0
-289 -405 0
-290 -406 0
-291 -407 0
-292 -408 0
-289 -409 0
-290 -410 0
-291 -411 0
-292 -412 0
-289 -413 0
-290 -414 0
-291 -415 0
-292 -416 0
-289 -417 0
-290 -418 0
-291 -419 0
-292 -420 0
-289 -421 0
-290 -422 0
-291 -423 0
-292 -424 0
-289 -429 0
-290 -430 0
-291 -431 0
-292 -432 0
-289 -433 0
-290 -434 0
-291 -435 0
-292 -436 0
-289 -437 0
-290 -438 0
-291 -439 0
-292 -440 0
-289 -441 0
-290 -442 0
-291 -443 0
-292 -444 0
-289 -445 0
-290 -446 0
-291 -447 0
-292 -448 0
-289 -453 0
-290 -454 0
-291 -455 0
-292 -456 0
-289 -469 0
-290 -470 0
-291 -471 0
-292 -472 0
-289 -481 0
-290 -482 0
-291 -483 0
-292 -484 0
-289 -489 0
-290 -490 0
-291 -491 0
-292 -492 0
-289 -497 0
-290 -498 0
-291 -499 0
-292 -500 0
-289 -505 0
-290 -506 0
-291 -507 0
-292 -508 0
-289 -517 0
-290 -518 0
-291 -519 0
-292 -520 0
-289 -521 0
-290 -522 0
-291 -523 0
-292 -524 0
-289 -525 0
-290 -526 0
-291 -527 0
-292 -528 0
-289 -541 0
-290 -542 0
-291 -543 0
-292 -544 0
-289 -565 0
-290 -566 0
-291 -567 0
-292 -568 0
-289 -573 0
-290 -574 0
-291 -575 0
-292 -576 0
-289 -581 0
-290 -582 0
-291 -583 0
-292 -584 0
-289 -589 0
-290 -590 0
-291 -591 0
-292 -592 0
-293 -301 0
-294 -302 0
-295 -303 0
-296 -304 0
-293 -309 0
-294 -310 0
-295 -311 0
-296 -312 0
-293 -313 0
-294 -314 0
-295 -315 0
-296 -316 0
-293 -317 0
-294 -318 0
-295 -319 0
-296 -320 0
-293 -325 0
-294 -326 0
-295 -327 0
-296 -328 0
-293 -333 0
-294 -334 0
-295 -335 0
-296 -336 0
-293 -337 0
-294 -338 0
-295 -339 0
-296 -340 0
-293 -341 0
-294 -342 0
-295 -343 0
-296 -344 0
-293 -353 0
-294 -354 0
-295 -355 0
-296 -356 0
-293 -361 0
-294 -362 0
-295 -363 0
-296 -364 0
-293 -369 0
-294 -370 0
-295 -371 0
-296 -372 0
-293 -377 0
-294 -378 0
-295 -379 0
-296 -380 0
-293 -381 0
-294 -382 0
-295 -383 0
-296 -384 0
-293 -385 0
-294 -386 0
-295 -387 0
-296 -388 0
-293 -397 0
-294 -398 0
-295 -399 0
-296 -400 0
-293 -401 0
-294 -402 0
-295 -403 0
-296 -404 0
-293 -405 0
-294 -406 0
-295 -407 0
-296 -408 0
-293 -413 0
-294 -414 0
-295 -415 0
-296 -416 0
-293 -425 0
-294 -426 0
-295 -427 0
-296 -428 0
-293 -429 0
-294 -430 0
-295 -431 0
-296 -432 0
-293 -433 0
-294 -434 0
-295 -435 0
-296 -436 0
-293 -441 0
-294 -442 0
-295 -443 0
-296 -444 0
-293 -453 0
-294 -454 0
-295 -455 0
-296 -456 0
-293 -457 0
-294 -458 0
-295 -459 0
-296 -460 0
-293 -461 0
-294 -462 0
-295 -463 0
-296 -464 0
-293 -477 0
-294 -478 0
-295 -479 0
-296 -480 0
-293 -481 0
-294 -482 0
-295 -483 0
-296 -484 0
-293 -489 0
-294 -490 0
-295 -491 0
-296 -492 0
-293 -493 0
-294 -494 0
-295 -495 0
-296 -496 0
-293 -497 0
-294 -498 0
-295 -499 0
-296 -500 0
-293 -501 0
-294 -502 0
-295 -503 0
-296 -504 0
-293 -505 0
-294 -506 0
-295 -507 0
-296 -508 0
-293 -509 0
-294 -510 0
-295 -511 0
-296 -512 0
-293 -525 0
-294 -526 0
-295 -527 0
-296 -528 0
-293 -533 0
-294 -534 0
-295 -535 0
-296 -536 0
-293 -537 0
-294 -538 0
-295 -539 0
-296 -540 0
-293 -545 0
-294 -546 0
-295 -547 0
-296 -548 0
-293 -553 0
-294 -554 0
-295 -555 0
-296 -556 0
-293 -557 0
-294 -558 0
-295 -559 0
-296 -560 0
-293 -561 0
-294 -562 0
-295 -563 0
-296 -564 0
-293 -565 0
-294 -566 0
-295 -567 0
-296 -568 0
-293 -569 0
-294 -570 0
-295 -571 0
-296 -572 0
-293 -581 0
-294 -582 0
-295 -583 0
-296 -584 0
-293 -585 0
-294 -586 0
-295 -587 0
-296 -588 0
-293 -589 0
-294 -590 0
-295 -591 0
-296 -592 0
-293 -597 0
-294 -598 0
-295 -599 0
-296 -600 0
-297 -301 0
-298 -302 0
-299 -303 0
-300 -304 0
-297 -305 0
-298 -306 0
-299 -307 0
-300 -308 0
-297 -321 0
-298 -322 0
-299 -323 0
-300 -324 0
-297 -329 0
-298 -330 0
-299 -331 0
-300 -332 0
-297 -333 0
-298 -334 0
-299 -335 0
-300 -336 0
-297 -341 0
-298 -342 0
-299 -343 0
-300 -344 0
-297 -353 0
-298 -354 0
-299 -355 0
-300 -356 0
-297 -357 0
-298 -358 0
-299 -359 0
-300 -360 0
-297 -369 0
-298 -370 0
-299 -371 0
-300 -372 0
-297 -373 0
-298 -374 0
-299 -375 0
-300 -376 0
-297 -381 0
-298 -382 0
-299 -383 0
-300 -384 0
-297 -409 0
-298 -410 0
-299 -411 0
-300 -412 0
-297 -417 0
-298 -418 0
-299 -419 0
-300 -420 0
-297 -421 0
-298 -422 0
-299 -423 0
-300 -424 0
-297 -449 0
-298 -450 0
-299 -451 0
-300 -452 0
-297 -457 0
-298 -458 0
-299 -459 0
-300 -460 0
-297 -465 0
-298 -466 0
-299 -467 0
-300 -468 0
-297 -469 0
-298 -470 0
-299 -471 0
-300 -472 0
-297 -477 0
-298 -478 0
-299 -479 0
-300 -480 0
-297 -485 0
-298 -486 0
-299 -487 0
-300 -488 0
-297 -501 0
-298 -502 0
-299 -503 0
-300 -504 0
-297 -513 0
-298 -514 0
-299 -515 0
-300 -516 0
-297 -517 0
-298 -518 0
-299 -519 0
-300 -520 0
-297 -525 0
-298 -526 0
-299 -527 0
-300 -528 0
-297 -529 0
-298 -530 0
-299 -531 0
-300 -532 0
-297 -533 0
-298 -534 0
-299 -535 0
-300 -536 0
-297 -537 0
-298 -538 0
-299 -539 0
-300 -540 0
-297 -541 0
-298 -542 0
-299 -543 0
-300 -544 0
-297 -549 0
-298 -550 0
-299 -551 0
-300 -552 0
-297 -557 0
-298 -558 0
-299 -559 0
-300 -560 0
-297 -561 0
-298 -562 0
-299 -563 0
-300 -564 0
-297 -565 0
-298 -566 0
-299 -567 0
-300 -568 0
-297 -569 0
-298 -570 0
-299 -571 0
-300 -572 0
-297 -573 0
-298 -574 0
-299 -575 0
-300 -576 0
-297 -577 0
-298 -578 0
-299 -579 0
-300 -580 0
-297 -581 0
-298 -582 0
-299 -583 0
-300 -584 0
-297 -585 0
-298 -586 0
-299 -587 0
-300 -588 0
-297 -589 0
-298 -590 0
-299 -591 0
-300 -592 0
-301 -309 0
-302 -310 0
-303 -311 0
-304 -312 0
-301 -317 0
-302 -318 0
-303 -319 0
-304 -320 0
-301 -321 0
-302 -322 0
-303 -323 0
-304 -324 0
-301 -325 0
-302 -326 0
-303 -327 0
-304 -328 0
-301 -329 0
-302 -330 0
-303 -331 0
-304 -332 0
-301 -333 0
-302 -334 0
-303 -335 0
-304 -336 0
-301 -341 0
-302 -342 0
-303 -343 0
-304 -344 0
-301 -345 0
-302 -346 0
-303 -347 0
-304 -348 0
-301 -357 0
-302 -358 0
-303 -359 0
-304 -360 0
-301 -365 0
-302 -366 0
-303 -367 0
-304 -368 0
-301 -369 0
-302 -370 0
-303 -371 0
-304 -372 0
-301 -389 0
-302 -390 0
-303 -391 0
-304 -392 0
-301 -393 0
-302 -394 0
-303 -395 0
-304 -396 0
-301 -397 0
-302 -398 0
-303 -399 0
-304 -400 0
-301 -401 0
-302 -402 0
-303 -403 0
-304 -404 0
-301 -413 0
-302 -414 0
-303 -415 0
-304 -416 0
-301 -417 0
-302 -418 0
-303 -419 0
-304 -420 0
-301 -421 0
-302 -422 0
-303 -423 0
-304 -424 0
-301 -425 0
-302 -426 0
-303 -427 0
-304 -428 0
-301 -433 0
-302 -434 0
-303 -435 0
-304 -436 0
-301 -437 0
-302 -438 0
-303 -439 0
-304 -440 0
-301 -441 0
-302 -442 0
-303 -443 0
-304 -444 0
-301 -461 0
-302 -462 0
-303 -463 0
-304 -464 0
-301 -465 0
-302 -466 0
-303 -467 0
-304 -468 0
-301 -469 0
-302 -470 0
-303 -471 0
-304 -472 0
-301 -473 0
-302 -474 0
-303 -475 0
-304 -476 0
-301 -481 0
-302 -482 0
-303 -483 0
-304 -484 0
-301 -485 0
-302 -486 0
-303 -487 0
-304 -488 0
-301 -489 0
-302 -490 0
-303 -491 0
-304 -492 0
-301 -497 0
-302 -498 0
-303 -499 0
-304 -500 0
-301 -509 0
-302 -510 0
-303 -511 0
-304 -512 0
-301 -513 0
-302 -514 0
-303 -515 0
-304 -516 0
-301 -517 0
-302 -518 0
-303 -519 0
-304 -520 0
-301 -533 0
-302 -534 0
-303 -535 0
-304 -536 0
-301 -537 0
-302 -538 0
-303 -539 0
-304 -540 0
-301 -541 0
-302 -542 0
-303 -543 0
-304 -544 0
-301 -549 0
-302 -550 0
-303 -551 0
-304 -552 0
-301 -553 0
-302 -554 0
-303 -555 0
-304 -556 0
-301 -557 0
-302 -558 0
-303 -559 0
-304 -560 0
-301 -569 0
-302 -570 0
-303 -571 0
-304 -572 0
-301 -573 0
-302 -574 0
-303 -575 0
-304 -576 0
-301 -577 0
-302 -578 0
-303 -579 0
-304 -580 0
-301 -593 0
-302 -594 0
-303 -595 0
-304 -596 0
-305 -309 0
-306 -310 0
-307 -311 0
-308 -312 0
-305 -313 0
-306 -314 0
-307 -315 0
-308 -316 0
-305 -317 0
-306 -318 0
-307 -319 0
-308 -320 0
-305 -321 0
-306 -322 0
-307 -323 0
-308 -324 0
-305 -341 0
-306 -342 0
-307 -343 0
-308 -344 0
-305 -345 0
-306 -346 0
-307 -347 0
-308 -348 0
-305 -349 0
-306 -350 0
-307 -351 0
-308 -352 0
-305 -357 0
-306 -358 0
-307 -359 0
-308 -360 0
-305 -365 0
-306 -366 0
-307 -367 0
-308 -368 0
-305 -389 0
-306 -390 0
-307 -391 0
-308 -392 0
-305 -393 0
-306 -394 0
-307 -395 0
-308 -396 0
-305 -397 0
-306 -398 0
-307 -399 0
-308 -400 0
-305 -413 0
-306 -414 0
-307 -415 0
-308 -416 0
-305 -417 0
-306 -418 0
-307 -419 0
-308 -420 0
-305 -421 0
-306 -422 0
-307 -423 0
-308 -424 0
-305 -425 0
-306 -426 0
-307 -427 0
-308 -428 0
-305 -437 0
-306 -438 0
-307 -439 0
-308 -440 0
-305 -441 0
-306 -442 0
-307 -443 0
-308 -444 0
-305 -449 0
-306 -450 0
-307 -451 0
-308 -452 0
-305 -461 0
-306 -462 0
-307 -463 0
-308 -464 0
-305 -465 0
-306 -466 0
-307 -467 0
-308 -468 0
-305 -469 0
-306 -470 0
-307 -471 0
-308 -472 0
-305 -473 0
-306 -474 0
-307 -475 0
-308 -476 0
-305 -477 0
-306 -478 0
-307 -479 0
-308 -480 0
-305 -485 0
-306 -486 0
-307 -487 0
-308 -488 0
-305 -489 0
-306 -490 0
-307 -491 0
-308 -492 0
-305 -493 0
-306 -494 0
-307 -495 0
-308 -496 0
-305 -501 0
-306 -502 0
-307 -503 0
-308 -504 0
-305 -509 0
-306 -510 0
-307 -511 0
-308 -512 0
-305 -517 0
-306 -518 0
-307 -519 0
-308 -520 0
-305 -537 0
-306 -538 0
-307 -539 0
-308 -540 0
-305 -545 0
-306 -546 0
-307 -547 0
-308 -548 0
-305 -549 0
-306 -550 0
-307 -551 0
-308 -552 0
-305 -561 0
-306 -562 0
-307 -563 0
-308 -564 0
-305 -569 0
-306 -570 0
-307 -571 0
-308 -572 0
-305 -585 0
-306 -586 0
-307 -587 0
-308 -588 0
-309 -329 0
-310 -330 0
-311 -331 0
-312 -332 0
-309 -333 0
-310 -334 0
-311 -335 0
-312 -336 0
-309 -337 0
-310 -338 0
-311 -339 0
-312 -340 0
-309 -341 0
-310 -342 0
-311 -343 0
-312 -344 0
-309 -345 0
-310 -346 0
-311 -347 0
-312 -348 0
-309 -369 0
-310 -370 0
-311 -371 0
-312 -372 0
-309 -377 0
-310 -378 0
-311 -379 0
-312 -380 0
-309 -381 0
-310 -382 0
-311 -383 0
-312 -384 0
-309 -385 0
-310 -386 0
-311 -387 0
-312 -388 0
-309 -393 0
-310 -394 0
-311 -395 0
-312 -396 0
-309 -405 0
-310 -406 0
-311 -407 0
-312 -408 0
-309 -409 0
-310 -410 0
-311 -411 0
-312 -412 0
-309 -417 0
-310 -418 0
-311 -419 0
-312 -420 0
-309 -421 0
-310 -422 0
-311 -423 0
-312 -424 0
-309 -437 0
-310 -438 0
-311 -439 0
-312 -440 0
-309 -445 0
-310 -446 0
-311 -447 0
-312 -448 0
-309 -449 0
-310 -450 0
-311 -451 0
-312 -452 0
-309 -457 0
-310 -458 0
-311 -459 0
-312 -460 0
-309 -461 0
-310 -462 0
-311 -463 0
-312 -464 0
-309 -465 0
-310 -466 0
-311 -467 0
-312 -468 0
-309 -469 0
-310 -470 0
-311 -471 0
-312 -472 0
-309 -473 0
-310 -474 0
-311 -475 0
-312 -476 0
-309 -493 0
-310 -494 0
-311 -495 0
-312 -496 0
-309 -505 0
-310 -506 0
-311 -507 0
-312 -508 0
-309 -509 0
-310 -510 0
-311 -511 0
-312 -512 0
-309 -517 0
-310 -518 0
-311 -519 0
-312 -520 0
-309 -529 0
-310 -530 0
-311 -531 0
-312 -532 0
-309 -533 0
-310 -534 0
-311 -535 0
-312 -536 0
-309 -537 0
-310 -538 0
-311 -539 0
-312 -540 0
-309 -541 0
-310 -542 0
-311 -543 0
-312 -544 0
-309 -549 0
-310 -550 0
-311 -551 0
-312 -552 0
-309 -553 0
-310 -554 0
-311 -555 0
-312 -556 0
-309 -557 0
-310 -558 0
-311 -559 0
-312 -560 0
-309 -561 0
-310 -562 0
-311 -563 0
-312 -564 0
-309 -565 0
-310 -566 0
-311 -567 0
-312 -568 0
-309 -569 0
-310 -570 0
-311 -571 0
-312 -572 0
-309 -573 0
-310 -574 0
-311 -575 0
-312 -576 0
-309 -581 0
-310 -582 0
-311 -583 0
-312 -584 0
-309 -585 0
-310 -586 0
-311 -587 0
-312 -588 0
-309 -589 0
-310 -590 0
-311 -591 0
-312 -592 0
-309 -593 0
-310 -594 0
-311 -595 0
-312 -596 0
-309 -597 0
-310 -598 0
-311 -599 0
-312 -600 0
-313 -321 0
-314 -322 0
-315 -323 0
-316 -324 0
-313 -333 0
-314 -334 0
-315 -335 0
-316 -336 0
-313 -337 0
-314 -338 0
-315 -339 0
-316 -340 0
-313 -341 0
-314 -342 0
-315 -343 0
-316 -344 0
-313 -353 0
-314 -354 0
-315 -355 0
-316 -356 0
-313 -361 0
-314 -362 0
-315 -363 0
-316 -364 0
-313 -369 0
-314 -370 0
-315 -371 0
-316 -372 0
-313 -373 0
-314 -374 0
-315 -375 0
-316 -376 0
-313 -393 0
-314 -394 0
-315 -395 0
-316 -396 0
-313 -405 0
-314 -406 0
-315 -407 0
-316 -408 0
-313 -409 0
-314 -410 0
-315 -411 0
-316 -412 0
-313 -417 0
-314 -418 0
-315 -419 0
-316 -420 0
-313 -421 0
-314 -422 0
-315 -423 0
-316 -424 0
-313 -425 0
-314 -426 0
-315 -427 0
-316 -428 0
-313 -429 0
-314 -430 0
-315 -431 0
-316 -432 0
-313 -437 0
-314 -438 0
-315 -439 0
-316 -440 0
-313 -449 0
-314 -450 0
-315 -451 0
-316 -452 0
-313 -453 0
-314 -454 0
-315 -455 0
-316 -456 0
-313 -461 0
-314 -462 0
-315 -463 0
-316 -464 0
-313 -465 0
-314 -466 0
-315 -467 0
-316 -468 0
-313 -469 0
-314 -470 0
-315 -471 0
-316 -472 0
-313 -473 0
-314 -474 0
-315 -475 0
-316 -476 0
-313 -477 0
-314 -478 0
-315 -479 0
-316 -480 0
-313 -485 0
-314 -486 0
-315 -487 0
-316 -488 0
-313 -493 0
-314 -494 0
-315 -495 0
-316 -496 0
-313 -501 0
-314 -502 0
-315 -503 0
-316 -504 0
-313 -505 0
-314 -506 0
-315 -507 0
-316 -508 0
-313 -513 0
-314 -514 0
-315 -515 0
-316 -516 0
-313 -517 0
-314 -518 0
-315 -519 0
-316 -520 0
-313 -525 0
-314 -526 0
-315 -527 0
-316 -528 0
-313 -529 0
-314 -530 0
-315 -531 0
-316 -532 0
-313 -533 0
-314 -534 0
-315 -535 0
-316 -536 0
-313 -537 0
-314 -538 0
-315 -539 0
-316 -540 0
-313 -541 0
-314 -542 0
-315 -543 0
-316 -544 0
-313 -557 0
-314 -558 0
-315 -559 0
-316 -560 0
-313 -565 0
-314 -566 0
-315 -567 0
-316 -568 0
-313 -569 0
-314 -570 0
-315 -571 0
-316 -572 0
-313 -573 0
-314 -574 0
-315 -575 0
-316 -576 0
-313 -577 0
-314 -578 0
-315 -579 0
-316 -580 0
-313 -581 0
-314 -582 0
-315 -583 0
-316 -584 0
-313 -585 0
-314 -586 0
-315 -587 0
-316 -588 0
-313 -589 0
-314 -590 0
-315 -591 0
-316 -592 0
-313 -593 0
-314 -594 0
-315 -595 0
-316 -596 0
-317 -321 0
-318 -322 0
-319 -323 0
-320 -324 0
-317 -329 0
-318 -330 0
-319 -331 0
-320 -332 0
-317 -333 0
-318 -334 0
-319 -335 0
-320 -336 0
-317 -337 0
-318 -338 0
-319 -339 0
-320 -340 0
-317 -341 0
-318 -342 0
-319 -343 0
-320 -344 0
-317 -345 0
-318 -346 0
-319 -347 0
-320 -348 0
-317 -353 0
-318 -354 0
-319 -355 0
-320 -356 0
-317 -361 0
-318 -362 0
-319 -363 0
-320 -364 0
-317 -369 0
-318 -370 0
-319 -371 0
-320 -372 0
-317 -373 0
-318 -374 0
-319 -375 0
-320 -376 0
-317 -381 0
-318 -382 0
-319 -383 0
-320 -384 0
-317 -393 0
-318 -394 0
-319 -395 0
-320 -396 0
-317 -409 0
-318 -410 0
-319 -411 0
-320 -412 0
-317 -421 0
-318 -422 0
-319 -423 0
-320 -424 0
-317 -429 0
-318 -430 0
-319 -431 0
-320 -432 0
-317 -437 0
-318 -438 0
-319 -439 0
-320 -440 0
-317 -457 0
-318 -458 0
-319 -459 0
-320 -460 0
-317 -461 0
-318 -462 0
-319 -463 0
-320 -464 0
-317 -465 0
-318 -466 0
-319 -467 0
-320 -468 0
-317 -469 0
-318 -470 0
-319 -471 0
-320 -472 0
-317 -473 0
-318 -474 0
-319 -475 0
-320 -476 0
-317 -477 0
-318 -478 0
-319 -479 0
-320 -480 0
-317 -485 0
-318 -486 0
-319 -487 0
-320 -488 0
-317 -493 0
-318 -494 0
-319 -495 0
-320 -496 0
-317 -501 0
-318 -502 0
-319 -503 0
-320 -504 0
-317 -513 0
-318 -514 0
-319 -515 0
-320 -516 0
-317 -529 0
-318 -530 0
-319 -531 0
-320 -532 0
-317 -533 0
-318 -534 0
-319 -535 0
-320 -536 0
-317 -537 0
-318 -538 0
-319 -539 0
-320 -540 0
-317 -541 0
-318 -542 0
-319 -543 0
-320 -544 0
-317 -553 0
-318 -554 0
-319 -555 0
-320 -556 0
-317 -561 0
-318 -562 0
-319 -563 0
-320 -564 0
-317 -565 0
-318 -566 0
-319 -567 0
-320 -568 0
-317 -577 0
-318 -578 0
-319 -579 0
-320 -580 0
-317 -581 0
-318 -582 0
-319 -583 0
-320 -584 0
-321 -325 0
-322 -326 0
-323 -327 0
-324 -328 0
-321 -333 0
-322 -334 0
-323 -335 0
-324 -336 0
-321 -337 0
-322 -338 0
-323 -339 0
-324 -340 0
-321 -341 0
-322 -342 0
-323 -343 0
-324 -344 0
-321 -349 0
-322 -350 0
-323 -351 0
-324 -352 0
-321 -361 0
-322 -362 0
-323 -363 0
-324 -364 0
-321 -365 0
-322 -366 0
-323 -367 0
-324 -368 0
-321 -369 0
-322 -370 0
-323 -371 0
-324 -372 0
-321 -385 0
-322 -386 0
-323 -387 0
-324 -388 0
-321 -401 0
-322 -402 0
-323 -403 0
-324 -404 0
-321 -409 0
-322 -410 0
-323 -411 0
-324 -412 0
-321 -413 0
-322 -414 0
-323 -415 0
-324 -416 0
-321 -425 0
-322 -426 0
-323 -427 0
-324 -428 0
-321 -429 0
-322 -430 0
-323 -431 0
-324 -432 0
-321 -441 0
-322 -442 0
-323 -443 0
-324 -444 0
-321 -445 0
-322 -446 0
-323 -447 0
-324 -448 0
-321 -449 0
-322 -450 0
-323 -451 0
-324 -452 0
-321 -453 0
-322 -454 0
-323 -455 0
-324 -456 0
-321 -461 0
-322 -462 0
-323 -463 0
-324 -464 0
-321 -473 0
-322 -474 0
-323 -475 0
-324 -476 0
-321 -481 0
-322 -482 0
-323 -483 0
-324 -484 0
-321 -485 0
-322 -486 0
-323 -487 0
-324 -488 0
-321 -489 0
-322 -490 0
-323 -491 0
-324 -492 0
-321 -493 0
-322 -494 0
-323 -495 0
-324 -496 0
-321 -497 0
-322 -498 0
-323 -499 0
-324 -500 0
-321 -505 0
-322 -506 0
-323 -507 0
-324 -508 0
-321 -509 0
-322 -510 0
-323 -511 0
-324 -512 0
-321 -513 0
-322 -514 0
-323 -515 0
-324 -516 0
-321 -521 0
-322 -522 0
-323 -523 0
-324 -524 0
-321 -525 0
-322 -526 0
-323 -527 0
-324 -528 0
-321 -529 0
-322 -530 0
-323 -531 0
-324 -532 0
-321 -533 0
-322 -534 0
-323 -535 0
-324 -536 0
-321 -537 0
-322 -538 0
-323 -539 0
-324 -540 0
-321 -545 0
-322 -546 0
-323 -547 0
-324 -548 0
-321 -553 0
-322 -554 0
-323 -555 0
-324 -556 0
-321 -557 0
-322 -558 0
-323 -559 0
-324 -560 0
-321 -561 0
-322 -562 0
-323 -563 0
-324 -564 0
-321 -565 0
-322 -566 0
-323 -567 0
-324 -568 0
-321 -569 0
-322 -570 0
-323 -571 0
-324 -572 0
-321 -581 0
-322 -582 0
-323 -583 0
-324 -584 0
-321 -585 0
-322 -586 0
-323 -587 0
-324 -588 0
-321 -589 0
-322 -590 0
-323 -591 0
-324 -592 0
-321 -597 0
-322 -598 0
-323 -599 0
-324 -600 0
-325 -329 0
-326 -330 0
-327 -331 0
-328 -332 0
-325 -333 0
-326 -334 0
-327 -335 0
-328 -336 0
-325 -337 0
-326 -338 0
-327 -339 0
-328 -340 0
-325 -341 0
-326 -342 0
-327 -343 0
-328 -344 0
-325 -353 0
-326 -354 0
-327 -355 0
-328 -356 0
-325 -357 0
-326 -358 0
-327 -359 0
-328 -360 0
-325 -369 0
-326 -370 0
-327 -371 0
-328 -372 0
-325 -385 0
-326 -386 0
-327 -387 0
-328 -388 0
-325 -405 0
-326 -406 0
-327 -407 0
-328 -408 0
-325 -417 0
-326 -418 0
-327 -419 0
-328 -420 0
-325 -421 0
-326 -422 0
-327 -423 0
-328 -424 0
-325 -429 0
-326 -430 0
-327 -431 0
-328 -432 0
-325 -437 0
-326 -438 0
-327 -439 0
-328 -440 0
-325 -445 0
-326 -446 0
-327 -447 0
-328 -448 0
-325 -449 0
-326 -450 0
-327 -451 0
-328 -452 0
-325 -453 0
-326 -454 0
-327 -455 0
-328 -456 0
-325 -457 0
-326 -458 0
-327 -459 0
-328 -460 0
-325 -461 0
-326 -462 0
-327 -463 0
-328 -464 0
-325 -469 0
-326 -470 0
-327 -471 0
-328 -472 0
-325 -473 0
-326 -474 0
-327 -475 0
-328 -476 0
-325 -477 0
-326 -478 0
-327 -479 0
-328 -480 0
-325 -485 0
-326 -486 0
-327 -487 0
-328 -488 0
-325 -493 0
-326 -494 0
-327 -495 0
-328 -496 0
-325 -501 0
-326 -502 0
-327 -503 0
-328 -504 0
-325 -505 0
-326 -506 0
-327 -507 0
-328 -508 0
-325 -517 0
-326 -518 0
-327 -519 0
-328 -520 0
-325 -525 0
-326 -526 0
-327 -527 0
-328 -528 0
-325 -529 0
-326 -530 0
-327 -531 0
-328 -532 0
-325 -537 0
-326 -538 0
-327 -539 0
-328 -540 0
-325 -541 0
-326 -542 0
-327 -543 0
-328 -544 0
-325 -549 0
-326 -550 0
-327 -551 0
-328 -552 0
-325 -557 0
-326 -558 0
-327 -559 0
-328 -560 0
-325 -561 0
-326 -562 0
-327 -563 0
-328 -564 0
-325 -565 0
-326 -566 0
-327 -567 0
-328 -568 0
-325 -569 0
-326 -570 0
-327 -571 0
-328 -572 0
-325 -573 0
-326 -574 0
-327 -575 0
-328 -576 0
-325 -577 0
-326 -578 0
-327 -579 0
-328 -580 0
-325 -585 0
-326 -586 0
-327 -587 0
-328 -588 0
-325 -589 0
-326 -590 0
-327 -591 0
-328 -592 0
-325 -593 0
-326 -594 0
-327 -595 0
-328 -596 0
-329 -349 0
-330 -350 0
-331 -351 0
-332 -352 0
-329 -353 0
-330 -354 0
-331 -355 0
-332 -356 0
-329 -365 0
-330 -366 0
-331 -367 0
-332 -368 0
-329 -381 0
-330 -382 0
-331 -383 0
-332 -384 0
-329 -385 0
-330 -386 0
-331 -387 0
-332 -388 0
-329 -389 0
-330 -390 0
-331 -391 0
-332 -392 0
-329 -397 0
-330 -398 0
-331 -399 0
-332 -400 0
-329 -413 0
-330 -414 0
-331 -415 0
-332 -416 0
-329 -425 0
-330 -426 0
-331 -427 0
-332 -428 0
-329 -429 0
-330 -430 0
-331 -431 0
-332 -432 0
-329 -433 0
-330 -434 0
-331 -435 0
-332 -436 0
-329 -441 0
-330 -442 0
-331 -443 0
-332 -444 0
-329 -445 0
-330 -446 0
-331 -447 0
-332 -448 0
-329 -449 0
-330 -450 0
-331 -451 0
-332 -452 0
-329 -453 0
-330 -454 0
-331 -455 0
-332 -456 0
-329 -461 0
-330 -462 0
-331 -463 0
-332 -464 0
-329 -473 0
-330 -474 0
-331 -475 0
-332 -476 0
-329 -485 0
-330 -486 0
-331 -487 0
-332 -488 0
-329 -489 0
-330 -490 0
-331 -491 0
-332 -492 0
-329 -493 0
-330 -494 0
-331 -495 0
-332 -496 0
-329 -505 0
-330 -506 0
-331 -507 0
-332 -508 0
-329 -509 0
-330 -510 0
-331 -511 0
-332 -512 0
-329 -521 0
-330 -522 0
-331 -523 0
-332 -524 0
-329 -533 0
-330 -534 0
-331 -535 0
-332 -536 0
-329 -537 0
-330 -538 0
-331 -539 0
-332 -540 0
-329 -553 0
-330 -554 0
-331 -555 0
-332 -556 0
-329 -561 0
-330 -562 0
-331 -563 0
-332 -564 0
-329 -565 0
-330 -566 0
-331 -567 0
-332 -568 0
-329 -581 0
-330 -582 0
-331 -583 0
-332 -584 0
-329 -585 0
-330 -586 0
-331 -587 0
-332 -588 0
-329 -589 0
-330 -590 0
-331 -591 0
-332 -592 0
-329 -597 0
-330 -598 0
-331 -599 0
-332 -600 0
-333 -349 0
-334 -350 0
-335 -351 0
-336 -352 0
-333 -353 0
-334 -354 0
-335 -355 0
-336 -356 0
-333 -377 0
-334 -378 0
-335 -379 0
-336 -380 0
-333 -381 0
-334 -382 0
-335 -383 0
-336 -384 0
-333 -389 0
-334 -390 0
-335 -391 0
-336 -392 0
-333 -397 0
-334 -398 0
-335 -399 0
-336 -400 0
-333 -405 0
-334 -406 0
-335 -407 0
-336 -408 0
-333 -417 0
-334 -418 0
-335 -419 0
-336 -420 0
-333 -421 0
-334 -422 0
-335 -423 0
-336 -424 0
-333 -429 0
-334 -430 0
-335 -431 0
-336 -432 0
-333 -433 0
-334 -434 0
-335 -435 0
-336 -436 0
-333 -437 0
-334 -438 0
-335 -439 0
-336 -440 0
-333 -453 0
-334 -454 0
-335 -455 0
-336 -456 0
-333 -465 0
-334 -466 0
-335 -467 0
-336 -468 0
-333 -469 0
-334 -470 0
-335 -471 0
-336 -472 0
-333 -481 0
-334 -482 0
-335 -483 0
-336 -484 0
-333 -521 0
-334 -522 0
-335 -523 0
-336 -524 0
-333 -529 0
-334 -530 0
-335 -531 0
-336 -532 0
-333 -541 0
-334 -542 0
-335 -543 0
-336 -544 0
-333 -545 0
-334 -546 0
-335 -547 0
-336 -548 0
-333 -549 0
-334 -550 0
-335 -551 0
-336 -552 0
-333 -565 0
-334 -566 0
-335 -567 0
-336 -568 0
-333 -573 0
-334 -574 0
-335 -575 0
-336 -576 0
-333 -577 0
-334 -578 0
-335 -579 0
-336 -580 0
-333 -589 0
-334 -590 0
-335 -591 0
-336 -592 0
-333 -597 0
-334 -598 0
-335 -599 0
-336 -600 0
-337 -341 0
-338 -342 0
-339 -343 0
-340 -344 0
-337 -345 0
-338 -346 0
-339 -347 0
-340 -348 0
-337 -349 0
-338 -350 0
-339 -351 0
-340 -352 0
-337 -357 0
-338 -358 0
-339 -359 0
-340 -360 0
-337 -365 0
-338 -366 0
-339 -367 0
-340 -368 0
-337 -369 0
-338 -370 0
-339 -371 0
-340 -372 0
-337 -373 0
-338 -374 0
-339 -375 0
-340 -376 0
-337 -389 0
-338 -390 0
-339 -391 0
-340 -392 0
-337 -393 0
-338 -394 0
-339 -395 0
-340 -396 0
-337 -397 0
-338 -398 0
-339 -399 0
-340 -400 0
-337 -401 0
-338 -402 0
-339 -403 0
-340 -404 0
-337 -413 0
-338 -414 0
-339 -415 0
-340 -416 0
-337 -417 0
-338 -418 0
-339 -419 0
-340 -420 0
-337 -421 0
-338 -422 0
-339 -423 0
-340 -424 0
-337 -425 0
-338 -426 0
-339 -427 0
-340 -428 0
-337 -433 0
-338 -434 0
-339 -435 0
-340 -436 0
-337 -437 0
-338 -438 0
-339 -439 0
-340 -440 0
-337 -441 0
-338 -442 0
-339 -443 0
-340 -444 0
-337 -449 0
-338 -450 0
-339 -451 0
-340 -452 0
-337 -457 0
-338 -458 0
-339 -459 0
-340 -460 0
-337 -465 0
-338 -466 0
-339 -467 0
-340 -468 0
-337 -469 0
-338 -470 0
-339 -471 0
-340 -472 0
-337 -473 0
-338 -474 0
-339 -475 0
-340 -476 0
-337 -477 0
-338 -478 0
-339 -479 0
-340 -480 0
-337 -481 0
-338 -482 0
-339 -483 0
-340 -484 0
-337 -485 0
-338 -486 0
-339 -487 0
-340 -488 0
-337 -489 0
-338 -490 0
-339 -491 0
-340 -492 0
-337 -493 0
-338 -494 0
-339 -495 0
-340 -496 0
-337 -497 0
-338 -498 0
-339 -499 0
-340 -500 0
-337 -501 0
-338 -502 0
-339 -503 0
-340 -504 0
-337 -513 0
-338 -514 0
-339 -515 0
-340 -516 0
-337 -517 0
-338 -518 0
-339 -519 0
-340 -520 0
-337 -533 0
-338 -534 0
-339 -535 0
-340 -536 0
-337 -541 0
-338 -542 0
-339 -543 0
-340 -544 0
-337 -545 0
-338 -546 0
-339 -547 0
-340 -548 0
-337 -553 0
-338 -554 0
-339 -555 0
-340 -556 0
-337 -557 0
-338 -558 0
-339 -559 0
-340 -560 0
-337 -569 0
-338 -570 0
-339 -571 0
-340 -572 0
-337 -585 0
-338 -586 0
-339 -587 0
-340 -588 0
-337 -593 0
-338 -594 0
-339 -595 0
-340 -596 0
-341 -349 0
-342 -350 0
-343 -351 0
-344 -352 0
-341 -353 0
-342 -354 0
-343 -355 0
-344 -356 0
-341 -357 0
-342 -358 0
-343 -359 0
-344 -360 0
-341 -373 0
-342 -374 0
-343 -375 0
-344 -376 0
-341 -377 0
-342 -378 0
-343 -379 0
-344 -380 0
-341 -381 0
-342 -382 0
-343 -383 0
-344 -384 0
-341 -389 0
-342 -390 0
-343 -391 0
-344 -392 0
-341 -397 0
-342 -398 0
-343 -399 0
-344 -400 0
-341 -401 0
-342 -402 0
-343 -403 0
-344 -404 0
-341 -405 0
-342 -406 0
-343 -407 0
-344 -408 0
-341 -409 0
-342 -410 0
-343 -411 0
-344 -412 0
-341 -417 0
-342 -418 0
-343 -419 0
-344 -420 0
-341 -429 0
-342 -430 0
-343 -431 0
-344 -432 0
-341 -433 0
-342 -434 0
-343 -435 0
-344 -436 0
-341 -437 0
-342 -438 0
-343 -439 0
-344 -440 0
-341 -445 0
-342 -446 0
-343 -447 0
-344 -448 0
-341 -453 0
-342 -454 0
-343 -455 0
-344 -456 0
-341 -465 0
-342 -466 0
-343 -467 0
-344 -468 0
-341 -489 0
-342 -490 0
-343 -491 0
-344 -492 0
-341 -497 0
-342 -498 0
-343 -499 0
-344 -500 0
-341 -505 0
-342 -506 0
-343 -507 0
-344 -508 0
-341 -517 0
-342 -518 0
-343 -519 0
-344 -520 0
-341 -525 0
-342 -526 0
-343 -527 0
-344 -528 0
-341 -529 0
-342 -530 0
-343 -531 0
-344 -532 0
-341 -541 0
-342 -542 0
-343 -543 0
-344 -544 0
-341 -545 0
-342 -546 0
-343 -547 0
-344 -548 0
-341 -549 0
-342 -550 0
-343 -551 0
-344 -552 0
-341 -573 0
-342 -574 0
-343 -575 0
-344 -576 0
-341 -581 0
-342 -582 0
-343 -583 0
-344 -584 0
-341 -589 0
-342 -590 0
-343 -591 0
-344 -592 0
-341 -593 0
-342 -594 0
-343 -595 0
-344 -596 0
-341 -597 0
-342 -598 0
-343 -599 0
-344 -600 0
-345 -349 0
-346 -350 0
-347 -351 0
-348 -352 0
-345 -361 0
-346 -362 0
-347 -363 0
-348 -364 0
-345 -365 0
-346 -366 0
-347 -367 0
-348 -368 0
-345 -369 0
-346 -370 0
-347 -371 0
-348 -372 0
-345 -377 0
-346 -378 0
-347 -379 0
-348 -380 0
-345 -381 0
-346 -382 0
-347 -383 0
-348 -384 0
-345 -389 0
-346 -390 0
-347 -391 0
-348 -392 0
-345 -397 0
-346 -398 0
-347 -399 0
-348 -400 0
-345 -401 0
-346 -402 0
-347 -403 0
-348 -404 0
-345 -405 0
-346 -406 0
-347 -407 0
-348 -408 0
-345 -409 0
-346 -410 0
-347 -411 0
-348 -412 0
-345 -413 0
-346 -414 0
-347 -415 0
-348 -416 0
-345 -429 0
-346 -430 0
-347 -431 0
-348 -432 0
-345 -433 0
-346 -434 0
-347 -435 0
-348 -436 0
-345 -441 0
-346 -442 0
-347 -443 0
-348 -444 0
-345 -449 0
-346 -450 0
-347 -451 0
-348 -452 0
-345 -453 0
-346 -454 0
-347 -455 0
-348 -456 0
-345 -457 0
-346 -458 0
-347 -459 0
-348 -460 0
-345 -461 0
-346 -462 0
-347 -463 0
-348 -464 0
-345 -473 0
-346 -474 0
-347 -475 0
-348 -476 0
-345 -477 0
-346 -478 0
-347 -479 0
-348 -480 0
-345 -481 0
-346 -482 0
-347 -483 0
-348 -484 0
-345 -485 0
-346 -486 0
-347 -487 0
-348 -488 0
-345 -489 0
-346 -490 0
-347 -491 0
-348 -492 0
-345 -497 0
-346 -498 0
-347 -499 0
-348 -500 0
-345 -501 0
-346 -502 0
-347 -503 0
-348 -504 0
-345 -513 0
-346 -514 0
-347 -515 0
-348 -516 0
-345 -525 0
-346 -526 0
-347 -527 0
-348 -528 0
-345 -537 0
-346 -538 0
-347 -539 0
-348 -540 0
-345 -561 0
-346 -562 0
-347 -563 0
-348 -564 0
-345 -569 0
-346 -570 0
-347 -571 0
-348 -572 0
-345 -589 0
-346 -590 0
-347 -591 0
-348 -592 0
-345 -597 0
-346 -598 0
-347 -599 0
-348 -600 0
-349 -353 0
-350 -354 0
-351 -355 0
-352 -356 0
-349 -357 0
-350 -358 0
-351 -359 0
-352 -360 0
-349 -361 0
-350 -362 0
-351 -363 0
-352 -364 0
-349 -369 0
-350 -370 0
-351 -371 0
-352 -372 0
-349 -377 0
-350 -378 0
-351 -379 0
-352 -380 0
-349 -385 0
-350 -386 0
-351 -387 0
-352 -388 0
-349 -393 0
-350 -394 0
-351 -395 0
-352 -396 0
-349 -405 0
-350 -406 0
-351 -407 0
-352 -408 0
-349 -409 0
-350 -410 0
-351 -411 0
-352 -412 0
-349 -417 0
-350 -418 0
-351 -419 0
-352 -420 0
-349 -429 0
-350 -430 0
-351 -431 0
-352 -432 0
-349 -437 0
-350 -438 0
-351 -439 0
-352 -440 0
-349 -445 0
-350 -446 0
-351 -447 0
-352 -448 0
-349 -449 0
-350 -450 0
-351 -451 0
-352 -452 0
-349 -453 0
-350 -454 0
-351 -455 0
-352 -456 0
-349 -457 0
-350 -458 0
-351 -459 0
-352 -460 0
-349 -461 0
-350 -462 0
-351 -463 0
-352 -464 0
-349 -465 0
-350 -466 0
-351 -467 0
-352 -468 0
-349 -469 0
-350 -470 0
-351 -471 0
-352 -472 0
-349 -473 0
-350 -474 0
-351 -475 0
-352 -476 0
-349 -477 0
-350 -478 0
-351 -479 0
-352 -480 0
-349 -493 0
-350 -494 0
-351 -495 0
-352 -496 0
-349 -501 0
-350 -502 0
-351 -503 0
-352 -504 0
-349 -505 0
-350 -506 0
-351 -507 0
-352 -508 0
-349 -513 0
-350 -514 0
-351 -515 0
-352 -516 0
-349 -525 0
-350 -526 0
-351 -527 0
-352 -528 0
-349 -537 0
-350 -538 0
-351 -539 0
-352 -540 0
-349 -541 0
-350 -542 0
-351 -543 0
-352 -544 0
-349 -549 0
-350 -550 0
-351 -551 0
-352 -552 0
-349 -553 0
-350 -554 0
-351 -555 0
-352 -556 0
-349 -557 0
-350 -558 0
-351 -559 0
-352 -560 0
-349 -561 0
-350 -562 0
-351 -563 0
-352 -564 0
-349 -565 0
-350 -566 0
-351 -567 0
-352 -568 0
-349 -569 0
-350 -570 0
-351 -571 0
-352 -572 0
-349 -573 0
-350 -574 0
-351 -575 0
-352 -576 0
-349 -589 0
-350 -590 0
-351 -591 0
-352 -592 0
-349 -597 0
-350 -598 0
-351 -599 0
-352 -600 0
-353 -357 0
-354 -358 0
-355 -359 0
-356 -360 0
-353 -365 0
-354 -366 0
-355 -367 0
-356 -368 0
-353 -369 0
-354 -370 0
-355 -371 0
-356 -372 0
-353 -373 0
-354 -374 0
-355 -375 0
-356 -376 0
-353 -389 0
-354 -390 0
-355 -391 0
-356 -392 0
-353 -393 0
-354 -394 0
-355 -395 0
-356 -396 0
-353 -397 0
-354 -398 0
-355 -399 0
-356 -400 0
-353 -401 0
-354 -402 0
-355 -403 0
-356 -404 0
-353 -413 0
-354 -414 0
-355 -415 0
-356 -416 0
-353 -417 0
-354 -418 0
-355 -419 0
-356 -420 0
-353 -421 0
-354 -422 0
-355 -423 0
-356 -424 0
-353 -425 0
-354 -426 0
-355 -427 0
-356 -428 0
-353 -433 0
-354 -434 0
-355 -435 0
-356 -436 0
-353 -437 0
-354 -438 0
-355 -439 0
-356 -440 0
-353 -441 0
-354 -442 0
-355 -443 0
-356 -444 0
-353 -457 0
-354 -458 0
-355 -459 0
-356 -460 0
-353 -465 0
-354 -466 0
-355 -467 0
-356 -468 0
-353 -469 0
-354 -470 0
-355 -471 0
-356 -472 0
-353 -477 0
-354 -478 0
-355 -479 0
-356 -480 0
-353 -481 0
-354 -482 0
-355 -483 0
-356 -484 0
-353 -485 0
-354 -486 0
-355 -487 0
-356 -488 0
-353 -489 0
-354 -490 0
-355 -491 0
-356 -492 0
-353 -493 0
-354 -494 0
-355 -495 0
-356 -496 0
-353 -497 0
-354 -498 0
-355 -499 0
-356 -500 0
-353 -501 0
-354 -502 0
-355 -503 0
-356 -504 0
-353 -517 0
-354 -518 0
-355 -519 0
-356 -520 0
-353 -521 0
-354 -522 0
-355 -523 0
-356 -524 0
-353 -533 0
-354 -534 0
-355 -535 0
-356 -536 0
-353 -549 0
-354 -550 0
-355 -551 0
-356 -552 0
-353 -557 0
-354 -558 0
-355 -559 0
-356 -560 0
-353 -569 0
-354 -570 0
-355 -571 0
-356 -572 0
-353 -573 0
-354 -574 0
-355 -575 0
-356 -576 0
-353 -577 0
-354 -578 0
-355 -579 0
-356 -580 0
-353 -585 0
-354 -586 0
-355 -587 0
-356 -588 0
-353 -593 0
-354 -594 0
-355 -595 0
-356 -596 0
-357 -361 0
-358 -362 0
-359 -363 0
-360 -364 0
-357 -365 0
-358 -366 0
-359 -367 0
-360 -368 0
-357 -381 0
-358 -382 0
-359 -383 0
-360 -384 0
-357 -385 0
-358 -386 0
-359 -387 0
-360 -388 0
-357 -397 0
-358 -398 0
-359 -399 0
-360 -400 0
-357 -401 0
-358 -402 0
-359 -403 0
-360 -404 0
-357 -405 0
-358 -406 0
-359 -407 0
-360 -408 0
-357 -409 0
-358 -410 0
-359 -411 0
-360 -412 0
-357 -413 0
-358 -414 0
-359 -415 0
-360 -416 0
-357 -425 0
-358 -426 0
-359 -427 0
-360 -428 0
-357 -433 0
-358 -434 0
-359 -435 0
-360 -436 0
-357 -445 0
-358 -446 0
-359 -447 0
-360 -448 0
-357 -457 0
-358 -458 0
-359 -459 0
-360 -460 0
-357 -461 0
-358 -462 0
-359 -463 0
-360 -464 0
-357 -473 0
-358 -474 0
-359 -475 0
-360 -476 0
-357 -477 0
-358 -478 0
-359 -479 0
-360 -480 0
-357 -481 0
-358 -482 0
-359 -483 0
-360 -484 0
-357 -489 0
-358 -490 0
-359 -491 0
-360 -492 0
-357 -493 0
-358 -494 0
-359 -495 0
-360 -496 0
-357 -501 0
-358 -502 0
-359 -503 0
-360 -504 0
-357 -509 0
-358 -510 0
-359 -511 0
-360 -512 0
-357 -513 0
-358 -514 0
-359 -515 0
-360 -516 0
-357 -521 0
-358 -522 0
-359 -523 0
-360 -524 0
-357 -525 0
-358 -526 0
-359 -527 0
-360 -528 0
-357 -533 0
-358 -534 0
-359 -535 0
-360 -536 0
-357 -537 0
-358 -538 0
-359 -539 0
-360 -540 0
-357 -545 0
-358 -546 0
-359 -547 0
-360 -548 0
-357 -553 0
-358 -554 0
-359 -555 0
-360 -556 0
-357 -569 0
-358 -570 0
-359 -571 0
-360 -572 0
-357 -581 0
-358 -582 0
-359 -583 0
-360 -584 0
-357 -585 0
-358 -586 0
-359 -587 0
-360 -588 0
-357 -589 0
-358 -590 0
-359 -591 0
-360 -592 0
-357 -597 0
-358 -598 0
-359 -599 0
-360 -600 0
-361 -365 0
-362 -366 0
-363 -367 0
-364 -368 0
-361 -373 0
-362 -374 0
-363 -375 0
-364 -376 0
-361 -389 0
-362 -390 0
-363 -391 0
-364 -392 0
-361 -393 0
-362 -394 0
-363 -395 0
-364 -396 0
-361 -397 0
-362 -398 0
-363 -399 0
-364 -400 0
-361 -413 0
-362 -414 0
-363 -415 0
-364 -416 0
-361 -433 0
-362 -434 0
-363 -435 0
-364 -436 0
-361 -437 0
-362 -438 0
-363 -439 0
-364 -440 0
-361 -457 0
-362 -458 0
-363 -459 0
-364 -460 0
-361 -461 0
-362 -462 0
-363 -463 0
-364 -464 0
-361 -465 0
-362 -466 0
-363 -467 0
-364 -468 0
-361 -473 0
-362 -474 0
-363 -475 0
-364 -476 0
-361 -481 0
-362 -482 0
-363 -483 0
-364 -484 0
-361 -497 0
-362 -498 0
-363 -499 0
-364 -500 0
-361 -501 0
-362 -502 0
-363 -503 0
-364 -504 0
-361 -509 0
-362 -510 0
-363 -511 0
-364 -512 0
-361 -513 0
-362 -514 0
-363 -515 0
-364 -516 0
-361 -521 0
-362 -522 0
-363 -523 0
-364 -524 0
-361 -533 0
-362 -534 0
-363 -535 0
-364 -536 0
-361 -537 0
-362 -538 0
-363 -539 0
-364 -540 0
-361 -541 0
-362 -542 0
-363 -543 0
-364 -544 0
-361 -545 0
-362 -546 0
-363 -547 0
-364 -548 0
-361 -549 0
-362 -550 0
-363 -551 0
-364 -552 0
-361 -557 0
-362 -558 0
-363 -559 0
-364 -560 0
-361 -561 0
-362 -562 0
-363 -563 0
-364 -564 0
-361 -573 0
-362 -574 0
-363 -575 0
-364 -576 0
-361 -577 0
-362 -578 0
-363 -579 0
-364 -580 0
-361 -593 0
-362 -594 0
-363 -595 0
-364 -596 0
-365 -373 0
-366 -374 0
-367 -375 0
-368 -376 0
-365 -377 0
-366 -378 0
-367 -379 0
-368 -380 0
-365 -381 0
-366 -382 0
-367 -383 0
-368 -384 0
-365 -393 0
-366 -394 0
-367 -395 0
-368 -396 0
-365 -405 0
-366 -406 0
-367 -407 0
-368 -408 0
-365 -409 0
-366 -410 0
-367 -411 0
-368 -412 0
-365 -417 0
-366 -418 0
-367 -419 0
-368 -420 0
-365 -421 0
-366 -422 0
-367 -423 0
-368 -424 0
-365 -429 0
-366 -430 0
-367 -431 0
-368 -432 0
-365 -437 0
-366 -438 0
-367 -439 0
-368 -440 0
-365 -445 0
-366 -446 0
-367 -447 0
-368 -448 0
-365 -453 0
-366 -454 0
-367 -455 0
-368 -456 0
-365 -457 0
-366 -458 0
-367 -459 0
-368 -460 0
-365 -461 0
-366 -462 0
-367 -463 0
-368 -464 0
-365 -465 0
-366 -466 0
-367 -467 0
-368 -468 0
-365 -469 0
-366 -470 0
-367 -471 0
-368 -472 0
-365 -473 0
-366 -474 0
-367 -475 0
-368 -476 0
-365 -477 0
-366 -478 0
-367 -479 0
-368 -480 0
-365 -485 0
-366 -486 0
-367 -487 0
-368 -488 0
-365 -509 0
-366 -510 0
-367 -511 0
-368 -512 0
-365 -517 0
-366 -518 0
-367 -519 0
-368 -520 0
-365 -529 0
-366 -530 0
-367 -531 0
-368 -532 0
-365 -537 0
-366 -538 0
-367 -539 0
-368 -540 0
-365 -541 0
-366 -542 0
-367 -543 0
-368 -544 0
-365 -549 0
-366 -550 0
-367 -551 0
-368 -552 0
-365 -557 0
-366 -558 0
-367 -559 0
-368 -560 0
-365 -561 0
-366 -562 0
-367 -563 0
-368 -564 0
-365 -565 0
-366 -566 0
-367 -567 0
-368 -568 0
-365 -569 0
-366 -570 0
-367 -571 0
-368 -572 0
-365 -573 0
-366 -574 0
-367 -575 0
-368 -576 0
-365 -577 0
-366 -578 0
-367 -579 0
-368 -580 0
-365 -581 0
-366 -582 0
-367 -583 0
-368 -584 0
-365 -585 0
-366 -586 0
-367 -587 0
-368 -588 0
-365 -593 0
-366 -594 0
-367 -595 0
-368 -596 0
-369 -373 0
-370 -374 0
-371 -375 0
-372 -376 0
-369 -381 0
-370 -382 0
-371 -383 0
-372 -384 0
-369 -385 0
-370 -386 0
-371 -387 0
-372 -388 0
-369 -393 0
-370 -394 0
-371 -395 0
-372 -396 0
-369 -397 0
-370 -398 0
-371 -399 0
-372 -400 0
-369 -401 0
-370 -402 0
-371 -403 0
-372 -404 0
-369 -409 0
-370 -410 0
-371 -411 0
-372 -412 0
-369 -421 0
-370 -422 0
-371 -423 0
-372 -424 0
-369 -429 0
-370 -430 0
-371 -431 0
-372 -432 0
-369 -433 0
-370 -434 0
-371 -435 0
-372 -436 0
-369 -437 0
-370 -438 0
-371 -439 0
-372 -440 0
-369 -441 0
-370 -442 0
-371 -443 0
-372 -444 0
-369 -453 0
-370 -454 0
-371 -455 0
-372 -456 0
-369 -469 0
-370 -470 0
-371 -471 0
-372 -472 0
-369 -489 0
-370 -490 0
-371 -491 0
-372 -492 0
-369 -497 0
-370 -498 0
-371 -499 0
-372 -500 0
-369 -517 0
-370 -518 0
-371 -519 0
-372 -520 0
-369 -529 0
-370 -530 0
-371 -531 0
-372 -532 0
-369 -541 0
-370 -542 0
-371 -543 0
-372 -544 0
-369 -549 0
-370 -550 0
-371 -551 0
-372 -552 0
-369 -565 0
-370 -566 0
-371 -567 0
-372 -568 0
-369 -573 0
-370 -574 0
-371 -575 0
-372 -576 0
-369 -577 0
-370 -578 0
-371 -579 0
-372 -580 0
-369 -581 0
-370 -582 0
-371 -583 0
-372 -584 0
-369 -589 0
-370 -590 0
-371 -591 0
-372 -592 0
-369 -593 0
-370 -594 0
-371 -595 0
-372 -596 0
-373 -377 0
-374 -378 0
-375 -379 0
-376 -380 0
-373 -381 0
-374 -382 0
-375 -383 0
-376 -384 0
-373 -385 0
-374 -386 0
-375 -387 0
-376 -388 0
-373 -389 0
-374 -390 0
-375 -391 0
-376 -392 0
-373 -397 0
-374 -398 0
-375 -399 0
-376 -400 0
-373 -401 0
-374 -402 0
-375 -403 0
-376 -404 0
-373 -409 0
-374 -410 0
-375 -411 0
-376 -412 0
-373 -413 0
-374 -414 0
-375 -415 0
-376 -416 0
-373 -425 0
-374 -426 0
-375 -427 0
-376 -428 0
-373 -429 0
-374 -430 0
-375 -431 0
-376 -432 0
-373 -433 0
-374 -434 0
-375 -435 0
-376 -436 0
-373 -441 0
-374 -442 0
-375 -443 0
-376 -444 0
-373 -449 0
-374 -450 0
-375 -451 0
-376 -452 0
-373 -453 0
-374 -454 0
-375 -455 0
-376 -456 0
-373 -457 0
-374 -458 0
-375 -459 0
-376 -460 0
-373 -461 0
-374 -462 0
-375 -463 0
-376 -464 0
-373 -477 0
-374 -478 0
-375 -479 0
-376 -480 0
-373 -481 0
-374 -482 0
-375 -483 0
-376 -484 0
-373 -485 0
-374 -486 0
-375 -487 0
-376 -488 0
-373 -489 0
-374 -490 0
-375 -491 0
-376 -492 0
-373 -493 0
-374 -494 0
-375 -495 0
-376 -496 0
-373 -497 0
-374 -498 0
-375 -499 0
-376 -500 0
-373 -501 0
-374 -502 0
-375 -503 0
-376 -504 0
-373 -505 0
-374 -506 0
-375 -507 0
-376 -508 0
-373 -509 0
-374 -510 0
-375 -511 0
-376 -512 0
-373 -513 0
-374 -514 0
-375 -515 0
-376 -516 0
-373 -525 0
-374 -526 0
-375 -527 0
-376 -528 0
-373 -529 0
-374 -530 0
-375 -531 0
-376 -532 0
-373 -533 0
-374 -534 0
-375 -535 0
-376 -536 0
-373 -537 0
-374 -538 0
-375 -539 0
-376 -540 0
-373 -553 0
-374 -554 0
-375 -555 0
-376 -556 0
-373 -557 0
-374 -558 0
-375 -559 0
-376 -560 0
-373 -561 0
-374 -562 0
-375 -563 0
-376 -564 0
-373 -565 0
-374 -566 0
-375 -567 0
-376 -568 0
-373 -569 0
-374 -570 0
-375 -571 0
-376 -572 0
-373 -581 0
-374 -582 0
-375 -583 0
-376 -584 0
-373 -589 0
-374 -590 0
-375 -591 0
-376 -592 0
-377 -389 0
-378 -390 0
-379 -391 0
-380 -392 0
-377 -393 0
-378 -394 0
-379 -395 0
-380 -396 0
-377 -397 0
-378 -398 0
-379 -399 0
-380 -400 0
-377 -401 0
-378 -402 0
-379 -403 0
-380 -404 0
-377 -413 0
-378 -414 0
-379 -415 0
-380 -416 0
-377 -425 0
-378 -426 0
-379 -427 0
-380 -428 0
-377 -437 0
-378 -438 0
-379 -439 0
-380 -440 0
-377 -449 0
-378 -450 0
-379 -451 0
-380 -452 0
-377 -457 0
-378 -458 0
-379 -459 0
-380 -460 0
-377 -461 0
-378 -462 0
-379 -463 0
-380 -464 0
-377 -469 0
-378 -470 0
-379 -471 0
-380 -472 0
-377 -473 0
-378 -474 0
-379 -475 0
-380 -476 0
-377 -477 0
-378 -478 0
-379 -479 0
-380 -480 0
-377 -481 0
-378 -482 0
-379 -483 0
-380 -484 0
-377 -485 0
-378 -486 0
-379 -487 0
-380 -488 0
-377 -493 0
-378 -494 0
-379 -495 0
-380 -496 0
-377 -497 0
-378 -498 0
-379 -499 0
-380 -500 0
-377 -509 0
-378 -510 0
-379 -511 0
-380 -512 0
-377 -513 0
-378 -514 0
-379 -515 0
-380 -516 0
-377 -517 0
-378 -518 0
-379 -519 0
-380 -520 0
-377 -521 0
-378 -522 0
-379 -523 0
-380 -524 0
-377 -533 0
-378 -534 0
-379 -535 0
-380 -536 0
-377 -537 0
-378 -538 0
-379 -539 0
-380 -540 0
-377 -541 0
-378 -542 0
-379 -543 0
-380 -544 0
-377 -545 0
-378 -546 0
-379 -547 0
-380 -548 0
-377 -549 0
-378 -550 0
-379 -551 0
-380 -552 0
-377 -553 0
-378 -554 0
-379 -555 0
-380 -556 0
-377 -557 0
-378 -558 0
-379 -559 0
-380 -560 0
-377 -573 0
-378 -574 0
-379 -575 0
-380 -576 0
-377 -577 0
-378 -578 0
-379 -579 0
-380 -580 0
-377 -585 0
-378 -586 0
-379 -587 0
-380 -588 0
-377 -593 0
-378 -594 0
-379 -595 0
-380 -596 0
-381 -393 0
-382 -394 0
-383 -395 0
-384 -396 0
-381 -397 0
-382 -398 0
-383 -399 0
-384 -400 0
-381 -401 0
-382 -402 0
-383 -403 0
-384 -404 0
-381 -417 0
-382 -418 0
-383 -419 0
-384 -420 0
-381 -421 0
-382 -422 0
-383 -423 0
-384 -424 0
-381 -425 0
-382 -426 0
-383 -427 0
-384 -428 0
-381 -437 0
-382 -438 0
-383 -439 0
-384 -440 0
-381 -441 0
-382 -442 0
-383 -443 0
-384 -444 0
-381 -449 0
-382 -450 0
-383 -451 0
-384 -452 0
-381 -457 0
-382 -458 0
-383 -459 0
-384 -460 0
-381 -461 0
-382 -462 0
-383 -463 0
-384 -464 0
-381 -469 0
-382 -470 0
-383 -471 0
-384 -472 0
-381 -473 0
-382 -474 0
-383 -475 0
-384 -476 0
-381 -481 0
-382 -482 0
-383 -483 0
-384 -484 0
-381 -489 0
-382 -490 0
-383 -491 0
-384 -492 0
-381 -493 0
-382 -494 0
-383 -495 0
-384 -496 0
-381 -509 0
-382 -510 0
-383 -511 0
-384 -512 0
-381 -513 0
-382 -514 0
-383 -515 0
-384 -516 0
-381 -517 0
-382 -518 0
-383 -519 0
-384 -520 0
-381 -521 0
-382 -522 0
-383 -523 0
-384 -524 0
-381 -533 0
-382 -534 0
-383 -535 0
-384 -536 0
-381 -541 0
-382 -542 0
-383 -543 0
-384 -544 0
-381 -545 0
-382 -546 0
-383 -547 0
-384 -548 0
-381 -549 0
-382 -550 0
-383 -551 0
-384 -552 0
-381 -557 0
-382 -558 0
-383 -559 0
-384 -560 0
-381 -561 0
-382 -562 0
-383 -563 0
-384 -564 0
-381 -569 0
-382 -570 0
-383 -571 0
-384 -572 0
-381 -573 0
-382 -574 0
-383 -575 0
-384 -576 0
-381 -577 0
-382 -578 0
-383 -579 0
-384 -580 0
-381 -593 0
-382 -594 0
-383 -595 0
-384 -596 0
-385 -389 0
-386 -390 0
-387 -391 0
-388 -392 0
-385 -393 0
-386 -394 0
-387 -395 0
-388 -396 0
-385 -401 0
-386 -402 0
-387 -403 0
-388 -404 0
-385 -413 0
-386 -414 0
-387 -415 0
-388 -416 0
-385 -417 0
-386 -418 0
-387 -419 0
-388 -420 0
-385 -421 0
-386 -422 0
-387 -423 0
-388 -424 0
-385 -425 0
-386 -426 0
-387 -427 0
-388 -428 0
-385 -433 0
-386 -434 0
-387 -435 0
-388 -436 0
-385 -437 0
-386 -438 0
-387 -439 0
-388 -440 0
-385 -441 0
-386 -442 0
-387 -443 0
-388 -444 0
-385 -449 0
-386 -450 0
-387 -451 0
-388 -452 0
-385 -461 0
-386 -462 0
-387 -463 0
-388 -464 0
-385 -465 0
-386 -466 0
-387 -467 0
-388 -468 0
-385 -473 0
-386 -474 0
-387 -475 0
-388 -476 0
-385 -477 0
-386 -478 0
-387 -479 0
-388 -480 0
-385 -481 0
-386 -482 0
-387 -483 0
-388 -484 0
-385 -485 0
-386 -486 0
-387 -487 0
-388 -488 0
-385 -489 0
-386 -490 0
-387 -491 0
-388 -492 0
-385 -493 0
-386 -494 0
-387 -495 0
-388 -496 0
-385 -497 0
-386 -498 0
-387 -499 0
-388 -500 0
-385 -509 0
-386 -510 0
-387 -511 0
-388 -512 0
-385 -533 0
-386 -534 0
-387 -535 0
-388 -536 0
-385 -537 0
-386 -538 0
-387 -539 0
-388 -540 0
-385 -553 0
-386 -554 0
-387 -555 0
-388 -556 0
-385 -569 0
-386 -570 0
-387 -571 0
-388 -572 0
-385 -577 0
-386 -578 0
-387 -579 0
-388 -580 0
-385 -585 0
-386 -586 0
-387 -587 0
-388 -588 0
-389 -409 0
-390 -410 0
-391 -411 0
-392 -412 0
-389 -421 0
-390 -422 0
-391 -423 0
-392 -424 0
-389 -425 0
-390 -426 0
-391 -427 0
-392 -428 0
-389 -429 0
-390 -430 0
-391 -431 0
-392 -432 0
-389 -437 0
-390 -438 0
-391 -439 0
-392 -440 0
-389 -445 0
-390 -446 0
-391 -447 0
-392 -448 0
-389 -449 0
-390 -450 0
-391 -451 0
-392 -452 0
-389 -453 0
-390 -454 0
-391 -455 0
-392 -456 0
-389 -461 0
-390 -462 0
-391 -463 0
-392 -464 0
-389 -465 0
-390 -466 0
-391 -467 0
-392 -468 0
-389 -469 0
-390 -470 0
-391 -471 0
-392 -472 0
-389 -473 0
-390 -474 0
-391 -475 0
-392 -476 0
-389 -477 0
-390 -478 0
-391 -479 0
-392 -480 0
-389 -485 0
-390 -486 0
-391 -487 0
-392 -488 0
-389 -493 0
-390 -494 0
-391 -495 0
-392 -496 0
-389 -505 0
-390 -506 0
-391 -507 0
-392 -508 0
-389 -509 0
-390 -510 0
-391 -511 0
-392 -512 0
-389 -513 0
-390 -514 0
-391 -515 0
-392 -516 0
-389 -525 0
-390 -526 0
-391 -527 0
-392 -528 0
-389 -529 0
-390 -530 0
-391 -531 0
-392 -532 0
-389 -537 0
-390 -538 0
-391 -539 0
-392 -540 0
-389 -541 0
-390 -542 0
-391 -543 0
-392 -544 0
-389 -549 0
-390 -550 0
-391 -551 0
-392 -552 0
-389 -553 0
-390 -554 0
-391 -555 0
-392 -556 0
-389 -565 0
-390 -566 0
-391 -567 0
-392 -568 0
-389 -569 0
-390 -570 0
-391 -571 0
-392 -572 0
-389 -573 0
-390 -574 0
-391 -575 0
-392 -576 0
-389 -581 0
-390 -582 0
-391 -583 0
-392 -584 0
-389 -585 0
-390 -586 0
-391 -587 0
-392 -588 0
-389 -593 0
-390 -594 0
-391 -595 0
-392 -596 0
-393 -397 0
-394 -398 0
-395 -399 0
-396 -400 0
-393 -405 0
-394 -406 0
-395 -407 0
-396 -408 0
-393 -413 0
-394 -414 0
-395 -415 0
-396 -416 0
-393 -433 0
-394 -434 0
-395 -435 0
-396 -436 0
-393 -441 0
-394 -442 0
-395 -443 0
-396 -444 0
-393 -449 0
-394 -450 0
-395 -451 0
-396 -452 0
-393 -453 0
-394 -454 0
-395 -455 0
-396 -456 0
-393 -461 0
-394 -462 0
-395 -463 0
-396 -464 0
-393 -473 0
-394 -474 0
-395 -475 0
-396 -476 0
-393 -477 0
-394 -478 0
-395 -479 0
-396 -480 0
-393 -481 0
-394 -482 0
-395 -483 0
-396 -484 0
-393 -485 0
-394 -486 0
-395 -487 0
-396 -488 0
-393 -493 0
-394 -494 0
-395 -495 0
-396 -496 0
-393 -497 0
-394 -498 0
-395 -499 0
-396 -500 0
-393 -501 0
-394 -502 0
-395 -503 0
-396 -504 0
-393 -505 0
-394 -506 0
-395 -507 0
-396 -508 0
-393 -509 0
-394 -510 0
-395 -511 0
-396 -512 0
-393 -513 0
-394 -514 0
-395 -515 0
-396 -516 0
-393 -525 0
-394 -526 0
-395 -527 0
-396 -528 0
-393 -529 0
-394 -530 0
-395 -531 0
-396 -532 0
-393 -545 0
-394 -546 0
-395 -547 0
-396 -548 0
-393 -553 0
-394 -554 0
-395 -555 0
-396 -556 0
-393 -557 0
-394 -558 0
-395 -559 0
-396 -560 0
-393 -561 0
-394 -562 0
-395 -563 0
-396 -564 0
-393 -569 0
-394 -570 0
-395 -571 0
-396 -572 0
-393 -581 0
-394 -582 0
-395 -583 0
-396 -584 0
-393 -585 0
-394 -586 0
-395 -587 0
-396 -588 0
-393 -589 0
-394 -590 0
-395 -591 0
-396 -592 0
-393 -597 0
-394 -598 0
-395 -599 0
-396 -600 0
-397 -405 0
-398 -406 0
-399 -407 0
-400 -408 0
-397 -409 0
-398 -410 0
-399 -411 0
-400 -412 0
-397 -417 0
-398 -418 0
-399 -419 0
-400 -420 0
-397 -421 0
-398 -422 0
-399 -423 0
-400 -424 0
-397 -425 0
-398 -426 0
-399 -427 0
-400 -428 0
-397 -429 0
-398 -430 0
-399 -431 0
-400 -432 0
-397 -445 0
-398 -446 0
-399 -447 0
-400 -448 0
-397 -449 0
-398 -450 0
-399 -451 0
-400 -452 0
-397 -453 0
-398 -454 0
-399 -455 0
-400 -456 0
-397 -457 0
-398 -458 0
-399 -459 0
-400 -460 0
-397 -461 0
-398 -462 0
-399 -463 0
-400 -464 0
-397 -465 0
-398 -466 0
-399 -467 0
-400 -468 0
-397 -469 0
-398 -470 0
-399 -471 0
-400 -472 0
-397 -473 0
-398 -474 0
-399 -475 0
-400 -476 0
-397 -477 0
-398 -478 0
-399 -479 0
-400 -480 0
-397 -485 0
-398 -486 0
-399 -487 0
-400 -488 0
-397 -501 0
-398 -502 0
-399 -503 0
-400 -504 0
-397 -513 0
-398 -514 0
-399 -515 0
-400 -516 0
-397 -517 0
-398 -518 0
-399 -519 0
-400 -520 0
-397 -525 0
-398 -526 0
-399 -527 0
-400 -528 0
-397 -533 0
-398 -534 0
-399 -535 0
-400 -536 0
-397 -541 0
-398 -542 0
-399 -543 0
-400 -544 0
-397 -553 0
-398 -554 0
-399 -555 0
-400 -556 0
-397 -557 0
-398 -558 0
-399 -559 0
-400 -560 0
-397 -565 0
-398 -566 0
-399 -567 0
-400 -568 0
-397 -569 0
-398 -570 0
-399 -571 0
-400 -572 0
-397 -573 0
-398 -574 0
-399 -575 0
-400 -576 0
-397 -585 0
-398 -586 0
-399 -587 0
-400 -588 0
-397 -589 0
-398 -590 0
-399 -591 0
-400 -592 0
-397 -593 0
-398 -594 0
-399 -595 0
-400 -596 0
-397 -597 0
-398 -598 0
-399 -599 0
-400 -600 0
-401 -409 0
-402 -410 0
-403 -411 0
-404 -412 0
-401 -417 0
-402 -418 0
-403 -419 0
-404 -420 0
-401 -421 0
-402 -422 0
-403 -423 0
-404 -424 0
-401 -437 0
-402 -438 0
-403 -439 0
-404 -440 0
-401 -445 0
-402 -446 0
-403 -447 0
-404 -448 0
-401 -449 0
-402 -450 0
-403 -451 0
-404 -452 0
-401 -457 0
-402 -458 0
-403 -459 0
-404 -460 0
-401 -469 0
-402 -470 0
-403 -471 0
-404 -472 0
-401 -473 0
-402 -474 0
-403 -475 0
-404 -476 0
-401 -477 0
-402 -478 0
-403 -479 0
-404 -480 0
-401 -485 0
-402 -486 0
-403 -487 0
-404 -488 0
-401 -493 0
-402 -494 0
-403 -495 0
-404 -496 0
-401 -505 0
-402 -506 0
-403 -507 0
-404 -508 0
-401 -509 0
-402 -510 0
-403 -511 0
-404 -512 0
-401 -525 0
-402 -526 0
-403 -527 0
-404 -528 0
-401 -533 0
-402 -534 0
-403 -535 0
-404 -536 0
-401 -537 0
-402 -538 0
-403 -539 0
-404 -540 0
-401 -541 0
-402 -542 0
-403 -543 0
-404 -544 0
-401 -549 0
-402 -550 0
-403 -551 0
-404 -552 0
-401 -553 0
-402 -554 0
-403 -555 0
-404 -556 0
-401 -561 0
-402 -562 0
-403 -563 0
-404 -564 0
-401 -565 0
-402 -566 0
-403 -567 0
-404 -568 0
-401 -569 0
-402 -570 0
-403 -571 0
-404 -572 0
-401 -573 0
-402 -574 0
-403 -575 0
-404 -576 0
-401 -577 0
-402 -578 0
-403 -579 0
-404 -580 0
-401 -585 0
-402 -586 0
-403 -587 0
-404 -588 0
-401 -589 0
-402 -590 0
-403 -591 0
-404 -592 0
-401 -593 0
-402 -594 0
-403 -595 0
-404 -596 0
-405 -413 0
-406 -414 0
-407 -415 0
-408 -416 0
-405 -421 0
-406 -422 0
-407 -423 0
-408 -424 0
-405 -425 0
-406 -426 0
-407 -427 0
-408 -428 0
-405 -433 0
-406 -434 0
-407 -435 0
-408 -436 0
-405 -437 0
-406 -438 0
-407 -439 0
-408 -440 0
-405 -441 0
-406 -442 0
-407 -443 0
-408 -444 0
-405 -449 0
-406 -450 0
-407 -451 0
-408 -452 0
-405 -457 0
-406 -458 0
-407 -459 0
-408 -460 0
-405 -461 0
-406 -462 0
-407 -463 0
-408 -464 0
-405 -465 0
-406 -466 0
-407 -467 0
-408 -468 0
-405 -469 0
-406 -470 0
-407 -471 0
-408 -472 0
-405 -477 0
-406 -478 0
-407 -479 0
-408 -480 0
-405 -481 0
-406 -482 0
-407 -483 0
-408 -484 0
-405 -485 0
-406 -486 0
-407 -487 0
-408 -488 0
-405 -493 0
-406 -494 0
-407 -495 0
-408 -496 0
-405 -501 0
-406 -502 0
-407 -503 0
-408 -504 0
-405 -513 0
-406 -514 0
-407 -515 0
-408 -516 0
-405 -517 0
-406 -518 0
-407 -519 0
-408 -520 0
-405 -533 0
-406 -534 0
-407 -535 0
-408 -536 0
-405 -537 0
-406 -538 0
-407 -539 0
-408 -540 0
-405 -541 0
-406 -542 0
-407 -543 0
-408 -544 0
-405 -545 0
-406 -546 0
-407 -547 0
-408 -548 0
-405 -549 0
-406 -550 0
-407 -551 0
-408 -552 0
-405 -561 0
-406 -562 0
-407 -563 0
-408 -564 0
-405 -569 0
-406 -570 0
-407 -571 0
-408 -572 0
-405 -573 0
-406 -574 0
-407 -575 0
-408 -576 0
-405 -577 0
-406 -578 0
-407 -579 0
-408 -580 0
-405 -585 0
-406 -586 0
-407 -587 0
-408 -588 0
-405 -593 0
-406 -594 0
-407 -595 0
-408 -596 0
-409 -417 0
-410 -418 0
-411 -419 0
-412 -420 0
-409 -421 0
-410 -422 0
-411 -423 0
-412 -424 0
-409 -437 0
-410 -438 0
-411 -439 0
-412 -440 0
-409 -457 0
-410 -458 0
-411 -459 0
-412 -460 0
-409 -461 0
-410 -462 0
-411 -463 0
-412 -464 0
-409 -477 0
-410 -478 0
-411 -479 0
-412 -480 0
-409 -481 0
-410 -482 0
-411 -483 0
-412 -484 0
-409 -485 0
-410 -486 0
-411 -487 0
-412 -488 0
-409 -489 0
-410 -490 0
-411 -491 0
-412 -492 0
-409 -493 0
-410 -494 0
-411 -495 0
-412 -496 0
-409 -501 0
-410 -502 0
-411 -503 0
-412 -504 0
-409 -509 0
-410 -510 0
-411 -511 0
-412 -512 0
-409 -513 0
-410 -514 0
-411 -515 0
-412 -516 0
-409 -517 0
-410 -518 0
-411 -519 0
-412 -520 0
-409 -533 0
-410 -534 0
-411 -535 0
-412 -536 0
-409 -537 0
-410 -538 0
-411 -539 0
-412 -540 0
-409 -541 0
-410 -542 0
-411 -543 0
-412 -544 0
-409 -545 0
-410 -546 0
-411 -547 0
-412 -548 0
-409 -549 0
-410 -550 0
-411 -551 0
-412 -552 0
-409 -553 0
-410 -554 0
-411 -555 0
-412 -556 0
-409 -557 0
-410 -558 0
-411 -559 0
-412 -560 0
-409 -573 0
-410 -574 0
-411 -575 0
-412 -576 0
-409 -585 0
-410 -586 0
-411 -587 0
-412 -588 0
-409 -593 0
-410 -594 0
-411 -595 0
-412 -596 0
-413 -417 0
-414 -418 0
-415 -419 0
-416 -420 0
-413 -421 0
-414 -422 0
-415 -423 0
-416 -424 0
-413 -425 0
-414 -426 0
-415 -427 0
-416 -428 0
-413 -429 0
-414 -430 0
-415 -431 0
-416 -432 0
-413 -445 0
-414 -446 0
-415 -447 0
-416 -448 0
-413 -449 0
-414 -450 0
-415 -451 0
-416 -452 0
-413 -453 0
-414 -454 0
-415 -455 0
-416 -456 0
-413 -457 0
-414 -458 0
-415 -459 0
-416 -460 0
-413 -461 0
-414 -462 0
-415 -463 0
-416 -464 0
-413 -465 0
-414 -466 0
-415 -467 0
-416 -468 0
-413 -477 0
-414 -478 0
-415 -479 0
-416 -480 0
-413 -485 0
-414 -486 0
-415 -487 0
-416 -488 0
-413 -501 0
-414 -502 0
-415 -503 0
-416 -504 0
-413 -505 0
-414 -506 0
-415 -507 0
-416 -508 0
-413 -509 0
-414 -510 0
-415 -511 0
-416 -512 0
-413 -517 0
-414 -518 0
-415 -519 0
-416 -520 0
-413 -525 0
-414 -526 0
-415 -527 0
-416 -528 0
-413 -529 0
-414 -530 0
-415 -531 0
-416 -532 0
-413 -533 0
-414 -534 0
-415 -535 0
-416 -536 0
-413 -549 0
-414 -550 0
-415 -551 0
-416 -552 0
-413 -553 0
-414 -554 0
-415 -555 0
-416 -556 0
-413 -557 0
-414 -558 0
-415 -559 0
-416 -560 0
-413 -561 0
-414 -562 0
-415 -563 0
-416 -564 0
-413 -569 0
-414 -570 0
-415 -571 0
-416 -572 0
-413 -573 0
-414 -574 0
-415 -575 0
-416 -576 0
-413 -577 0
-414 -578 0
-415 -579 0
-416 -580 0
-413 -581 0
-414 -582 0
-415 -583 0
-416 -584 0
-413 -585 0
-414 -586 0
-415 -587 0
-416 -588 0
-413 -589 0
-414 -590 0
-415 -591 0
-416 -592 0
-413 -597 0
-414 -598 0
-415 -599 0
-416 -600 0
-417 -433 0
-418 -434 0
-419 -435 0
-420 -436 0
-417 -441 0
-418 -442 0
-419 -443 0
-420 -444 0
-417 -445 0
-418 -446 0
-419 -447 0
-420 -448 0
-417 -449 0
-418 -450 0
-419 -451 0
-420 -452 0
-417 -453 0
-418 -454 0
-419 -455 0
-420 -456 0
-417 -461 0
-418 -462 0
-419 -463 0
-420 -464 0
-417 -473 0
-418 -474 0
-419 -475 0
-420 -476 0
-417 -477 0
-418 -478 0
-419 -479 0
-420 -480 0
-417 -481 0
-418 -482 0
-419 -483 0
-420 -484 0
-417 -485 0
-418 -486 0
-419 -487 0
-420 -488 0
-417 -489 0
-418 -490 0
-419 -491 0
-420 -492 0
-417 -493 0
-418 -494 0
-419 -495 0
-420 -496 0
-417 -497 0
-418 -498 0
-419 -499 0
-420 -500 0
-417 -505 0
-418 -506 0
-419 -507 0
-420 -508 0
-417 -509 0
-418 -510 0
-419 -511 0
-420 -512 0
-417 -513 0
-418 -514 0
-419 -515 0
-420 -516 0
-417 -525 0
-418 -526 0
-419 -527 0
-420 -528 0
-417 -529 0
-418 -530 0
-419 -531 0
-420 -532 0
-417 -533 0
-418 -534 0
-419 -535 0
-420 -536 0
-417 -545 0
-418 -546 0
-419 -547 0
-420 -548 0
-417 -553 0
-418 -554 0
-419 -555 0
-420 -556 0
-417 -557 0
-418 -558 0
-419 -559 0
-420 -560 0
-417 -561 0
-418 -562 0
-419 -563 0
-420 -564 0
-417 -569 0
-418 -570 0
-419 -571 0
-420 -572 0
-417 -581 0
-418 -582 0
-419 -583 0
-420 -584 0
-417 -585 0
-418 -586 0
-419 -587 0
-420 -588 0
-417 -597 0
-418 -598 0
-419 -599 0
-420 -600 0
-421 -425 0
-422 -426 0
-423 -427 0
-424 -428 0
-421 -429 0
-422 -430 0
-423 -431 0
-424 -432 0
-421 -441 0
-422 -442 0
-423 -443 0
-424 -444 0
-421 -445 0
-422 -446 0
-423 -447 0
-424 -448 0
-421 -477 0
-422 -478 0
-423 -479 0
-424 -480 0
-421 -481 0
-422 -482 0
-423 -483 0
-424 -484 0
-421 -485 0
-422 -486 0
-423 -487 0
-424 -488 0
-421 -497 0
-422 -498 0
-423 -499 0
-424 -500 0
-421 -509 0
-422 -510 0
-423 -511 0
-424 -512 0
-421 -513 0
-422 -514 0
-423 -515 0
-424 -516 0
-421 -525 0
-422 -526 0
-423 -527 0
-424 -528 0
-421 -529 0
-422 -530 0
-423 -531 0
-424 -532 0
-421 -533 0
-422 -534 0
-423 -535 0
-424 -536 0
-421 -545 0
-422 -546 0
-423 -547 0
-424 -548 0
-421 -553 0
-422 -554 0
-423 -555 0
-424 -556 0
-421 -557 0
-422 -558 0
-423 -559 0
-424 -560 0
-421 -561 0
-422 -562 0
-423 -563 0
-424 -564 0
-421 -569 0
-422 -570 0
-423 -571 0
-424 -572 0
-421 -581 0
-422 -582 0
-423 -583 0
-424 -584 0
-421 -585 0
-422 -586 0
-423 -587 0
-424 -588 0
-421 -589 0
-422 -590 0
-423 -591 0
-424 -592 0
-421 -597 0
-422 -598 0
-423 -599 0
-424 -600 0
-425 -429 0
-426 -430 0
-427 -431 0
-428 -432 0
-425 -437 0
-426 -438 0
-427 -439 0
-428 -440 0
-425 -441 0
-426 -442 0
-427 -443 0
-428 -444 0
-425 -465 0
-426 -466 0
-427 -467 0
-428 -468 0
-425 -469 0
-426 -470 0
-427 -471 0
-428 -472 0
-425 -481 0
-426 -482 0
-427 -483 0
-428 -484 0
-425 -489 0
-426 -490 0
-427 -491 0
-428 -492 0
-425 -497 0
-426 -498 0
-427 -499 0
-428 -500 0
-425 -517 0
-426 -518 0
-427 -519 0
-428 -520 0
-425 -521 0
-426 -522 0
-427 -523 0
-428 -524 0
-425 -525 0
-426 -526 0
-427 -527 0
-428 -528 0
-425 -541 0
-426 -542 0
-427 -543 0
-428 -544 0
-425 -545 0
-426 -546 0
-427 -547 0
-428 -548 0
-425 -573 0
-426 -574 0
-427 -575 0
-428 -576 0
-425 -577 0
-426 -578 0
-427 -579 0
-428 -580 0
-425 -593 0
-426 -594 0
-427 -595 0
-428 -596 0
-425 -597 0
-426 -598 0
-427 -599 0
-428 -600 0
-429 -433 0
-430 -434 0
-431 -435 0
-432 -436 0
-429 -437 0
-430 -438 0
-431 -439 0
-432 -440 0
-429 -441 0
-430 -442 0
-431 -443 0
-432 -444 0
-429 -461 0
-430 -462 0
-431 -463 0
-432 -464 0
-429 -465 0
-430 -466 0
-431 -467 0
-432 -468 0
-429 -469 0
-430 -470 0
-431 -471 0
-432 -472 0
-429 -473 0
-430 -474 0
-431 -475 0
-432 -476 0
-429 -481 0
-430 -482 0
-431 -483 0
-432 -484 0
-429 -485 0
-430 -486 0
-431 -487 0
-432 -488 0
-429 -489 0
-430 -490 0
-431 -491 0
-432 -492 0
-429 -493 0
-430 -494 0
-431 -495 0
-432 -496 0
-429 -497 0
-430 -498 0
-431 -499 0
-432 -500 0
-429 -509 0
-430 -510 0
-431 -511 0
-432 -512 0
-429 -521 0
-430 -522 0
-431 -523 0
-432 -524 0
-429 -533 0
-430 -534 0
-431 -535 0
-432 -536 0
-429 -545 0
-430 -546 0
-431 -547 0
-432 -548 0
-429 -549 0
-430 -550 0
-431 -551 0
-432 -552 0
-429 -557 0
-430 -558 0
-431 -559 0
-432 -560 0
-429 -561 0
-430 -562 0
-431 -563 0
-432 -564 0
-429 -573 0
-430 -574 0
-431 -575 0
-432 -576 0
-429 -577 0
-430 -578 0
-431 -579 0
-432 -580 0
-429 -585 0
-430 -586 0
-431 -587 0
-432 -588 0
-429 -593 0
-430 -594 0
-431 -595 0
-432 -596 0
-433 -437 0
-434 -438 0
-435 -439 0
-436 -440 0
-433 -445 0
-434 -446 0
-435 -447 0
-436 -448 0
-433 -449 0
-434 -450 0
-435 -451 0
-436 -452 0
-433 -453 0
-434 -454 0
-435 -455 0
-436 -456 0
-433 -457 0
-434 -458 0
-435 -459 0
-436 -460 0
-433 -461 0
-434 -462 0
-435 -463 0
-436 -464 0
-433 -465 0
-434 -466 0
-435 -467 0
-436 -468 0
-433 -473 0
-434 -474 0
-435 -475 0
-436 -476 0
-433 -477 0
-434 -478 0
-435 -479 0
-436 -480 0
-433 -485 0
-434 -486 0
-435 -487 0
-436 -488 0
-433 -493 0
-434 -494 0
-435 -495 0
-436 -496 0
-433 -501 0
-434 -502 0
-435 -503 0
-436 -504 0
-433 -513 0
-434 -514 0
-435 -515 0
-436 -516 0
-433 -533 0
-434 -534 0
-435 -535 0
-436 -536 0
-433 -537 0
-434 -538 0
-435 -539 0
-436 -540 0
-433 -549 0
-434 -550 0
-435 -551 0
-436 -552 0
-433 -553 0
-434 -554 0
-435 -555 0
-436 -556 0
-433 -557 0
-434 -558 0
-435 -559 0
-436 -560 0
-433 -565 0
-434 -566 0
-435 -567 0
-436 -568 0
-433 -569 0
-434 -570 0
-435 -571 0
-436 -572 0
-433 -573 0
-434 -574 0
-435 -575 0
-436 -576 0
-433 -577 0
-434 -578 0
-435 -579 0
-436 -580 0
-433 -581 0
-434 -582 0
-435 -583 0
-436 -584 0
-433 -585 0
-434 -586 0
-435 -587 0
-436 -588 0
-437 -449 0
-438 -450 0
-439 -451 0
-440 -452 0
-437 -453 0
-438 -454 0
-439 -455 0
-440 -456 0
-437 -457 0
-438 -458 0
-439 -459 0
-440 -460 0
-437 -477 0
-438 -478 0
-439 -479 0
-440 -480 0
-437 -481 0
-438 -482 0
-439 -483 0
-440 -484 0
-437 -485 0
-438 -486 0
-439 -487 0
-440 -488 0
-437 -489 0
-438 -490 0
-439 -491 0
-440 -492 0
-437 -493 0
-438 -494 0
-439 -495 0
-440 -496 0
-437 -497 0
-438 -498 0
-439 -499 0
-440 -500 0
-437 -505 0
-438 -506 0
-439 -507 0
-440 -508 0
-437 -509 0
-438 -510 0
-439 -511 0
-440 -512 0
-437 -513 0
-438 -514 0
-439 -515 0
-440 -516 0
-437 -525 0
-438 -526 0
-439 -527 0
-440 -528 0
-437 -533 0
-438 -534 0
-439 -535 0
-440 -536 0
-437 -537 0
-438 -538 0
-439 -539 0
-440 -540 0
-437 -545 0
-438 -546 0
-439 -547 0
-440 -548 0
-437 -553 0
-438 -554 0
-439 -555 0
-440 -556 0
-437 -557 0
-438 -558 0
-439 -559 0
-440 -560 0
-437 -561 0
-438 -562 0
-439 -563 0
-440 -564 0
-437 -569 0
-438 -570 0
-439 -571 0
-440 -572 0
-437 -581 0
-438 -582 0
-439 -583 0
-440 -584 0
-437 -585 0
-438 -586 0
-439 -587 0
-440 -588 0
-437 -589 0
-438 -590 0
-439 -591 0
-440 -592 0
-441 -445 0
-442 -446 0
-443 -447 0
-444 -448 0
-441 -449 0
-442 -450 0
-443 -451 0
-444 -452 0
-441 -453 0
-442 -454 0
-443 -455 0
-444 -456 0
-441 -457 0
-442 -458 0
-443 -459 0
-444 -460 0
-441 -461 0
-442 -462 0
-443 -463 0
-444 -464 0
-441 -465 0
-442 -466 0
-443 -467 0
-444 -468 0
-441 -469 0
-442 -470 0
-443 -471 0
-444 -472 0
-441 -485 0
-442 -486 0
-443 -487 0
-444 -488 0
-441 -493 0
-442 -494 0
-443 -495 0
-444 -496 0
-441 -501 0
-442 -502 0
-443 -503 0
-444 -504 0
-441 -505 0
-442 -506 0
-443 -507 0
-444 -508 0
-441 -509 0
-442 -510 0
-443 -511 0
-444 -512 0
-441 -513 0
-442 -514 0
-443 -515 0
-444 -516 0
-441 -525 0
-442 -526 0
-443 -527 0
-444 -528 0
-441 -529 0
-442 -530 0
-443 -531 0
-444 -532 0
-441 -533 0
-442 -534 0
-443 -535 0
-444 -536 0
-441 -537 0
-442 -538 0
-443 -539 0
-444 -540 0
-441 -541 0
-442 -542 0
-443 -543 0
-444 -544 0
-441 -549 0
-442 -550 0
-443 -551 0
-444 -552 0
-441 -553 0
-442 -554 0
-443 -555 0
-444 -556 0
-441 -557 0
-442 -558 0
-443 -559 0
-444 -560 0
-441 -565 0
-442 -566 0
-443 -567 0
-444 -568 0
-441 -569 0
-442 -570 0
-443 -571 0
-444 -572 0
-441 -573 0
-442 -574 0
-443 -575 0
-444 -576 0
-441 -577 0
-442 -578 0
-443 -579 0
-444 -580 0
-441 -593 0
-442 -594 0
-443 -595 0
-444 -596 0
-445 -449 0
-446 -450 0
-447 -451 0
-448 -452 0
-445 -457 0
-446 -458 0
-447 -459 0
-448 -460 0
-445 -461 0
-446 -462 0
-447 -463 0
-448 -464 0
-445 -469 0
-446 -470 0
-447 -471 0
-448 -472 0
-445 -473 0
-446 -474 0
-447 -475 0
-448 -476 0
-445 -481 0
-446 -482 0
-447 -483 0
-448 -484 0
-445 -485 0
-446 -486 0
-447 -487 0
-448 -488 0
-445 -489 0
-446 -490 0
-447 -491 0
-448 -492 0
-445 -493 0
-446 -494 0
-447 -495 0
-448 -496 0
-445 -501 0
-446 -502 0
-447 -503 0
-448 -504 0
-445 -509 0
-446 -510 0
-447 -511 0
-448 -512 0
-445 -517 0
-446 -518 0
-447 -519 0
-448 -520 0
-445 -533 0
-446 -534 0
-447 -535 0
-448 -536 0
-445 -545 0
-446 -546 0
-447 -547 0
-448 -548 0
-445 -557 0
-446 -558 0
-447 -559 0
-448 -560 0
-445 -561 0
-446 -562 0
-447 -563 0
-448 -564 0
-445 -569 0
-446 -570 0
-447 -571 0
-448 -572 0
-445 -573 0
-446 -574 0
-447 -575 0
-448 -576 0
-445 -577 0
-446 -578 0
-447 -579 0
-448 -580 0
-445 -593 0
-446 -594 0
-447 -595 0
-448 -596 0
-449 -453 0
-450 -454 0
-451 -455 0
-452 -456 0
-449 -481 0
-450 -482 0
-451 -483 0
-452 -484 0
-449 -489 0
-450 -490 0
-451 -491 0
-452 -492 0
-449 -497 0
-450 -498 0
-451 -499 0
-452 -500 0
-449 -521 0
-450 -522 0
-451 -523 0
-452 -524 0
-449 -525 0
-450 -526 0
-451 -527 0
-452 -528 0
-449 -541 0
-450 -542 0
-451 -543 0
-452 -544 0
-449 -545 0
-450 -546 0
-451 -547 0
-452 -548 0
-449 -549 0
-450 -550 0
-451 -551 0
-452 -552 0
-449 -565 0
-450 -566 0
-451 -567 0
-452 -568 0
-449 -573 0
-450 -574 0
-451 -575 0
-452 -576 0
-449 -581 0
-450 -582 0
-451 -583 0
-452 -584 0
-449 -589 0
-450 -590 0
-451 -591 0
-452 -592 0
-449 -593 0
-450 -594 0
-451 -595 0
-452 -596 0
-449 -597 0
-450 -598 0
-451 -599 0
-452 -600 0
-453 -457 0
-454 -458 0
-455 -459 0
-456 -460 0
-453 -481 0
-454 -482 0
-455 -483 0
-456 -484 0
-453 -489 0
-454 -490 0
-455 -491 0
-456 -492 0
-453 -493 0
-454 -494 0
-455 -495 0
-456 -496 0
-453 -501 0
-454 -502 0
-455 -503 0
-456 -504 0
-453 -509 0
-454 -510 0
-455 -511 0
-456 -512 0
-453 -513 0
-454 -514 0
-455 -515 0
-456 -516 0
-453 -517 0
-454 -518 0
-455 -519 0
-456 -520 0
-453 -521 0
-454 -522 0
-455 -523 0
-456 -524 0
-453 -533 0
-454 -534 0
-455 -535 0
-456 -536 0
-453 -537 0
-454 -538 0
-455 -539 0
-456 -540 0
-453 -541 0
-454 -542 0
-455 -543 0
-456 -544 0
-453 -545 0
-454 -546 0
-455 -547 0
-456 -548 0
-453 -549 0
-454 -550 0
-455 -551 0
-456 -552 0
-453 -557 0
-454 -558 0
-455 -559 0
-456 -560 0
-453 -561 0
-454 -562 0
-455 -563 0
-456 -564 0
-453 -569 0
-454 -570 0
-455 -571 0
-456 -572 0
-453 -573 0
-454 -574 0
-455 -575 0
-456 -576 0
-453 -577 0
-454 -578 0
-455 -579 0
-456 -580 0
-453 -585 0
-454 -586 0
-455 -587 0
-456 -588 0
-457 -469 0
-458 -470 0
-459 -471 0
-460 -472 0
-457 -481 0
-458 -482 0
-459 -483 0
-460 -484 0
-457 -489 0
-458 -490 0
-459 -491 0
-460 -492 0
-457 -497 0
-458 -498 0
-459 -499 0
-460 -500 0
-457 -517 0
-458 -518 0
-459 -519 0
-460 -520 0
-457 -521 0
-458 -522 0
-459 -523 0
-460 -524 0
-457 -525 0
-458 -526 0
-459 -527 0
-460 -528 0
-457 -529 0
-458 -530 0
-459 -531 0
-460 -532 0
-457 -549 0
-458 -550 0
-459 -551 0
-460 -552 0
-457 -573 0
-458 -574 0
-459 -575 0
-460 -576 0
-457 -577 0
-458 -578 0
-459 -579 0
-460 -580 0
-457 -581 0
-458 -582 0
-459 -583 0
-460 -584 0
-457 -597 0
-458 -598 0
-459 -599 0
-460 -600 0
-461 -465 0
-462 -466 0
-463 -467 0
-464 -468 0
-461 -469 0
-462 -470 0
-463 -471 0
-464 -472 0
-461 -489 0
-462 -490 0
-463 -491 0
-464 -492 0
-461 -505 0
-462 -506 0
-463 -507 0
-464 -508 0
-461 -517 0
-462 -518 0
-463 -519 0
-464 -520 0
-461 -521 0
-462 -522 0
-463 -523 0
-464 -524 0
-461 -525 0
-462 -526 0
-463 -527 0
-464 -528 0
-461 -529 0
-462 -530 0
-463 -531 0
-464 -532 0
-461 -541 0
-462 -542 0
-463 -543 0
-464 -544 0
-461 -545 0
-462 -546 0
-463 -547 0
-464 -548 0
-461 -549 0
-462 -550 0
-463 -551 0
-464 -552 0
-461 -565 0
-462 -566 0
-463 -567 0
-464 -568 0
-461 -573 0
-462 -574 0
-463 -575 0
-464 -576 0
-461 -577 0
-462 -578 0
-463 -579 0
-464 -580 0
-461 -581 0
-462 -582 0
-463 -583 0
-464 -584 0
-461 -589 0
-462 -590 0
-463 -591 0
-464 -592 0
-461 -593 0
-462 -594 0
-463 -595 0
-464 -596 0
-461 -597 0
-462 -598 0
-463 -599 0
-464 -600 0
-465 -473 0
-466 -474 0
-467 -475 0
-468 -476 0
-465 -477 0
-466 -478 0
-467 -479 0
-468 -480 0
-465 -497 0
-466 -498 0
-467 -499 0
-468 -500 0
-465 -501 0
-466 -502 0
-467 -503 0
-468 -504 0
-465 -505 0
-466 -506 0
-467 -507 0
-468 -508 0
-465 -513 0
-466 -514 0
-467 -515 0
-468 -516 0
-465 -521 0
-466 -522 0
-467 -523 0
-468 -524 0
-465 -525 0
-466 -526 0
-467 -527 0
-468 -528 0
-465 -533 0
-466 -534 0
-467 -535 0
-468 -536 0
-465 -553 0
-466 -554 0
-467 -555 0
-468 -556 0
-465 -557 0
-466 -558 0
-467 -559 0
-468 -560 0
-465 -561 0
-466 -562 0
-467 -563 0
-468 -564 0
-465 -565 0
-466 -566 0
-467 -567 0
-468 -568 0
-465 -569 0
-466 -570 0
-467 -571 0
-468 -572 0
-465 -581 0
-466 -582 0
-467 -583 0
-468 -584 0
-465 -589 0
-466 -590 0
-467 -591 0
-468 -592 0
-469 -473 0
-470 -474 0
-471 -475 0
-472 -476 0
-469 -477 0
-470 -478 0
-471 -479 0
-472 -480 0
-469 -481 0
-470 -482 0
-471 -483 0
-472 -484 0
-469 -489 0
-470 -490 0
-471 -491 0
-472 -492 0
-469 -493 0
-470 -494 0
-471 -495 0
-472 -496 0
-469 -497 0
-470 -498 0
-471 -499 0
-472 -500 0
-469 -501 0
-470 -502 0
-471 -503 0
-472 -504 0
-469 -509 0
-470 -510 0
-471 -511 0
-472 -512 0
-469 -513 0
-470 -514 0
-471 -515 0
-472 -516 0
-469 -521 0
-470 -522 0
-471 -523 0
-472 -524 0
-469 -529 0
-470 -530 0
-471 -531 0
-472 -532 0
-469 -533 0
-470 -534 0
-471 -535 0
-472 -536 0
-469 -537 0
-470 -538 0
-471 -539 0
-472 -540 0
-469 -545 0
-470 -546 0
-471 -547 0
-472 -548 0
-469 -557 0
-470 -558 0
-471 -559 0
-472 -560 0
-469 -561 0
-470 -562 0
-471 -563 0
-472 -564 0
-469 -565 0
-470 -566 0
-471 -567 0
-472 -568 0
-469 -589 0
-470 -590 0
-471 -591 0
-472 -592 0
-469 -597 0
-470 -598 0
-471 -599 0
-472 -600 0
-473 -481 0
-474 -482 0
-475 -483 0
-476 -484 0
-473 -489 0
-474 -490 0
-475 -491 0
-476 -492 0
-473 -497 0
-474 -498 0
-475 -499 0
-476 -500 0
-473 -505 0
-474 -506 0
-475 -507 0
-476 -508 0
-473 -517 0
-474 -518 0
-475 -519 0
-476 -520 0
-473 -521 0
-474 -522 0
-475 -523 0
-476 -524 0
-473 -529 0
-474 -530 0
-475 -531 0
-476 -532 0
-473 -545 0
-474 -546 0
-475 -547 0
-476 -548 0
-473 -549 0
-474 -550 0
-475 -551 0
-476 -552 0
-473 -565 0
-474 -566 0
-475 -567 0
-476 -568 0
-473 -573 0
-474 -574 0
-475 -575 0
-476 -576 0
-473 -581 0
-474 -582 0
-475 -583 0
-476 -584 0
-473 -597 0
-474 -598 0
-475 -599 0
-476 -600 0
-477 -481 0
-478 -482 0
-479 -483 0
-480 -484 0
-477 -497 0
-478 -498 0
-479 -499 0
-480 -500 0
-477 -505 0
-478 -506 0
-479 -507 0
-480 -508 0
-477 -525 0
-478 -526 0
-479 -527 0
-480 -528 0
-477 -541 0
-478 -542 0
-479 -543 0
-480 -544 0
-477 -549 0
-478 -550 0
-479 -551 0
-480 -552 0
-477 -565 0
-478 -566 0
-479 -567 0
-480 -568 0
-477 -573 0
-478 -574 0
-479 -575 0
-480 -576 0
-477 -581 0
-478 -582 0
-479 -583 0
-480 -584 0
-477 -593 0
-478 -594 0
-479 -595 0
-480 -596 0
-477 -597 0
-478 -598 0
-479 -599 0
-480 -600 0
-481 -485 0
-482 -486 0
-483 -487 0
-484 -488 0
-481 -493 0
-482 -494 0
-483 -495 0
-484 -496 0
-481 -501 0
-482 -502 0
-483 -503 0
-484 -504 0
-481 -505 0
-482 -506 0
-483 -507 0
-484 -508 0
-481 -509 0
-482 -510 0
-483 -511 0
-484 -512 0
-481 -513 0
-482 -514 0
-483 -515 0
-484 -516 0
-481 -517 0
-482 -518 0
-483 -519 0
-484 -520 0
-481 -525 0
-482 -526 0
-483 -527 0
-484 -528 0
-481 -537 0
-482 -538 0
-483 -539 0
-484 -540 0
-481 -541 0
-482 -542 0
-483 -543 0
-484 -544 0
-481 -549 0
-482 -550 0
-483 -551 0
-484 -552 0
-481 -553 0
-482 -554 0
-483 -555 0
-484 -556 0
-481 -557 0
-482 -558 0
-483 -559 0
-484 -560 0
-481 -565 0
-482 -566 0
-483 -567 0
-484 -568 0
-481 -569 0
-482 -570 0
-483 -571 0
-484 -572 0
-481 -573 0
-482 -574 0
-483 -575 0
-484 -576 0
-481 -577 0
-482 -578 0
-483 -579 0
-484 -580 0
-481 -581 0
-482 -582 0
-483 -583 0
-484 -584 0
-481 -585 0
-482 -586 0
-483 -587 0
-484 -588 0
-481 -593 0
-482 -594 0
-483 -595 0
-484 -596 0
-481 -597 0
-482 -598 0
-483 -599 0
-484 -600 0
-485 -497 0
-486 -498 0
-487 -499 0
-488 -500 0
-485 -505 0
-486 -506 0
-487 -507 0
-488 -508 0
-485 -521 0
-486 -522 0
-487 -523 0
-488 -524 0
-485 -529 0
-486 -530 0
-487 -531 0
-488 -532 0
-485 -541 0
-486 -542 0
-487 -543 0
-488 -544 0
-485 -549 0
-486 -550 0
-487 -551 0
-488 -552 0
-485 -565 0
-486 -566 0
-487 -567 0
-488 -568 0
-485 -573 0
-486 -574 0
-487 -575 0
-488 -576 0
-485 -581 0
-486 -582 0
-487 -583 0
-488 -584 0
-485 -589 0
-486 -590 0
-487 -591 0
-488 -592 0
-485 -593 0
-486 -594 0
-487 -595 0
-488 -596 0
-485 -597 0
-486 -598 0
-487 -599 0
-488 -600 0
-489 -501 0
-490 -502 0
-491 -503 0
-492 -504 0
-489 -513 0
-490 -514 0
-491 -515 0
-492 -516 0
-489 -517 0
-490 -518 0
-491 -519 0
-492 -520 0
-489 -529 0
-490 -530 0
-491 -531 0
-492 -532 0
-489 -533 0
-490 -534 0
-491 -535 0
-492 -536 0
-489 -537 0
-490 -538 0
-491 -539 0
-492 -540 0
-489 -541 0
-490 -542 0
-491 -543 0
-492 -544 0
-489 -549 0
-490 -550 0
-491 -551 0
-492 -552 0
-489 -553 0
-490 -554 0
-491 -555 0
-492 -556 0
-489 -557 0
-490 -558 0
-491 -559 0
-492 -560 0
-489 -561 0
-490 -562 0
-491 -563 0
-492 -564 0
-489 -565 0
-490 -566 0
-491 -567 0
-492 -568 0
-489 -569 0
-490 -570 0
-491 -571 0
-492 -572 0
-489 -573 0
-490 -574 0
-491 -575 0
-492 -576 0
-489 -581 0
-490 -582 0
-491 -583 0
-492 -584 0
-489 -589 0
-490 -590 0
-491 -591 0
-492 -592 0
-489 -593 0
-490 -594 0
-491 -595 0
-492 -596 0
-489 -597 0
-490 -598 0
-491 -599 0
-492 -600 0
-493 -497 0
-494 -498 0
-495 -499 0
-496 -500 0
-493 -505 0
-494 -506 0
-495 -507 0
-496 -508 0
-493 -521 0
-494 -522 0
-495 -523 0
-496 -524 0
-493 -529 0
-494 -530 0
-495 -531 0
-496 -532 0
-493 -541 0
-494 -542 0
-495 -543 0
-496 -544 0
-493 -565 0
-494 -566 0
-495 -567 0
-496 -568 0
-493 -573 0
-494 -574 0
-495 -575 0
-496 -576 0
-493 -577 0
-494 -578 0
-495 -579 0
-496 -580 0
-493 -581 0
-494 -582 0
-495 -583 0
-496 -584 0
-493 -589 0
-494 -590 0
-495 -591 0
-496 -592 0
-493 -593 0
-494 -594 0
-495 -595 0
-496 -596 0
-497 -501 0
-498 -502 0
-499 -503 0
-500 -504 0
-497 -505 0
-498 -506 0
-499 -507 0
-500 -508 0
-497 -509 0
-498 -510 0
-499 -511 0
-500 -512 0
-497 -513 0
-498 -514 0
-499 -515 0
-500 -516 0
-497 -517 0
-498 -518 0
-499 -519 0
-500 -520 0
-497 -525 0
-498 -526 0
-499 -527 0
-500 -528 0
-497 -529 0
-498 -530 0
-499 -531 0
-500 -532 0
-497 -533 0
-498 -534 0
-499 -535 0
-500 -536 0
-497 -537 0
-498 -538 0
-499 -539 0
-500 -540 0
-497 -549 0
-498 -550 0
-499 -551 0
-500 -552 0
-497 -553 0
-498 -554 0
-499 -555 0
-500 -556 0
-497 -557 0
-498 -558 0
-499 -559 0
-500 -560 0
-497 -561 0
-498 -562 0
-499 -563 0
-500 -564 0
-497 -565 0
-498 -566 0
-499 -567 0
-500 -568 0
-497 -569 0
-498 -570 0
-499 -571 0
-500 -572 0
-497 -577 0
-498 -578 0
-499 -579 0
-500 -580 0
-497 -581 0
-498 -582 0
-499 -583 0
-500 -584 0
-497 -589 0
-498 -590 0
-499 -591 0
-500 -592 0
-497 -597 0
-498 -598 0
-499 -599 0
-500 -600 0
-501 -505 0
-502 -506 0
-503 -507 0
-504 -508 0
-501 -517 0
-502 -518 0
-503 -519 0
-504 -520 0
-501 -521 0
-502 -522 0
-503 -523 0
-504 -524 0
-501 -525 0
-502 -526 0
-503 -527 0
-504 -528 0
-501 -529 0
-502 -530 0
-503 -531 0
-504 -532 0
-501 -541 0
-502 -542 0
-503 -543 0
-504 -544 0
-501 -545 0
-502 -546 0
-503 -547 0
-504 -548 0
-501 -549 0
-502 -550 0
-503 -551 0
-504 -552 0
-501 -573 0
-502 -574 0
-503 -575 0
-504 -576 0
-501 -577 0
-502 -578 0
-503 -579 0
-504 -580 0
-501 -589 0
-502 -590 0
-503 -591 0
-504 -592 0
-501 -593 0
-502 -594 0
-503 -595 0
-504 -596 0
-501 -597 0
-502 -598 0
-503 -599 0
-504 -600 0
-505 -509 0
-506 -510 0
-507 -511 0
-508 -512 0
-505 -517 0
-506 -518 0
-507 -519 0
-508 -520 0
-505 -533 0
-506 -534 0
-507 -535 0
-508 -536 0
-505 -553 0
-506 -554 0
-507 -555 0
-508 -556 0
-505 -569 0
-506 -570 0
-507 -571 0
-508 -572 0
-505 -573 0
-506 -574 0
-507 -575 0
-508 -576 0
-505 -577 0
-506 -578 0
-507 -579 0
-508 -580 0
-505 -585 0
-506 -586 0
-507 -587 0
-508 -588 0
-505 -593 0
-506 -594 0
-507 -595 0
-508 -596 0
-509 -517 0
-510 -518 0
-511 -519 0
-512 -520 0
-509 -521 0
-510 -522 0
-511 -523 0
-512 -524 0
-509 -541 0
-510 -542 0
-511 -543 0
-512 -544 0
-509 -545 0
-510 -546 0
-511 -547 0
-512 -548 0
-509 -565 0
-510 -566 0
-511 -567 0
-512 -568 0
-509 -577 0
-510 -578 0
-511 -579 0
-512 -580 0
-509 -581 0
-510 -582 0
-511 -583 0
-512 -584 0
-509 -589 0
-510 -590 0
-511 -591 0
-512 -592 0
-509 -593 0
-510 -594 0
-511 -595 0
-512 -596 0
-509 -597 0
-510 -598 0
-511 -599 0
-512 -600 0
-513 -521 0
-514 -522 0
-515 -523 0
-516 -524 0
-513 -545 0
-514 -546 0
-515 -547 0
-516 -548 0
-513 -549 0
-514 -550 0
-515 -551 0
-516 -552 0
-513 -565 0
-514 -566 0
-515 -567 0
-516 -568 0
-513 -573 0
-514 -574 0
-515 -575 0
-516 -576 0
-513 -589 0
-514 -590 0
-515 -591 0
-516 -592 0
-513 -593 0
-514 -594 0
-515 -595 0
-516 -596 0
-513 -597 0
-514 -598 0
-515 -599 0
-516 -600 0
-517 -525 0
-518 -526 0
-519 -527 0
-520 -528 0
-517 -537 0
-518 -538 0
-519 -539 0
-520 -540 0
-517 -545 0
-518 -546 0
-519 -547 0
-520 -548 0
-517 -553 0
-518 -554 0
-519 -555 0
-520 -556 0
-517 -557 0
-518 -558 0
-519 -559 0
-520 -560 0
-517 -561 0
-518 -562 0
-519 -563 0
-520 -564 0
-517 -565 0
-518 -566 0
-519 -567 0
-520 -568 0
-517 -585 0
-518 -586 0
-519 -587 0
-520 -588 0
-517 -597 0
-518 -598 0
-519 -599 0
-520 -600 0
-521 -525 0
-522 -526 0
-523 -527 0
-524 -528 0
-521 -537 0
-522 -538 0
-523 -539 0
-524 -540 0
-521 -541 0
-522 -542 0
-523 -543 0
-524 -544 0
-521 -549 0
-522 -550 0
-523 -551 0
-524 -552 0
-521 -553 0
-522 -554 0
-523 -555 0
-524 -556 0
-521 -557 0
-522 -558 0
-523 -559 0
-524 -560 0
-521 -561 0
-522 -562 0
-523 -563 0
-524 -564 0
-521 -565 0
-522 -566 0
-523 -567 0
-524 -568 0
-521 -569 0
-522 -570 0
-523 -571 0
-524 -572 0
-521 -573 0
-522 -574 0
-523 -575 0
-524 -576 0
-521 -577 0
-522 -578 0
-523 -579 0
-524 -580 0
-521 -581 0
-522 -582 0
-523 -583 0
-524 -584 0
-521 -585 0
-522 -586 0
-523 -587 0
-524 -588 0
-521 -589 0
-522 -590 0
-523 -591 0
-524 -592 0
-521 -597 0
-522 -598 0
-523 -599 0
-524 -600 0
-525 -533 0
-526 -534 0
-527 -535 0
-528 -536 0
-525 -541 0
-526 -542 0
-527 -543 0
-528 -544 0
-525 -545 0
-526 -546 0
-527 -547 0
-528 -548 0
-525 -553 0
-526 -554 0
-527 -555 0
-528 -556 0
-525 -557 0
-526 -558 0
-527 -559 0
-528 -560 0
-525 -561 0
-526 -562 0
-527 -563 0
-528 -564 0
-525 -569 0
-526 -570 0
-527 -571 0
-528 -572 0
-525 -573 0
-526 -574 0
-527 -575 0
-528 -576 0
-525 -585 0
-526 -586 0
-527 -587 0
-528 -588 0
-525 -593 0
-526 -594 0
-527 -595 0
-528 -596 0
-529 -537 0
-530 -538 0
-531 -539 0
-532 -540 0
-529 -545 0
-530 -546 0
-531 -547 0
-532 -548 0
-529 -549 0
-530 -550 0
-531 -551 0
-532 -552 0
-529 -553 0
-530 -554 0
-531 -555 0
-532 -556 0
-529 -561 0
-530 -562 0
-531 -563 0
-532 -564 0
-529 -573 0
-530 -574 0
-531 -575 0
-532 -576 0
-529 -577 0
-530 -578 0
-531 -579 0
-532 -580 0
-529 -593 0
-530 -594 0
-531 -595 0
-532 -596 0
-533 -541 0
-534 -542 0
-535 -543 0
-536 -544 0
-533 -565 0
-534 -566 0
-535 -567 0
-536 -568 0
-533 -573 0
-534 -574 0
-535 -575 0
-536 -576 0
-533 -577 0
-534 -578 0
-535 -579 0
-536 -580 0
-533 -581 0
-534 -582 0
-535 -583 0
-536 -584 0
-533 -597 0
-534 -598 0
-535 -599 0
-536 -600 0
-537 -541 0
-538 -542 0
-539 -543 0
-540 -544 0
-537 -565 0
-538 -566 0
-539 -567 0
-540 -568 0
-537 -581 0
-538 -582 0
-539 -583 0
-540 -584 0
-537 -589 0
-538 -590 0
-539 -591 0
-540 -592 0
-537 -593 0
-538 -594 0
-539 -595 0
-540 -596 0
-537 -597 0
-538 -598 0
-539 -599 0
-540 -600 0
-541 -545 0
-542 -546 0
-543 -547 0
-544 -548 0
-541 -561 0
-542 -562 0
-543 -563 0
-544 -564 0
-541 -569 0
-542 -570 0
-543 -571 0
-544 -572 0
-541 -581 0
-542 -582 0
-543 -583 0
-544 -584 0
-541 -589 0
-542 -590 0
-543 -591 0
-544 -592 0
-541 -597 0
-542 -598 0
-543 -599 0
-544 -600 0
-545 -549 0
-546 -550 0
-547 -551 0
-548 -552 0
-545 -557 0
-546 -558 0
-547 -559 0
-548 -560 0
-545 -561 0
-546 -562 0
-547 -563 0
-548 -564 0
-545 -569 0
-546 -570 0
-547 -571 0
-548 -572 0
-545 -573 0
-546 -574 0
-547 -575 0
-548 -576 0
-545 -577 0
-546 -578 0
-547 -579 0
-548 -580 0
-545 -581 0
-546 -582 0
-547 -583 0
-548 -584 0
-545 -585 0
-546 -586 0
-547 -587 0
-548 -588 0
-549 -553 0
-550 -554 0
-551 -555 0
-552 -556 0
-549 -557 0
-550 -558 0
-551 -559 0
-552 -560 0
-549 -561 0
-550 -562 0
-551 -563 0
-552 -564 0
-549 -565 0
-550 -566 0
-551 -567 0
-552 -568 0
-549 -581 0
-550 -582 0
-551 -583 0
-552 -584 0
-549 -597 0
-550 -598 0
-551 -599 0
-552 -600 0
-553 -573 0
-554 -574 0
-555 -575 0
-556 -576 0
-553 -577 0
-554 -578 0
-555 -579 0
-556 -580 0
-553 -581 0
-554 -582 0
-555 -583 0
-556 -584 0
-553 -589 0
-554 -590 0
-555 -591 0
-556 -592 0
-553 -593 0
-554 -594 0
-555 -595 0
-556 -596 0
-553 -597 0
-554 -598 0
-555 -599 0
-556 -600 0
-557 -577 0
-558 -578 0
-559 -579 0
-560 -580 0
-557 -581 0
-558 -582 0
-559 -583 0
-560 -584 0
-557 -593 0
-558 -594 0
-559 -595 0
-560 -596 0
-557 -597 0
-558 -598 0
-559 -599 0
-560 -600 0
-561 -565 0
-562 -566 0
-563 -567 0
-564 -568 0
-561 -573 0
-562 -574 0
-563 -575 0
-564 -576 0
-561 -577 0
-562 -578 0
-563 -579 0
-564 -580 0
-561 -581 0
-562 -582 0
-563 -583 0
-564 -584 0
-561 -589 0
-562 -590 0
-563 -591 0
-564 -592 0
-561 -593 0
-562 -594 0
-563 -595 0
-564 -596 0
-565 -569 0
-566 -570 0
-567 -571 0
-568 -572 0
-565 -593 0
-566 -594 0
-567 -595 0
-568 -596 0
-569 -573 0
-570 -574 0
-571 -575 0
-572 -576 0
-569 -577 0
-570 -578 0
-571 -579 0
-572 -580 0
-569 -581 0
-570 -582 0
-571 -583 0
-572 -584 0
-569 -593 0
-570 -594 0
-571 -595 0
-572 -596 0
-573 -581 0
-574 -582 0
-575 -583 0
-576 -584 0
-573 -585 0
-574 -586 0
-575 -587 0
-576 -588 0
-577 -581 0
-578 -582 0
-579 -583 0
-580 -584 0
-577 -585 0
-578 -586 0
-579 -587 0
-580 -588 0
-577 -589 0
-578 -590 0
-579 -591 0
-580 -592 0
-577 -597 0
-578 -598 0
-579 -599 0
-580 -600 0
-585 -589 0
-586 -590 0
-587 -591 0
-588 -592 0
-585 -593 0
-586 -594 0
-587 -595 0
-588 -596 0
-589 -593 0
-590 -594 0
-591 -595 0
-592 -596 0
-593 -597 0
-594 -598 0
-595 -599 0
-596 -600 0
