c family: Tseitin parity on 3-regular graph
c known_status: SAT
c difficulty_level: hard
c description: larger Tseitin parity formula
c generated: deterministic complex CNF training pack
p cnf 150 400
1 2 3 0
1 -2 -3 0
-1 2 -3 0
-1 -2 3 0
4 5 6 0
4 -5 -6 0
-4 5 -6 0
-4 -5 6 0
4 7 8 0
4 -7 -8 0
-4 7 -8 0
-4 -7 8 0
9 10 -11 0
9 -10 11 0
-9 10 11 0
-9 -10 -11 0
5 12 -13 0
5 -12 13 0
-5 12 13 0
-5 -12 -13 0
14 15 -16 0
14 -15 16 0
-14 15 16 0
-14 -15 -16 0
17 18 -19 0
17 -18 19 0
-17 18 19 0
-17 -18 -19 0
20 21 -22 0
20 -21 22 0
-20 21 22 0
-20 -21 -22 0
23 24 25 0
23 -24 -25 0
-23 24 -25 0
-23 -24 25 0
26 27 28 0
26 -27 -28 0
-26 27 -28 0
-26 -27 28 0
29 30 31 0
29 -30 -31 0
-29 30 -31 0
-29 -30 31 0
32 33 -34 0
32 -33 34 0
-32 33 34 0
-32 -33 -34 0
35 36 -37 0
35 -36 37 0
-35 36 37 0
-35 -36 -37 0
38 39 -40 0
38 -39 40 0
-38 39 40 0
-38 -39 -40 0
1 41 -42 0
1 -41 42 0
-1 41 42 0
-1 -41 -42 0
43 44 -45 0
43 -44 45 0
-43 44 45 0
-43 -44 -45 0
29 46 -47 0
29 -46 47 0
-29 46 47 0
-29 -46 -47 0
48 49 50 0
48 -49 -50 0
-48 49 -50 0
-48 -49 50 0
51 52 53 0
51 -52 -53 0
-51 52 -53 0
-51 -52 53 0
17 32 54 0
17 -32 -54 0
-17 32 -54 0
-17 -32 54 0
55 56 -57 0
55 -56 57 0
-55 56 57 0
-55 -56 -57 0
41 58 -59 0
41 -58 59 0
-41 58 59 0
-41 -58 -59 0
60 61 62 0
60 -61 -62 0
-60 61 -62 0
-60 -61 62 0
63 64 -65 0
63 -64 65 0
-63 64 65 0
-63 -64 -65 0
46 66 -67 0
46 -66 67 0
-46 66 67 0
-46 -66 -67 0
68 69 -70 0
68 -69 70 0
-68 69 70 0
-68 -69 -70 0
12 71 -72 0
12 -71 72 0
-12 71 72 0
-12 -71 -72 0
73 74 75 0
73 -74 -75 0
-73 74 -75 0
-73 -74 75 0
23 76 -77 0
23 -76 77 0
-23 76 77 0
-23 -76 -77 0
71 78 79 0
71 -78 -79 0
-71 78 -79 0
-71 -78 79 0
43 80 -81 0
43 -80 81 0
-43 80 81 0
-43 -80 -81 0
82 83 84 0
82 -83 -84 0
-82 83 -84 0
-82 -83 84 0
80 85 -86 0
80 -85 86 0
-80 85 86 0
-80 -85 -86 0
6 72 -87 0
6 -72 87 0
-6 72 87 0
-6 -72 -87 0
20 26 60 0
20 -26 -60 0
-20 26 -60 0
-20 -26 60 0
30 66 -68 0
30 -66 68 0
-30 66 68 0
-30 -66 -68 0
55 88 -89 0
55 -88 89 0
-55 88 89 0
-55 -88 -89 0
58 90 -91 0
58 -90 91 0
-58 90 91 0
-58 -90 -91 0
21 92 93 0
21 -92 -93 0
-21 92 -93 0
-21 -92 93 0
94 95 -96 0
94 -95 96 0
-94 95 96 0
-94 -95 -96 0
97 98 99 0
97 -98 -99 0
-97 98 -99 0
-97 -98 99 0
85 100 -101 0
85 -100 101 0
-85 100 101 0
-85 -100 -101 0
54 67 102 0
54 -67 -102 0
-54 67 -102 0
-54 -67 102 0
9 97 -103 0
9 -97 103 0
-9 97 103 0
-9 -97 -103 0
78 104 105 0
78 -104 -105 0
-78 104 -105 0
-78 -104 105 0
7 44 51 0
7 -44 -51 0
-7 44 -51 0
-7 -44 51 0
69 94 -106 0
69 -94 106 0
-69 94 106 0
-69 -94 -106 0
107 108 -109 0
107 -108 109 0
-107 108 109 0
-107 -108 -109 0
104 110 -111 0
104 -110 111 0
-104 110 111 0
-104 -110 -111 0
79 87 -110 0
79 -87 110 0
-79 87 110 0
-79 -87 -110 0
63 112 -113 0
63 -112 113 0
-63 112 113 0
-63 -112 -113 0
114 115 116 0
114 -115 -116 0
-114 115 -116 0
-114 -115 116 0
31 70 -95 0
31 -70 95 0
-31 70 95 0
-31 -70 -95 0
112 117 -118 0
112 -117 118 0
-112 117 118 0
-112 -117 -118 0
82 105 119 0
82 -105 -119 0
-82 105 -119 0
-82 -105 119 0
14 24 120 0
14 -24 -120 0
-14 24 -120 0
-14 -24 120 0
38 61 121 0
38 -61 -121 0
-38 61 -121 0
-38 -61 121 0
76 114 122 0
76 -114 -122 0
-76 114 -122 0
-76 -114 122 0
10 39 98 0
10 -39 -98 0
-10 39 -98 0
-10 -39 98 0
92 123 -124 0
92 -123 124 0
-92 123 124 0
-92 -123 -124 0
111 119 125 0
111 -119 -125 0
-111 119 -125 0
-111 -119 125 0
11 40 126 0
11 -40 -126 0
-11 40 -126 0
-11 -40 126 0
107 127 -128 0
107 -127 128 0
-107 127 128 0
-107 -127 -128 0
48 129 130 0
48 -129 -130 0
-48 129 -130 0
-48 -129 130 0
49 123 131 0
49 -123 -131 0
-49 123 -131 0
-49 -123 131 0
93 132 133 0
93 -132 -133 0
-93 132 -133 0
-93 -132 133 0
42 90 134 0
42 -90 -134 0
-42 90 -134 0
-42 -90 134 0
56 122 135 0
56 -122 -135 0
-56 122 -135 0
-56 -122 135 0
45 52 86 0
45 -52 -86 0
-45 52 -86 0
-45 -52 86 0
50 113 136 0
50 -113 -136 0
-50 113 -136 0
-50 -113 136 0
22 27 132 0
22 -27 -132 0
-22 27 -132 0
-22 -27 132 0
2 35 137 0
2 -35 -137 0
-2 35 -137 0
-2 -35 137 0
77 115 -120 0
77 -115 120 0
-77 115 120 0
-77 -115 -120 0
28 62 -138 0
28 -62 138 0
-28 62 138 0
-28 -62 -138 0
8 13 53 0
8 -13 -53 0
-8 13 -53 0
-8 -13 53 0
15 100 -139 0
15 -100 139 0
-15 100 139 0
-15 -100 -139 0
88 116 -135 0
88 -116 135 0
-88 116 135 0
-88 -116 -135 0
103 140 -141 0
103 -140 141 0
-103 140 141 0
-103 -140 -141 0
18 47 102 0
18 -47 -102 0
-18 47 -102 0
-18 -47 102 0
99 108 140 0
99 -108 -140 0
-99 108 -140 0
-99 -108 140 0
109 141 -142 0
109 -141 142 0
-109 141 142 0
-109 -141 -142 0
33 73 -127 0
33 -73 127 0
-33 73 127 0
-33 -73 -127 0
74 128 142 0
74 -128 -142 0
-74 128 -142 0
-74 -128 142 0
139 143 144 0
139 -143 -144 0
-139 143 -144 0
-139 -143 144 0
137 145 -146 0
137 -145 146 0
-137 145 146 0
-137 -145 -146 0
129 131 -147 0
129 -131 147 0
-129 131 147 0
-129 -131 -147 0
3 134 -145 0
3 -134 145 0
-3 134 145 0
-3 -134 -145 0
91 106 -148 0
91 -106 148 0
-91 106 148 0
-91 -106 -148 0
124 133 -147 0
124 -133 147 0
-124 133 147 0
-124 -133 -147 0
83 117 125 0
83 -117 -125 0
-83 117 -125 0
-83 -117 125 0
16 25 143 0
16 -25 -143 0
-16 25 -143 0
-16 -25 143 0
59 96 -148 0
59 -96 148 0
-59 96 148 0
-59 -96 -148 0
81 101 -144 0
81 -101 144 0
-81 101 144 0
-81 -101 -144 0
64 84 118 0
64 -84 -118 0
-64 84 -118 0
-64 -84 118 0
89 149 150 0
89 -149 -150 0
-89 149 -150 0
-89 -149 150 0
36 57 -149 0
36 -57 149 0
-36 57 149 0
-36 -57 -149 0
37 146 150 0
37 -146 -150 0
-37 146 -150 0
-37 -146 150 0
65 130 -136 0
65 -130 136 0
-65 130 136 0
-65 -130 -136 0
19 34 -75 0
19 -34 75 0
-19 34 75 0
-19 -34 -75 0
121 126 -138 0
121 -126 138 0
-121 126 138 0
-121 -126 -138 0
