c family: Tseitin parity on 3-regular graph
c known_status: SAT
c difficulty_level: hard
c description: larger Tseitin parity formula
c generated: deterministic complex CNF training pack
p cnf 240 640
1 2 -3 0
1 -2 3 0
-1 2 3 0
-1 -2 -3 0
4 5 -6 0
4 -5 6 0
-4 5 6 0
-4 -5 -6 0
7 8 9 0
7 -8 -9 0
-7 8 -9 0
-7 -8 9 0
10 11 -12 0
10 -11 12 0
-10 11 12 0
-10 -11 -12 0
13 14 15 0
13 -14 -15 0
-13 14 -15 0
-13 -14 15 0
16 17 -18 0
16 -17 18 0
-16 17 18 0
-16 -17 -18 0
19 20 -21 0
19 -20 21 0
-19 20 21 0
-19 -20 -21 0
22 23 24 0
22 -23 -24 0
-22 23 -24 0
-22 -23 24 0
7 25 26 0
7 -25 -26 0
-7 25 -26 0
-7 -25 26 0
27 28 29 0
27 -28 -29 0
-27 28 -29 0
-27 -28 29 0
25 30 31 0
25 -30 -31 0
-25 30 -31 0
-25 -30 31 0
32 33 34 0
32 -33 -34 0
-32 33 -34 0
-32 -33 34 0
8 30 35 0
8 -30 -35 0
-8 30 -35 0
-8 -30 35 0
36 37 38 0
36 -37 -38 0
-36 37 -38 0
-36 -37 38 0
26 39 40 0
26 -39 -40 0
-26 39 -40 0
-26 -39 40 0
41 42 -43 0
41 -42 43 0
-41 42 43 0
-41 -42 -43 0
44 45 46 0
44 -45 -46 0
-44 45 -46 0
-44 -45 46 0
47 48 -49 0
47 -48 49 0
-47 48 49 0
-47 -48 -49 0
50 51 52 0
50 -51 -52 0
-50 51 -52 0
-50 -51 52 0
53 54 -55 0
53 -54 55 0
-53 54 55 0
-53 -54 -55 0
56 57 -58 0
56 -57 58 0
-56 57 58 0
-56 -57 -58 0
27 59 60 0
27 -59 -60 0
-27 59 -60 0
-27 -59 60 0
61 62 -63 0
61 -62 63 0
-61 62 63 0
-61 -62 -63 0
64 65 -66 0
64 -65 66 0
-64 65 66 0
-64 -65 -66 0
1 67 -68 0
1 -67 68 0
-1 67 68 0
-1 -67 -68 0
41 69 70 0
41 -69 -70 0
-41 69 -70 0
-41 -69 70 0
71 72 -73 0
71 -72 73 0
-71 72 73 0
-71 -72 -73 0
74 75 -76 0
74 -75 76 0
-74 75 76 0
-74 -75 -76 0
77 78 -79 0
77 -78 79 0
-77 78 79 0
-77 -78 -79 0
80 81 82 0
80 -81 -82 0
-80 81 -82 0
-80 -81 82 0
42 83 84 0
42 -83 -84 0
-42 83 -84 0
-42 -83 84 0
85 86 87 0
85 -86 -87 0
-85 86 -87 0
-85 -86 87 0
88 89 -90 0
88 -89 90 0
-88 89 90 0
-88 -89 -90 0
91 92 -93 0
91 -92 93 0
-91 92 93 0
-91 -92 -93 0
10 94 95 0
10 -94 -95 0
-10 94 -95 0
-10 -94 95 0
94 96 -97 0
94 -96 97 0
-94 96 97 0
-94 -96 -97 0
98 99 -100 0
98 -99 100 0
-98 99 100 0
-98 -99 -100 0
56 101 -102 0
56 -101 102 0
-56 101 102 0
-56 -101 -102 0
103 104 105 0
103 -104 -105 0
-103 104 -105 0
-103 -104 105 0
88 106 107 0
88 -106 -107 0
-88 106 -107 0
-88 -106 107 0
69 108 -109 0
69 -108 109 0
-69 108 109 0
-69 -108 -109 0
32 53 110 0
32 -53 -110 0
-32 53 -110 0
-32 -53 110 0
16 91 -111 0
16 -91 111 0
-16 91 111 0
-16 -91 -111 0
112 113 -114 0
112 -113 114 0
-112 113 114 0
-112 -113 -114 0
115 116 117 0
115 -116 -117 0
-115 116 -117 0
-115 -116 117 0
103 118 -119 0
103 -118 119 0
-103 118 119 0
-103 -118 -119 0
44 104 120 0
44 -104 -120 0
-44 104 -120 0
-44 -104 120 0
19 121 122 0
19 -121 -122 0
-19 121 -122 0
-19 -121 122 0
28 123 -124 0
28 -123 124 0
-28 123 124 0
-28 -123 -124 0
45 125 126 0
45 -125 -126 0
-45 125 -126 0
-45 -125 126 0
47 127 -128 0
47 -127 128 0
-47 127 128 0
-47 -127 -128 0
20 22 -129 0
20 -22 129 0
-20 22 129 0
-20 -22 -129 0
130 131 132 0
130 -131 -132 0
-130 131 -132 0
-130 -131 132 0
74 123 133 0
74 -123 -133 0
-74 123 -133 0
-74 -123 133 0
134 135 -136 0
134 -135 136 0
-134 135 136 0
-134 -135 -136 0
77 110 137 0
77 -110 -137 0
-77 110 -137 0
-77 -110 137 0
80 85 -92 0
80 -85 92 0
-80 85 92 0
-80 -85 -92 0
138 139 -140 0
138 -139 140 0
-138 139 140 0
-138 -139 -140 0
141 142 143 0
141 -142 -143 0
-141 142 -143 0
-141 -142 143 0
144 145 146 0
144 -145 -146 0
-144 145 -146 0
-144 -145 146 0
71 125 147 0
71 -125 -147 0
-71 125 -147 0
-71 -125 147 0
64 148 -149 0
64 -148 149 0
-64 148 149 0
-64 -148 -149 0
31 39 144 0
31 -39 -144 0
-31 39 -144 0
-31 -39 144 0
127 141 -150 0
127 -141 150 0
-127 141 150 0
-127 -141 -150 0
118 151 -152 0
118 -151 152 0
-118 151 152 0
-118 -151 -152 0
153 154 -155 0
153 -154 155 0
-153 154 155 0
-153 -154 -155 0
78 145 -156 0
78 -145 156 0
-78 145 156 0
-78 -145 -156 0
134 157 -158 0
134 -157 158 0
-134 157 158 0
-134 -157 -158 0
4 13 -159 0
4 -13 159 0
-4 13 159 0
-4 -13 -159 0
160 161 -162 0
160 -161 162 0
-160 161 162 0
-160 -161 -162 0
89 163 -164 0
89 -163 164 0
-89 163 164 0
-89 -163 -164 0
121 129 -165 0
121 -129 165 0
-121 129 165 0
-121 -129 -165 0
35 166 167 0
35 -166 -167 0
-35 166 -167 0
-35 -166 167 0
157 168 -169 0
157 -168 169 0
-157 168 169 0
-157 -168 -169 0
98 166 170 0
98 -166 -170 0
-98 166 -170 0
-98 -166 170 0
106 163 171 0
106 -163 -171 0
-106 163 -171 0
-106 -163 171 0
5 14 172 0
5 -14 -172 0
-5 14 -172 0
-5 -14 172 0
160 173 174 0
160 -173 -174 0
-160 173 -174 0
-160 -173 174 0
46 147 175 0
46 -147 -175 0
-46 147 -175 0
-46 -147 175 0
176 177 178 0
176 -177 -178 0
-176 177 -178 0
-176 -177 178 0
171 179 180 0
171 -179 -180 0
-171 179 -180 0
-171 -179 180 0
61 75 181 0
61 -75 -181 0
-61 75 -181 0
-61 -75 181 0
182 183 184 0
182 -183 -184 0
-182 183 -184 0
-182 -183 184 0
9 99 -167 0
9 -99 167 0
-9 99 167 0
-9 -99 -167 0
165 185 186 0
165 -185 -186 0
-165 185 -186 0
-165 -185 186 0
40 79 146 0
40 -79 -146 0
-40 79 -146 0
-40 -79 146 0
111 187 188 0
111 -187 -188 0
-111 187 -188 0
-111 -187 188 0
57 189 -190 0
57 -189 190 0
-57 189 190 0
-57 -189 -190 0
83 182 191 0
83 -182 -191 0
-83 182 -191 0
-83 -182 191 0
2 138 192 0
2 -138 -192 0
-2 138 -192 0
-2 -138 192 0
151 193 -194 0
151 -193 194 0
-151 193 194 0
-151 -193 -194 0
50 195 -196 0
50 -195 196 0
-50 195 196 0
-50 -195 -196 0
84 183 -197 0
84 -183 197 0
-84 183 197 0
-84 -183 -197 0
72 126 -161 0
72 -126 161 0
-72 126 161 0
-72 -126 -161 0
96 112 198 0
96 -112 -198 0
-96 112 -198 0
-96 -112 198 0
11 172 199 0
11 -172 -199 0
-11 172 -199 0
-11 -172 199 0
200 201 202 0
200 -201 -202 0
-200 201 -202 0
-200 -201 202 0
115 148 203 0
115 -148 -203 0
-115 148 -203 0
-115 -148 203 0
36 204 -205 0
36 -204 205 0
-36 204 205 0
-36 -204 -205 0
159 206 207 0
159 -206 -207 0
-159 206 -207 0
-159 -206 207 0
128 142 -208 0
128 -142 208 0
-128 142 208 0
-128 -142 -208 0
90 100 209 0
90 -100 -209 0
-90 100 -209 0
-90 -100 209 0
105 152 210 0
105 -152 -210 0
-105 152 -210 0
-105 -152 210 0
59 211 -212 0
59 -211 212 0
-59 211 212 0
-59 -211 -212 0
60 124 -213 0
60 -124 213 0
-60 124 213 0
-60 -124 -213 0
211 213 214 0
211 -213 -214 0
-211 213 -214 0
-211 -213 214 0
130 153 173 0
130 -153 -173 0
-130 153 -173 0
-130 -153 173 0
67 101 -192 0
67 -101 192 0
-67 101 192 0
-67 -101 -192 0
65 195 -203 0
65 -195 203 0
-65 195 203 0
-65 -195 -203 0
86 93 187 0
86 -93 -187 0
-86 93 -187 0
-86 -93 187 0
143 215 -216 0
143 -215 216 0
-143 215 216 0
-143 -215 -216 0
6 95 -199 0
6 -95 199 0
-6 95 199 0
-6 -95 -199 0
135 200 217 0
135 -200 -217 0
-135 200 -217 0
-135 -200 217 0
113 218 219 0
113 -218 -219 0
-113 218 -219 0
-113 -218 219 0
201 220 -221 0
201 -220 221 0
-201 220 221 0
-201 -220 -221 0
66 196 -222 0
66 -196 222 0
-66 196 222 0
-66 -196 -222 0
51 81 176 0
51 -81 -176 0
-51 81 -176 0
-51 -81 176 0
198 218 -223 0
198 -218 223 0
-198 218 223 0
-198 -218 -223 0
154 224 225 0
154 -224 -225 0
-154 224 -225 0
-154 -224 225 0
29 133 -226 0
29 -133 226 0
-29 133 226 0
-29 -133 -226 0
62 219 227 0
62 -219 -227 0
-62 219 -227 0
-62 -219 227 0
164 170 -209 0
164 -170 209 0
-164 170 209 0
-164 -170 -209 0
179 208 215 0
179 -208 -215 0
-179 208 -215 0
-179 -208 215 0
63 76 226 0
63 -76 -226 0
-63 76 -226 0
-63 -76 226 0
82 87 177 0
82 -87 -177 0
-82 87 -177 0
-82 -87 177 0
224 228 229 0
224 -228 -229 0
-224 228 -229 0
-224 -228 229 0
68 102 -189 0
68 -102 189 0
-68 102 189 0
-68 -102 -189 0
131 174 230 0
131 -174 -230 0
-131 174 -230 0
-131 -174 230 0
139 225 -231 0
139 -225 231 0
-139 225 231 0
-139 -225 -231 0
197 232 -233 0
197 -232 233 0
-197 232 233 0
-197 -232 -233 0
21 23 -193 0
21 -23 193 0
-21 23 193 0
-21 -23 -193 0
3 140 -234 0
3 -140 234 0
-3 140 234 0
-3 -140 -234 0
108 214 235 0
108 -214 -235 0
-108 214 -235 0
-108 -214 235 0
12 97 -223 0
12 -97 223 0
-12 97 223 0
-12 -97 -223 0
70 212 -235 0
70 -212 235 0
-70 212 235 0
-70 -212 -235 0
158 217 -236 0
158 -217 236 0
-158 217 236 0
-158 -217 -236 0
17 48 150 0
17 -48 -150 0
-17 48 -150 0
-17 -48 150 0
24 194 210 0
24 -194 -210 0
-24 194 -210 0
-24 -194 210 0
184 204 -232 0
184 -204 232 0
-184 204 232 0
-184 -204 -232 0
119 120 -175 0
119 -120 175 0
-119 120 175 0
-119 -120 -175 0
116 149 -206 0
116 -149 206 0
-116 149 206 0
-116 -149 -206 0
18 49 -188 0
18 -49 188 0
-18 49 188 0
-18 -49 -188 0
33 54 185 0
33 -54 -185 0
-33 54 -185 0
-33 -54 185 0
37 136 -168 0
37 -136 168 0
-37 136 168 0
-37 -136 -168 0
15 117 -207 0
15 -117 207 0
-15 117 207 0
-15 -117 -207 0
228 231 -234 0
228 -231 234 0
-228 231 234 0
-228 -231 -234 0
55 137 156 0
55 -137 -156 0
-55 137 -156 0
-55 -137 156 0
34 122 186 0
34 -122 -186 0
-34 122 -186 0
-34 -122 186 0
205 233 237 0
205 -233 -237 0
-205 233 -237 0
-205 -233 237 0
202 236 -238 0
202 -236 238 0
-202 236 238 0
-202 -236 -238 0
73 162 -230 0
73 -162 230 0
-73 162 230 0
-73 -162 -230 0
190 220 -239 0
190 -220 239 0
-190 220 239 0
-190 -220 -239 0
43 109 -191 0
43 -109 191 0
-43 109 191 0
-43 -109 -191 0
114 181 -227 0
114 -181 227 0
-114 181 227 0
-114 -181 -227 0
107 180 -216 0
107 -180 216 0
-107 180 216 0
-107 -180 -216 0
221 238 240 0
221 -238 -240 0
-221 238 -240 0
-221 -238 240 0
38 169 -237 0
38 -169 237 0
-38 169 237 0
-38 -169 -237 0
58 239 -240 0
58 -239 240 0
-58 239 240 0
-58 -239 -240 0
132 155 229 0
132 -155 -229 0
-132 155 -229 0
-132 -155 229 0
52 178 -222 0
52 -178 222 0
-52 178 222 0
-52 -178 -222 0
