c family: Tseitin parity on 3-regular graph
c known_status: SAT
c difficulty_level: hard
c description: larger Tseitin parity formula
c generated: deterministic complex CNF training pack
p cnf 180 480
1 2 -3 0
1 -2 3 0
-1 2 3 0
-1 -2 -3 0
4 5 -6 0
4 -5 6 0
-4 5 6 0
-4 -5 -6 0
1 7 8 0
1 -7 -8 0
-1 7 -8 0
-1 -7 8 0
9 10 11 0
9 -10 -11 0
-9 10 -11 0
-9 -10 11 0
12 13 -14 0
12 -13 14 0
-12 13 14 0
-12 -13 -14 0
15 16 17 0
15 -16 -17 0
-15 16 -17 0
-15 -16 17 0
18 19 20 0
18 -19 -20 0
-18 19 -20 0
-18 -19 20 0
21 22 -23 0
21 -22 23 0
-21 22 23 0
-21 -22 -23 0
24 25 26 0
24 -25 -26 0
-24 25 -26 0
-24 -25 26 0
27 28 -29 0
27 -28 29 0
-27 28 29 0
-27 -28 -29 0
9 27 -30 0
9 -27 30 0
-9 27 30 0
-9 -27 -30 0
7 31 32 0
7 -31 -32 0
-7 31 -32 0
-7 -31 32 0
33 34 -35 0
33 -34 35 0
-33 34 35 0
-33 -34 -35 0
36 37 -38 0
36 -37 38 0
-36 37 38 0
-36 -37 -38 0
39 40 -41 0
39 -40 41 0
-39 40 41 0
-39 -40 -41 0
4 42 -43 0
4 -42 43 0
-4 42 43 0
-4 -42 -43 0
44 45 -46 0
44 -45 46 0
-44 45 46 0
-44 -45 -46 0
47 48 49 0
47 -48 -49 0
-47 48 -49 0
-47 -48 49 0
44 50 -51 0
44 -50 51 0
-44 50 51 0
-44 -50 -51 0
52 53 54 0
52 -53 -54 0
-52 53 -54 0
-52 -53 54 0
33 55 -56 0
33 -55 56 0
-33 55 56 0
-33 -55 -56 0
57 58 59 0
57 -58 -59 0
-57 58 -59 0
-57 -58 59 0
60 61 -62 0
60 -61 62 0
-60 61 62 0
-60 -61 -62 0
63 64 65 0
63 -64 -65 0
-63 64 -65 0
-63 -64 65 0
66 67 68 0
66 -67 -68 0
-66 67 -68 0
-66 -67 68 0
69 70 71 0
69 -70 -71 0
-69 70 -71 0
-69 -70 71 0
39 72 73 0
39 -72 -73 0
-39 72 -73 0
-39 -72 73 0
5 74 -75 0
5 -74 75 0
-5 74 75 0
-5 -74 -75 0
45 76 77 0
45 -76 -77 0
-45 76 -77 0
-45 -76 77 0
30 46 -78 0
30 -46 78 0
-30 46 78 0
-30 -46 -78 0
79 80 -81 0
79 -80 81 0
-79 80 81 0
-79 -80 -81 0
82 83 -84 0
82 -83 84 0
-82 83 84 0
-82 -83 -84 0
10 85 86 0
10 -85 -86 0
-10 85 -86 0
-10 -85 86 0
87 88 -89 0
87 -88 89 0
-87 88 89 0
-87 -88 -89 0
60 90 -91 0
60 -90 91 0
-60 90 91 0
-60 -90 -91 0
24 90 92 0
24 -90 -92 0
-24 90 -92 0
-24 -90 92 0
93 94 95 0
93 -94 -95 0
-93 94 -95 0
-93 -94 95 0
74 96 97 0
74 -96 -97 0
-74 96 -97 0
-74 -96 97 0
85 98 99 0
85 -98 -99 0
-85 98 -99 0
-85 -98 99 0
8 100 101 0
8 -100 -101 0
-8 100 -101 0
-8 -100 101 0
102 103 104 0
102 -103 -104 0
-102 103 -104 0
-102 -103 104 0
105 106 -107 0
105 -106 107 0
-105 106 107 0
-105 -106 -107 0
15 108 109 0
15 -108 -109 0
-15 108 -109 0
-15 -108 109 0
110 111 -112 0
110 -111 112 0
-110 111 112 0
-110 -111 -112 0
47 66 -113 0
47 -66 113 0
-47 66 113 0
-47 -66 -113 0
55 114 115 0
55 -114 -115 0
-55 114 -115 0
-55 -114 115 0
108 116 -117 0
108 -116 117 0
-108 116 117 0
-108 -116 -117 0
72 118 119 0
72 -118 -119 0
-72 118 -119 0
-72 -118 119 0
52 120 -121 0
52 -120 121 0
-52 120 121 0
-52 -120 -121 0
79 122 123 0
79 -122 -123 0
-79 122 -123 0
-79 -122 123 0
42 124 125 0
42 -124 -125 0
-42 124 -125 0
-42 -124 125 0
110 126 127 0
110 -126 -127 0
-110 126 -127 0
-110 -126 127 0
128 129 -130 0
128 -129 130 0
-128 129 130 0
-128 -129 -130 0
124 131 -132 0
124 -131 132 0
-124 131 132 0
-124 -131 -132 0
57 111 -133 0
57 -111 133 0
-57 111 133 0
-57 -111 -133 0
122 134 -135 0
122 -134 135 0
-122 134 135 0
-122 -134 -135 0
53 136 137 0
53 -136 -137 0
-53 136 -137 0
-53 -136 137 0
118 138 139 0
118 -138 -139 0
-118 138 -139 0
-118 -138 139 0
2 50 76 0
2 -50 -76 0
-2 50 -76 0
-2 -50 76 0
75 140 -141 0
75 -140 141 0
-75 140 141 0
-75 -140 -141 0
93 120 -128 0
93 -120 128 0
-93 120 128 0
-93 -120 -128 0
123 142 143 0
123 -142 -143 0
-123 142 -143 0
-123 -142 143 0
21 67 -144 0
21 -67 144 0
-21 67 144 0
-21 -67 -144 0
92 105 145 0
92 -105 -145 0
-92 105 -145 0
-92 -105 145 0
31 146 147 0
31 -146 -147 0
-31 146 -147 0
-31 -146 147 0
63 69 148 0
63 -69 -148 0
-63 69 -148 0
-63 -69 148 0
133 149 -150 0
133 -149 150 0
-133 149 150 0
-133 -149 -150 0
36 146 151 0
36 -146 -151 0
-36 146 -151 0
-36 -146 151 0
112 149 -152 0
112 -149 152 0
-112 149 152 0
-112 -149 -152 0
11 28 98 0
11 -28 -98 0
-11 28 -98 0
-11 -28 98 0
153 154 -155 0
153 -154 155 0
-153 154 155 0
-153 -154 -155 0
12 48 -156 0
12 -48 156 0
-12 48 156 0
-12 -48 -156 0
80 134 157 0
80 -134 -157 0
-80 134 -157 0
-80 -134 157 0
94 121 -136 0
94 -121 136 0
-94 121 136 0
-94 -121 -136 0
18 102 -142 0
18 -102 142 0
-18 102 142 0
-18 -102 -142 0
64 70 -96 0
64 -70 96 0
-64 70 96 0
-64 -70 -96 0
65 97 140 0
65 -97 -140 0
-65 97 -140 0
-65 -97 140 0
43 131 -158 0
43 -131 158 0
-43 131 158 0
-43 -131 -158 0
34 61 -114 0
34 -61 114 0
-34 61 114 0
-34 -61 -114 0
29 77 78 0
29 -77 -78 0
-29 77 -78 0
-29 -77 78 0
82 138 159 0
82 -138 -159 0
-82 138 -159 0
-82 -138 159 0
113 156 160 0
113 -156 -160 0
-113 156 -160 0
-113 -156 160 0
25 145 161 0
25 -145 -161 0
-25 145 -161 0
-25 -145 161 0
16 162 -163 0
16 -162 163 0
-16 162 163 0
-16 -162 -163 0
62 115 -164 0
62 -115 164 0
-62 115 164 0
-62 -115 -164 0
95 129 165 0
95 -129 -165 0
-95 129 -165 0
-95 -129 165 0
162 165 -166 0
162 -165 166 0
-162 165 166 0
-162 -165 -166 0
37 147 167 0
37 -147 -167 0
-37 147 -167 0
-37 -147 167 0
3 51 -100 0
3 -51 100 0
-3 51 100 0
-3 -51 -100 0
13 126 152 0
13 -126 -152 0
-13 126 -152 0
-13 -126 152 0
6 141 -158 0
6 -141 158 0
-6 141 158 0
-6 -141 -158 0
125 153 168 0
125 -153 -168 0
-125 153 -168 0
-125 -153 168 0
106 161 -169 0
106 -161 169 0
-106 161 169 0
-106 -161 -169 0
109 163 -170 0
109 -163 170 0
-109 163 170 0
-109 -163 -170 0
73 83 -139 0
73 -83 139 0
-73 83 139 0
-73 -83 -139 0
35 86 -171 0
35 -86 171 0
-35 86 171 0
-35 -86 -171 0
19 103 172 0
19 -103 -172 0
-19 103 -172 0
-19 -103 172 0
20 135 -143 0
20 -135 143 0
-20 135 143 0
-20 -135 -143 0
84 116 -173 0
84 -116 173 0
-84 116 173 0
-84 -116 -173 0
58 150 174 0
58 -150 -174 0
-58 150 -174 0
-58 -150 174 0
54 81 175 0
54 -81 -175 0
-54 81 -175 0
-54 -81 175 0
117 170 -176 0
117 -170 176 0
-117 170 176 0
-117 -170 -176 0
87 154 -177 0
87 -154 177 0
-87 154 177 0
-87 -154 -177 0
14 49 127 0
14 -49 -127 0
-14 49 -127 0
-14 -49 127 0
17 130 166 0
17 -130 -166 0
-17 130 -166 0
-17 -130 166 0
104 174 -178 0
104 -174 178 0
-104 174 178 0
-104 -174 -178 0
26 91 -164 0
26 -91 164 0
-26 91 164 0
-26 -91 -164 0
22 68 160 0
22 -68 -160 0
-22 68 -160 0
-22 -68 160 0
137 157 175 0
137 -157 -175 0
-137 157 -175 0
-137 -157 175 0
159 173 176 0
159 -173 -176 0
-159 173 -176 0
-159 -173 176 0
56 99 171 0
56 -99 -171 0
-56 99 -171 0
-56 -99 171 0
144 151 -179 0
144 -151 179 0
-144 151 179 0
-144 -151 -179 0
107 148 -180 0
107 -148 180 0
-107 148 180 0
-107 -148 -180 0
40 88 155 0
40 -88 -155 0
-40 88 -155 0
-40 -88 155 0
71 169 -180 0
71 -169 180 0
-71 169 180 0
-71 -169 -180 0
32 101 -167 0
32 -101 167 0
-32 101 167 0
-32 -101 -167 0
23 38 -179 0
23 -38 179 0
-23 38 179 0
-23 -38 -179 0
132 168 177 0
132 -168 -177 0
-132 168 -177 0
-132 -168 177 0
41 89 -119 0
41 -89 119 0
-41 89 119 0
-41 -89 -119 0
59 172 178 0
59 -172 -178 0
-59 172 -178 0
-59 -172 178 0
