c family: inconsistent sparse XOR system encoded as CNF
c known_status: UNSAT
c difficulty_level: hard
c description: larger linear-algebraic UNSAT parity contradiction
c generated: deterministic complex CNF training pack
p cnf 180 1544
37 165 176 0
37 -165 -176 0
-37 165 -176 0
-37 -165 176 0
43 47 132 0
43 -47 -132 0
-43 47 -132 0
-43 -47 132 0
3 60 141 148 0
3 60 -141 -148 0
3 -60 141 -148 0
3 -60 -141 148 0
-3 60 141 -148 0
-3 60 -141 148 0
-3 -60 141 148 0
-3 -60 -141 -148 0
28 92 127 130 0
28 92 -127 -130 0
28 -92 127 -130 0
28 -92 -127 130 0
-28 92 127 -130 0
-28 92 -127 130 0
-28 -92 127 130 0
-28 -92 -127 -130 0
54 96 98 0
54 -96 -98 0
-54 96 -98 0
-54 -96 98 0
24 51 92 0
24 -51 -92 0
-24 51 -92 0
-24 -51 92 0
30 50 117 149 0
30 50 -117 -149 0
30 -50 117 -149 0
30 -50 -117 149 0
-30 50 117 -149 0
-30 50 -117 149 0
-30 -50 117 149 0
-30 -50 -117 -149 0
46 93 -151 0
46 -93 151 0
-46 93 151 0
-46 -93 -151 0
88 123 138 147 0
88 123 -138 -147 0
88 -123 138 -147 0
88 -123 -138 147 0
-88 123 138 -147 0
-88 123 -138 147 0
-88 -123 138 147 0
-88 -123 -138 -147 0
64 154 176 0
64 -154 -176 0
-64 154 -176 0
-64 -154 176 0
35 104 107 -127 0
35 104 -107 127 0
35 -104 107 127 0
35 -104 -107 -127 0
-35 104 107 127 0
-35 104 -107 -127 0
-35 -104 107 -127 0
-35 -104 -107 127 0
5 16 102 164 0
5 16 -102 -164 0
5 -16 102 -164 0
5 -16 -102 164 0
-5 16 102 -164 0
-5 16 -102 164 0
-5 -16 102 164 0
-5 -16 -102 -164 0
22 102 115 0
22 -102 -115 0
-22 102 -115 0
-22 -102 115 0
99 150 169 0
99 -150 -169 0
-99 150 -169 0
-99 -150 169 0
76 82 104 152 0
76 82 -104 -152 0
76 -82 104 -152 0
76 -82 -104 152 0
-76 82 104 -152 0
-76 82 -104 152 0
-76 -82 104 152 0
-76 -82 -104 -152 0
66 130 -156 0
66 -130 156 0
-66 130 156 0
-66 -130 -156 0
34 104 123 -137 0
34 104 -123 137 0
34 -104 123 137 0
34 -104 -123 -137 0
-34 104 123 137 0
-34 104 -123 -137 0
-34 -104 123 -137 0
-34 -104 -123 137 0
75 113 137 163 0
75 113 -137 -163 0
75 -113 137 -163 0
75 -113 -137 163 0
-75 113 137 -163 0
-75 113 -137 163 0
-75 -113 137 163 0
-75 -113 -137 -163 0
91 96 100 125 0
91 96 -100 -125 0
91 -96 100 -125 0
91 -96 -100 125 0
-91 96 100 -125 0
-91 96 -100 125 0
-91 -96 100 125 0
-91 -96 -100 -125 0
118 133 -146 0
118 -133 146 0
-118 133 146 0
-118 -133 -146 0
14 77 104 -165 0
14 77 -104 165 0
14 -77 104 165 0
14 -77 -104 -165 0
-14 77 104 165 0
-14 77 -104 -165 0
-14 -77 104 -165 0
-14 -77 -104 165 0
32 58 -85 0
32 -58 85 0
-32 58 85 0
-32 -58 -85 0
72 87 94 107 0
72 87 -94 -107 0
72 -87 94 -107 0
72 -87 -94 107 0
-72 87 94 -107 0
-72 87 -94 107 0
-72 -87 94 107 0
-72 -87 -94 -107 0
7 10 -121 0
7 -10 121 0
-7 10 121 0
-7 -10 -121 0
87 120 150 -160 0
87 120 -150 160 0
87 -120 150 160 0
87 -120 -150 -160 0
-87 120 150 160 0
-87 120 -150 -160 0
-87 -120 150 -160 0
-87 -120 -150 160 0
86 122 138 -163 0
86 122 -138 163 0
86 -122 138 163 0
86 -122 -138 -163 0
-86 122 138 163 0
-86 122 -138 -163 0
-86 -122 138 -163 0
-86 -122 -138 163 0
53 118 137 -176 0
53 118 -137 176 0
53 -118 137 176 0
53 -118 -137 -176 0
-53 118 137 176 0
-53 118 -137 -176 0
-53 -118 137 -176 0
-53 -118 -137 176 0
93 109 159 171 0
93 109 -159 -171 0
93 -109 159 -171 0
93 -109 -159 171 0
-93 109 159 -171 0
-93 109 -159 171 0
-93 -109 159 171 0
-93 -109 -159 -171 0
75 101 -161 0
75 -101 161 0
-75 101 161 0
-75 -101 -161 0
26 55 139 -169 0
26 55 -139 169 0
26 -55 139 169 0
26 -55 -139 -169 0
-26 55 139 169 0
-26 55 -139 -169 0
-26 -55 139 -169 0
-26 -55 -139 169 0
15 76 78 164 0
15 76 -78 -164 0
15 -76 78 -164 0
15 -76 -78 164 0
-15 76 78 -164 0
-15 76 -78 164 0
-15 -76 78 164 0
-15 -76 -78 -164 0
53 114 115 0
53 -114 -115 0
-53 114 -115 0
-53 -114 115 0
23 59 114 -158 0
23 59 -114 158 0
23 -59 114 158 0
23 -59 -114 -158 0
-23 59 114 158 0
-23 59 -114 -158 0
-23 -59 114 -158 0
-23 -59 -114 158 0
50 56 -92 0
50 -56 92 0
-50 56 92 0
-50 -56 -92 0
14 39 -163 0
14 -39 163 0
-14 39 163 0
-14 -39 -163 0
22 29 37 47 0
22 29 -37 -47 0
22 -29 37 -47 0
22 -29 -37 47 0
-22 29 37 -47 0
-22 29 -37 47 0
-22 -29 37 47 0
-22 -29 -37 -47 0
1 130 -150 0
1 -130 150 0
-1 130 150 0
-1 -130 -150 0
8 31 50 90 0
8 31 -50 -90 0
8 -31 50 -90 0
8 -31 -50 90 0
-8 31 50 -90 0
-8 31 -50 90 0
-8 -31 50 90 0
-8 -31 -50 -90 0
124 125 -165 0
124 -125 165 0
-124 125 165 0
-124 -125 -165 0
2 11 75 165 0
2 11 -75 -165 0
2 -11 75 -165 0
2 -11 -75 165 0
-2 11 75 -165 0
-2 11 -75 165 0
-2 -11 75 165 0
-2 -11 -75 -165 0
26 45 64 -82 0
26 45 -64 82 0
26 -45 64 82 0
26 -45 -64 -82 0
-26 45 64 82 0
-26 45 -64 -82 0
-26 -45 64 -82 0
-26 -45 -64 82 0
42 134 162 169 0
42 134 -162 -169 0
42 -134 162 -169 0
42 -134 -162 169 0
-42 134 162 -169 0
-42 134 -162 169 0
-42 -134 162 169 0
-42 -134 -162 -169 0
30 46 64 70 0
30 46 -64 -70 0
30 -46 64 -70 0
30 -46 -64 70 0
-30 46 64 -70 0
-30 46 -64 70 0
-30 -46 64 70 0
-30 -46 -64 -70 0
32 83 -174 0
32 -83 174 0
-32 83 174 0
-32 -83 -174 0
45 109 -150 0
45 -109 150 0
-45 109 150 0
-45 -109 -150 0
53 56 58 -144 0
53 56 -58 144 0
53 -56 58 144 0
53 -56 -58 -144 0
-53 56 58 144 0
-53 56 -58 -144 0
-53 -56 58 -144 0
-53 -56 -58 144 0
61 67 80 0
61 -67 -80 0
-61 67 -80 0
-61 -67 80 0
12 96 119 144 0
12 96 -119 -144 0
12 -96 119 -144 0
12 -96 -119 144 0
-12 96 119 -144 0
-12 96 -119 144 0
-12 -96 119 144 0
-12 -96 -119 -144 0
8 26 114 0
8 -26 -114 0
-8 26 -114 0
-8 -26 114 0
9 84 -172 0
9 -84 172 0
-9 84 172 0
-9 -84 -172 0
53 67 -157 0
53 -67 157 0
-53 67 157 0
-53 -67 -157 0
64 154 175 0
64 -154 -175 0
-64 154 -175 0
-64 -154 175 0
47 113 -127 0
47 -113 127 0
-47 113 127 0
-47 -113 -127 0
85 95 106 142 0
85 95 -106 -142 0
85 -95 106 -142 0
85 -95 -106 142 0
-85 95 106 -142 0
-85 95 -106 142 0
-85 -95 106 142 0
-85 -95 -106 -142 0
74 96 -147 0
74 -96 147 0
-74 96 147 0
-74 -96 -147 0
14 27 103 -140 0
14 27 -103 140 0
14 -27 103 140 0
14 -27 -103 -140 0
-14 27 103 140 0
-14 27 -103 -140 0
-14 -27 103 -140 0
-14 -27 -103 140 0
11 67 125 -132 0
11 67 -125 132 0
11 -67 125 132 0
11 -67 -125 -132 0
-11 67 125 132 0
-11 67 -125 -132 0
-11 -67 125 -132 0
-11 -67 -125 132 0
8 51 -119 0
8 -51 119 0
-8 51 119 0
-8 -51 -119 0
43 80 100 125 0
43 80 -100 -125 0
43 -80 100 -125 0
43 -80 -100 125 0
-43 80 100 -125 0
-43 80 -100 125 0
-43 -80 100 125 0
-43 -80 -100 -125 0
9 54 156 -166 0
9 54 -156 166 0
9 -54 156 166 0
9 -54 -156 -166 0
-9 54 156 166 0
-9 54 -156 -166 0
-9 -54 156 -166 0
-9 -54 -156 166 0
70 76 -81 0
70 -76 81 0
-70 76 81 0
-70 -76 -81 0
53 74 100 144 0
53 74 -100 -144 0
53 -74 100 -144 0
53 -74 -100 144 0
-53 74 100 -144 0
-53 74 -100 144 0
-53 -74 100 144 0
-53 -74 -100 -144 0
48 65 82 105 0
48 65 -82 -105 0
48 -65 82 -105 0
48 -65 -82 105 0
-48 65 82 -105 0
-48 65 -82 105 0
-48 -65 82 105 0
-48 -65 -82 -105 0
5 60 -160 0
5 -60 160 0
-5 60 160 0
-5 -60 -160 0
60 94 146 0
60 -94 -146 0
-60 94 -146 0
-60 -94 146 0
42 79 80 132 0
42 79 -80 -132 0
42 -79 80 -132 0
42 -79 -80 132 0
-42 79 80 -132 0
-42 79 -80 132 0
-42 -79 80 132 0
-42 -79 -80 -132 0
49 60 86 -87 0
49 60 -86 87 0
49 -60 86 87 0
49 -60 -86 -87 0
-49 60 86 87 0
-49 60 -86 -87 0
-49 -60 86 -87 0
-49 -60 -86 87 0
68 69 80 86 0
68 69 -80 -86 0
68 -69 80 -86 0
68 -69 -80 86 0
-68 69 80 -86 0
-68 69 -80 86 0
-68 -69 80 86 0
-68 -69 -80 -86 0
8 10 49 87 0
8 10 -49 -87 0
8 -10 49 -87 0
8 -10 -49 87 0
-8 10 49 -87 0
-8 10 -49 87 0
-8 -10 49 87 0
-8 -10 -49 -87 0
46 143 147 0
46 -143 -147 0
-46 143 -147 0
-46 -143 147 0
27 63 112 0
27 -63 -112 0
-27 63 -112 0
-27 -63 112 0
8 75 -141 0
8 -75 141 0
-8 75 141 0
-8 -75 -141 0
26 86 146 -154 0
26 86 -146 154 0
26 -86 146 154 0
26 -86 -146 -154 0
-26 86 146 154 0
-26 86 -146 -154 0
-26 -86 146 -154 0
-26 -86 -146 154 0
103 132 157 0
103 -132 -157 0
-103 132 -157 0
-103 -132 157 0
15 67 120 147 0
15 67 -120 -147 0
15 -67 120 -147 0
15 -67 -120 147 0
-15 67 120 -147 0
-15 67 -120 147 0
-15 -67 120 147 0
-15 -67 -120 -147 0
18 27 29 -107 0
18 27 -29 107 0
18 -27 29 107 0
18 -27 -29 -107 0
-18 27 29 107 0
-18 27 -29 -107 0
-18 -27 29 -107 0
-18 -27 -29 107 0
55 139 157 0
55 -139 -157 0
-55 139 -157 0
-55 -139 157 0
11 13 109 164 0
11 13 -109 -164 0
11 -13 109 -164 0
11 -13 -109 164 0
-11 13 109 -164 0
-11 13 -109 164 0
-11 -13 109 164 0
-11 -13 -109 -164 0
31 57 64 157 0
31 57 -64 -157 0
31 -57 64 -157 0
31 -57 -64 157 0
-31 57 64 -157 0
-31 57 -64 157 0
-31 -57 64 157 0
-31 -57 -64 -157 0
16 51 82 111 0
16 51 -82 -111 0
16 -51 82 -111 0
16 -51 -82 111 0
-16 51 82 -111 0
-16 51 -82 111 0
-16 -51 82 111 0
-16 -51 -82 -111 0
57 64 93 151 0
57 64 -93 -151 0
57 -64 93 -151 0
57 -64 -93 151 0
-57 64 93 -151 0
-57 64 -93 151 0
-57 -64 93 151 0
-57 -64 -93 -151 0
11 39 137 0
11 -39 -137 0
-11 39 -137 0
-11 -39 137 0
13 119 149 167 0
13 119 -149 -167 0
13 -119 149 -167 0
13 -119 -149 167 0
-13 119 149 -167 0
-13 119 -149 167 0
-13 -119 149 167 0
-13 -119 -149 -167 0
39 59 91 0
39 -59 -91 0
-39 59 -91 0
-39 -59 91 0
50 72 90 -164 0
50 72 -90 164 0
50 -72 90 164 0
50 -72 -90 -164 0
-50 72 90 164 0
-50 72 -90 -164 0
-50 -72 90 -164 0
-50 -72 -90 164 0
51 114 178 -179 0
51 114 -178 179 0
51 -114 178 179 0
51 -114 -178 -179 0
-51 114 178 179 0
-51 114 -178 -179 0
-51 -114 178 -179 0
-51 -114 -178 179 0
143 144 160 -170 0
143 144 -160 170 0
143 -144 160 170 0
143 -144 -160 -170 0
-143 144 160 170 0
-143 144 -160 -170 0
-143 -144 160 -170 0
-143 -144 -160 170 0
41 89 139 153 0
41 89 -139 -153 0
41 -89 139 -153 0
41 -89 -139 153 0
-41 89 139 -153 0
-41 89 -139 153 0
-41 -89 139 153 0
-41 -89 -139 -153 0
30 116 168 0
30 -116 -168 0
-30 116 -168 0
-30 -116 168 0
16 60 111 0
16 -60 -111 0
-16 60 -111 0
-16 -60 111 0
99 104 168 0
99 -104 -168 0
-99 104 -168 0
-99 -104 168 0
54 81 -90 0
54 -81 90 0
-54 81 90 0
-54 -81 -90 0
46 48 51 -78 0
46 48 -51 78 0
46 -48 51 78 0
46 -48 -51 -78 0
-46 48 51 78 0
-46 48 -51 -78 0
-46 -48 51 -78 0
-46 -48 -51 78 0
1 59 120 155 0
1 59 -120 -155 0
1 -59 120 -155 0
1 -59 -120 155 0
-1 59 120 -155 0
-1 59 -120 155 0
-1 -59 120 155 0
-1 -59 -120 -155 0
5 40 104 -114 0
5 40 -104 114 0
5 -40 104 114 0
5 -40 -104 -114 0
-5 40 104 114 0
-5 40 -104 -114 0
-5 -40 104 -114 0
-5 -40 -104 114 0
80 81 125 161 0
80 81 -125 -161 0
80 -81 125 -161 0
80 -81 -125 161 0
-80 81 125 -161 0
-80 81 -125 161 0
-80 -81 125 161 0
-80 -81 -125 -161 0
107 131 168 -173 0
107 131 -168 173 0
107 -131 168 173 0
107 -131 -168 -173 0
-107 131 168 173 0
-107 131 -168 -173 0
-107 -131 168 -173 0
-107 -131 -168 173 0
63 132 -145 0
63 -132 145 0
-63 132 145 0
-63 -132 -145 0
28 111 148 0
28 -111 -148 0
-28 111 -148 0
-28 -111 148 0
7 18 19 55 0
7 18 -19 -55 0
7 -18 19 -55 0
7 -18 -19 55 0
-7 18 19 -55 0
-7 18 -19 55 0
-7 -18 19 55 0
-7 -18 -19 -55 0
75 78 -170 0
75 -78 170 0
-75 78 170 0
-75 -78 -170 0
24 125 154 0
24 -125 -154 0
-24 125 -154 0
-24 -125 154 0
50 100 110 0
50 -100 -110 0
-50 100 -110 0
-50 -100 110 0
23 82 146 0
23 -82 -146 0
-23 82 -146 0
-23 -82 146 0
3 14 136 138 0
3 14 -136 -138 0
3 -14 136 -138 0
3 -14 -136 138 0
-3 14 136 -138 0
-3 14 -136 138 0
-3 -14 136 138 0
-3 -14 -136 -138 0
21 80 140 -147 0
21 80 -140 147 0
21 -80 140 147 0
21 -80 -140 -147 0
-21 80 140 147 0
-21 80 -140 -147 0
-21 -80 140 -147 0
-21 -80 -140 147 0
61 71 94 0
61 -71 -94 0
-61 71 -94 0
-61 -71 94 0
46 68 -148 0
46 -68 148 0
-46 68 148 0
-46 -68 -148 0
39 99 -141 0
39 -99 141 0
-39 99 141 0
-39 -99 -141 0
5 99 -140 0
5 -99 140 0
-5 99 140 0
-5 -99 -140 0
38 67 -100 0
38 -67 100 0
-38 67 100 0
-38 -67 -100 0
59 103 105 0
59 -103 -105 0
-59 103 -105 0
-59 -103 105 0
25 57 124 -154 0
25 57 -124 154 0
25 -57 124 154 0
25 -57 -124 -154 0
-25 57 124 154 0
-25 57 -124 -154 0
-25 -57 124 -154 0
-25 -57 -124 154 0
2 97 108 -140 0
2 97 -108 140 0
2 -97 108 140 0
2 -97 -108 -140 0
-2 97 108 140 0
-2 97 -108 -140 0
-2 -97 108 -140 0
-2 -97 -108 140 0
116 142 170 -175 0
116 142 -170 175 0
116 -142 170 175 0
116 -142 -170 -175 0
-116 142 170 175 0
-116 142 -170 -175 0
-116 -142 170 -175 0
-116 -142 -170 175 0
6 30 94 0
6 -30 -94 0
-6 30 -94 0
-6 -30 94 0
38 92 -107 0
38 -92 107 0
-38 92 107 0
-38 -92 -107 0
74 80 -160 0
74 -80 160 0
-74 80 160 0
-74 -80 -160 0
73 130 -173 0
73 -130 173 0
-73 130 173 0
-73 -130 -173 0
29 53 68 -113 0
29 53 -68 113 0
29 -53 68 113 0
29 -53 -68 -113 0
-29 53 68 113 0
-29 53 -68 -113 0
-29 -53 68 -113 0
-29 -53 -68 113 0
13 24 83 0
13 -24 -83 0
-13 24 -83 0
-13 -24 83 0
48 68 141 -158 0
48 68 -141 158 0
48 -68 141 158 0
48 -68 -141 -158 0
-48 68 141 158 0
-48 68 -141 -158 0
-48 -68 141 -158 0
-48 -68 -141 158 0
5 49 -68 0
5 -49 68 0
-5 49 68 0
-5 -49 -68 0
71 76 -158 0
71 -76 158 0
-71 76 158 0
-71 -76 -158 0
90 129 136 -162 0
90 129 -136 162 0
90 -129 136 162 0
90 -129 -136 -162 0
-90 129 136 162 0
-90 129 -136 -162 0
-90 -129 136 -162 0
-90 -129 -136 162 0
18 42 -125 0
18 -42 125 0
-18 42 125 0
-18 -42 -125 0
36 47 65 -71 0
36 47 -65 71 0
36 -47 65 71 0
36 -47 -65 -71 0
-36 47 65 71 0
-36 47 -65 -71 0
-36 -47 65 -71 0
-36 -47 -65 71 0
26 96 100 0
26 -96 -100 0
-26 96 -100 0
-26 -96 100 0
1 23 -88 0
1 -23 88 0
-1 23 88 0
-1 -23 -88 0
6 127 159 0
6 -127 -159 0
-6 127 -159 0
-6 -127 159 0
61 80 106 175 0
61 80 -106 -175 0
61 -80 106 -175 0
61 -80 -106 175 0
-61 80 106 -175 0
-61 80 -106 175 0
-61 -80 106 175 0
-61 -80 -106 -175 0
31 43 100 -133 0
31 43 -100 133 0
31 -43 100 133 0
31 -43 -100 -133 0
-31 43 100 133 0
-31 43 -100 -133 0
-31 -43 100 -133 0
-31 -43 -100 133 0
99 112 147 0
99 -112 -147 0
-99 112 -147 0
-99 -112 147 0
36 79 96 -171 0
36 79 -96 171 0
36 -79 96 171 0
36 -79 -96 -171 0
-36 79 96 171 0
-36 79 -96 -171 0
-36 -79 96 -171 0
-36 -79 -96 171 0
138 144 -159 0
138 -144 159 0
-138 144 159 0
-138 -144 -159 0
16 73 89 117 0
16 73 -89 -117 0
16 -73 89 -117 0
16 -73 -89 117 0
-16 73 89 -117 0
-16 73 -89 117 0
-16 -73 89 117 0
-16 -73 -89 -117 0
10 44 57 100 0
10 44 -57 -100 0
10 -44 57 -100 0
10 -44 -57 100 0
-10 44 57 -100 0
-10 44 -57 100 0
-10 -44 57 100 0
-10 -44 -57 -100 0
28 82 98 0
28 -82 -98 0
-28 82 -98 0
-28 -82 98 0
5 34 42 94 0
5 34 -42 -94 0
5 -34 42 -94 0
5 -34 -42 94 0
-5 34 42 -94 0
-5 34 -42 94 0
-5 -34 42 94 0
-5 -34 -42 -94 0
7 18 56 -104 0
7 18 -56 104 0
7 -18 56 104 0
7 -18 -56 -104 0
-7 18 56 104 0
-7 18 -56 -104 0
-7 -18 56 -104 0
-7 -18 -56 104 0
1 27 -150 0
1 -27 150 0
-1 27 150 0
-1 -27 -150 0
11 34 57 -109 0
11 34 -57 109 0
11 -34 57 109 0
11 -34 -57 -109 0
-11 34 57 109 0
-11 34 -57 -109 0
-11 -34 57 -109 0
-11 -34 -57 109 0
53 63 -111 0
53 -63 111 0
-53 63 111 0
-53 -63 -111 0
10 47 93 0
10 -47 -93 0
-10 47 -93 0
-10 -47 93 0
57 77 96 -157 0
57 77 -96 157 0
57 -77 96 157 0
57 -77 -96 -157 0
-57 77 96 157 0
-57 77 -96 -157 0
-57 -77 96 -157 0
-57 -77 -96 157 0
43 138 151 0
43 -138 -151 0
-43 138 -151 0
-43 -138 151 0
166 168 -176 0
166 -168 176 0
-166 168 176 0
-166 -168 -176 0
22 98 170 178 0
22 98 -170 -178 0
22 -98 170 -178 0
22 -98 -170 178 0
-22 98 170 -178 0
-22 98 -170 178 0
-22 -98 170 178 0
-22 -98 -170 -178 0
23 73 -127 0
23 -73 127 0
-23 73 127 0
-23 -73 -127 0
49 59 151 -156 0
49 59 -151 156 0
49 -59 151 156 0
49 -59 -151 -156 0
-49 59 151 156 0
-49 59 -151 -156 0
-49 -59 151 -156 0
-49 -59 -151 156 0
81 86 100 -109 0
81 86 -100 109 0
81 -86 100 109 0
81 -86 -100 -109 0
-81 86 100 109 0
-81 86 -100 -109 0
-81 -86 100 -109 0
-81 -86 -100 109 0
74 153 171 178 0
74 153 -171 -178 0
74 -153 171 -178 0
74 -153 -171 178 0
-74 153 171 -178 0
-74 153 -171 178 0
-74 -153 171 178 0
-74 -153 -171 -178 0
104 149 152 -177 0
104 149 -152 177 0
104 -149 152 177 0
104 -149 -152 -177 0
-104 149 152 177 0
-104 149 -152 -177 0
-104 -149 152 -177 0
-104 -149 -152 177 0
87 115 158 0
87 -115 -158 0
-87 115 -158 0
-87 -115 158 0
109 140 -174 0
109 -140 174 0
-109 140 174 0
-109 -140 -174 0
18 105 124 -150 0
18 105 -124 150 0
18 -105 124 150 0
18 -105 -124 -150 0
-18 105 124 150 0
-18 105 -124 -150 0
-18 -105 124 -150 0
-18 -105 -124 150 0
14 102 137 -180 0
14 102 -137 180 0
14 -102 137 180 0
14 -102 -137 -180 0
-14 102 137 180 0
-14 102 -137 -180 0
-14 -102 137 -180 0
-14 -102 -137 180 0
32 61 63 172 0
32 61 -63 -172 0
32 -61 63 -172 0
32 -61 -63 172 0
-32 61 63 -172 0
-32 61 -63 172 0
-32 -61 63 172 0
-32 -61 -63 -172 0
36 55 114 149 0
36 55 -114 -149 0
36 -55 114 -149 0
36 -55 -114 149 0
-36 55 114 -149 0
-36 55 -114 149 0
-36 -55 114 149 0
-36 -55 -114 -149 0
14 48 -54 0
14 -48 54 0
-14 48 54 0
-14 -48 -54 0
8 62 160 -169 0
8 62 -160 169 0
8 -62 160 169 0
8 -62 -160 -169 0
-8 62 160 169 0
-8 62 -160 -169 0
-8 -62 160 -169 0
-8 -62 -160 169 0
42 102 106 -178 0
42 102 -106 178 0
42 -102 106 178 0
42 -102 -106 -178 0
-42 102 106 178 0
-42 102 -106 -178 0
-42 -102 106 -178 0
-42 -102 -106 178 0
91 125 165 0
91 -125 -165 0
-91 125 -165 0
-91 -125 165 0
39 88 123 -137 0
39 88 -123 137 0
39 -88 123 137 0
39 -88 -123 -137 0
-39 88 123 137 0
-39 88 -123 -137 0
-39 -88 123 -137 0
-39 -88 -123 137 0
62 81 179 0
62 -81 -179 0
-62 81 -179 0
-62 -81 179 0
24 104 112 171 0
24 104 -112 -171 0
24 -104 112 -171 0
24 -104 -112 171 0
-24 104 112 -171 0
-24 104 -112 171 0
-24 -104 112 171 0
-24 -104 -112 -171 0
13 14 61 80 0
13 14 -61 -80 0
13 -14 61 -80 0
13 -14 -61 80 0
-13 14 61 -80 0
-13 14 -61 80 0
-13 -14 61 80 0
-13 -14 -61 -80 0
33 106 107 -151 0
33 106 -107 151 0
33 -106 107 151 0
33 -106 -107 -151 0
-33 106 107 151 0
-33 106 -107 -151 0
-33 -106 107 -151 0
-33 -106 -107 151 0
40 110 116 -176 0
40 110 -116 176 0
40 -110 116 176 0
40 -110 -116 -176 0
-40 110 116 176 0
-40 110 -116 -176 0
-40 -110 116 -176 0
-40 -110 -116 176 0
45 115 117 0
45 -115 -117 0
-45 115 -117 0
-45 -115 117 0
24 40 73 -173 0
24 40 -73 173 0
24 -40 73 173 0
24 -40 -73 -173 0
-24 40 73 173 0
-24 40 -73 -173 0
-24 -40 73 -173 0
-24 -40 -73 173 0
42 90 96 -126 0
42 90 -96 126 0
42 -90 96 126 0
42 -90 -96 -126 0
-42 90 96 126 0
-42 90 -96 -126 0
-42 -90 96 -126 0
-42 -90 -96 126 0
20 40 116 -179 0
20 40 -116 179 0
20 -40 116 179 0
20 -40 -116 -179 0
-20 40 116 179 0
-20 40 -116 -179 0
-20 -40 116 -179 0
-20 -40 -116 179 0
3 19 128 0
3 -19 -128 0
-3 19 -128 0
-3 -19 128 0
34 57 -88 0
34 -57 88 0
-34 57 88 0
-34 -57 -88 0
42 45 166 -167 0
42 45 -166 167 0
42 -45 166 167 0
42 -45 -166 -167 0
-42 45 166 167 0
-42 45 -166 -167 0
-42 -45 166 -167 0
-42 -45 -166 167 0
5 40 99 170 0
5 40 -99 -170 0
5 -40 99 -170 0
5 -40 -99 170 0
-5 40 99 -170 0
-5 40 -99 170 0
-5 -40 99 170 0
-5 -40 -99 -170 0
50 127 145 157 0
50 127 -145 -157 0
50 -127 145 -157 0
50 -127 -145 157 0
-50 127 145 -157 0
-50 127 -145 157 0
-50 -127 145 157 0
-50 -127 -145 -157 0
83 86 156 0
83 -86 -156 0
-83 86 -156 0
-83 -86 156 0
58 97 -166 0
58 -97 166 0
-58 97 166 0
-58 -97 -166 0
38 87 121 164 0
38 87 -121 -164 0
38 -87 121 -164 0
38 -87 -121 164 0
-38 87 121 -164 0
-38 87 -121 164 0
-38 -87 121 164 0
-38 -87 -121 -164 0
55 129 130 -143 0
55 129 -130 143 0
55 -129 130 143 0
55 -129 -130 -143 0
-55 129 130 143 0
-55 129 -130 -143 0
-55 -129 130 -143 0
-55 -129 -130 143 0
48 94 149 173 0
48 94 -149 -173 0
48 -94 149 -173 0
48 -94 -149 173 0
-48 94 149 -173 0
-48 94 -149 173 0
-48 -94 149 173 0
-48 -94 -149 -173 0
9 59 124 0
9 -59 -124 0
-9 59 -124 0
-9 -59 124 0
17 49 116 143 0
17 49 -116 -143 0
17 -49 116 -143 0
17 -49 -116 143 0
-17 49 116 -143 0
-17 49 -116 143 0
-17 -49 116 143 0
-17 -49 -116 -143 0
93 121 -150 0
93 -121 150 0
-93 121 150 0
-93 -121 -150 0
28 126 165 -172 0
28 126 -165 172 0
28 -126 165 172 0
28 -126 -165 -172 0
-28 126 165 172 0
-28 126 -165 -172 0
-28 -126 165 -172 0
-28 -126 -165 172 0
30 31 -42 0
30 -31 42 0
-30 31 42 0
-30 -31 -42 0
89 121 -171 0
89 -121 171 0
-89 121 171 0
-89 -121 -171 0
2 30 56 68 0
2 30 -56 -68 0
2 -30 56 -68 0
2 -30 -56 68 0
-2 30 56 -68 0
-2 30 -56 68 0
-2 -30 56 68 0
-2 -30 -56 -68 0
131 133 -152 0
131 -133 152 0
-131 133 152 0
-131 -133 -152 0
11 87 97 -146 0
11 87 -97 146 0
11 -87 97 146 0
11 -87 -97 -146 0
-11 87 97 146 0
-11 87 -97 -146 0
-11 -87 97 -146 0
-11 -87 -97 146 0
65 84 96 -143 0
65 84 -96 143 0
65 -84 96 143 0
65 -84 -96 -143 0
-65 84 96 143 0
-65 84 -96 -143 0
-65 -84 96 -143 0
-65 -84 -96 143 0
20 104 -168 0
20 -104 168 0
-20 104 168 0
-20 -104 -168 0
76 117 125 0
76 -117 -125 0
-76 117 -125 0
-76 -117 125 0
58 59 110 -143 0
58 59 -110 143 0
58 -59 110 143 0
58 -59 -110 -143 0
-58 59 110 143 0
-58 59 -110 -143 0
-58 -59 110 -143 0
-58 -59 -110 143 0
31 122 -170 0
31 -122 170 0
-31 122 170 0
-31 -122 -170 0
15 61 112 -163 0
15 61 -112 163 0
15 -61 112 163 0
15 -61 -112 -163 0
-15 61 112 163 0
-15 61 -112 -163 0
-15 -61 112 -163 0
-15 -61 -112 163 0
66 140 164 0
66 -140 -164 0
-66 140 -164 0
-66 -140 164 0
44 61 82 131 0
44 61 -82 -131 0
44 -61 82 -131 0
44 -61 -82 131 0
-44 61 82 -131 0
-44 61 -82 131 0
-44 -61 82 131 0
-44 -61 -82 -131 0
7 11 -102 0
7 -11 102 0
-7 11 102 0
-7 -11 -102 0
45 97 108 -147 0
45 97 -108 147 0
45 -97 108 147 0
45 -97 -108 -147 0
-45 97 108 147 0
-45 97 -108 -147 0
-45 -97 108 -147 0
-45 -97 -108 147 0
11 14 120 0
11 -14 -120 0
-11 14 -120 0
-11 -14 120 0
22 65 -104 0
22 -65 104 0
-22 65 104 0
-22 -65 -104 0
5 131 149 165 0
5 131 -149 -165 0
5 -131 149 -165 0
5 -131 -149 165 0
-5 131 149 -165 0
-5 131 -149 165 0
-5 -131 149 165 0
-5 -131 -149 -165 0
56 119 176 0
56 -119 -176 0
-56 119 -176 0
-56 -119 176 0
29 64 117 -128 0
29 64 -117 128 0
29 -64 117 128 0
29 -64 -117 -128 0
-29 64 117 128 0
-29 64 -117 -128 0
-29 -64 117 -128 0
-29 -64 -117 128 0
15 104 126 0
15 -104 -126 0
-15 104 -126 0
-15 -104 126 0
31 127 164 0
31 -127 -164 0
-31 127 -164 0
-31 -127 164 0
2 30 143 0
2 -30 -143 0
-2 30 -143 0
-2 -30 143 0
43 122 144 172 0
43 122 -144 -172 0
43 -122 144 -172 0
43 -122 -144 172 0
-43 122 144 -172 0
-43 122 -144 172 0
-43 -122 144 172 0
-43 -122 -144 -172 0
8 50 -177 0
8 -50 177 0
-8 50 177 0
-8 -50 -177 0
12 65 175 -180 0
12 65 -175 180 0
12 -65 175 180 0
12 -65 -175 -180 0
-12 65 175 180 0
-12 65 -175 -180 0
-12 -65 175 -180 0
-12 -65 -175 180 0
43 64 141 -160 0
43 64 -141 160 0
43 -64 141 160 0
43 -64 -141 -160 0
-43 64 141 160 0
-43 64 -141 -160 0
-43 -64 141 -160 0
-43 -64 -141 160 0
44 96 -126 0
44 -96 126 0
-44 96 126 0
-44 -96 -126 0
67 90 126 -179 0
67 90 -126 179 0
67 -90 126 179 0
67 -90 -126 -179 0
-67 90 126 179 0
-67 90 -126 -179 0
-67 -90 126 -179 0
-67 -90 -126 179 0
7 46 149 0
7 -46 -149 0
-7 46 -149 0
-7 -46 149 0
14 161 -175 0
14 -161 175 0
-14 161 175 0
-14 -161 -175 0
92 109 138 173 0
92 109 -138 -173 0
92 -109 138 -173 0
92 -109 -138 173 0
-92 109 138 -173 0
-92 109 -138 173 0
-92 -109 138 173 0
-92 -109 -138 -173 0
10 14 149 180 0
10 14 -149 -180 0
10 -14 149 -180 0
10 -14 -149 180 0
-10 14 149 -180 0
-10 14 -149 180 0
-10 -14 149 180 0
-10 -14 -149 -180 0
88 101 108 169 0
88 101 -108 -169 0
88 -101 108 -169 0
88 -101 -108 169 0
-88 101 108 -169 0
-88 101 -108 169 0
-88 -101 108 169 0
-88 -101 -108 -169 0
27 32 -49 0
27 -32 49 0
-27 32 49 0
-27 -32 -49 0
68 134 135 -169 0
68 134 -135 169 0
68 -134 135 169 0
68 -134 -135 -169 0
-68 134 135 169 0
-68 134 -135 -169 0
-68 -134 135 -169 0
-68 -134 -135 169 0
38 82 121 -172 0
38 82 -121 172 0
38 -82 121 172 0
38 -82 -121 -172 0
-38 82 121 172 0
-38 82 -121 -172 0
-38 -82 121 -172 0
-38 -82 -121 172 0
100 115 -127 0
100 -115 127 0
-100 115 127 0
-100 -115 -127 0
64 74 88 134 0
64 74 -88 -134 0
64 -74 88 -134 0
64 -74 -88 134 0
-64 74 88 -134 0
-64 74 -88 134 0
-64 -74 88 134 0
-64 -74 -88 -134 0
54 85 112 0
54 -85 -112 0
-54 85 -112 0
-54 -85 112 0
45 49 110 -116 0
45 49 -110 116 0
45 -49 110 116 0
45 -49 -110 -116 0
-45 49 110 116 0
-45 49 -110 -116 0
-45 -49 110 -116 0
-45 -49 -110 116 0
8 104 140 -152 0
8 104 -140 152 0
8 -104 140 152 0
8 -104 -140 -152 0
-8 104 140 152 0
-8 104 -140 -152 0
-8 -104 140 -152 0
-8 -104 -140 152 0
75 91 152 -158 0
75 91 -152 158 0
75 -91 152 158 0
75 -91 -152 -158 0
-75 91 152 158 0
-75 91 -152 -158 0
-75 -91 152 -158 0
-75 -91 -152 158 0
129 155 172 0
129 -155 -172 0
-129 155 -172 0
-129 -155 172 0
8 11 27 -125 0
8 11 -27 125 0
8 -11 27 125 0
8 -11 -27 -125 0
-8 11 27 125 0
-8 11 -27 -125 0
-8 -11 27 -125 0
-8 -11 -27 125 0
7 139 157 0
7 -139 -157 0
-7 139 -157 0
-7 -139 157 0
16 18 77 -87 0
16 18 -77 87 0
16 -18 77 87 0
16 -18 -77 -87 0
-16 18 77 87 0
-16 18 -77 -87 0
-16 -18 77 -87 0
-16 -18 -77 87 0
8 15 55 177 0
8 15 -55 -177 0
8 -15 55 -177 0
8 -15 -55 177 0
-8 15 55 -177 0
-8 15 -55 177 0
-8 -15 55 177 0
-8 -15 -55 -177 0
35 54 87 155 0
35 54 -87 -155 0
35 -54 87 -155 0
35 -54 -87 155 0
-35 54 87 -155 0
-35 54 -87 155 0
-35 -54 87 155 0
-35 -54 -87 -155 0
35 83 -144 0
35 -83 144 0
-35 83 144 0
-35 -83 -144 0
46 106 133 -145 0
46 106 -133 145 0
46 -106 133 145 0
46 -106 -133 -145 0
-46 106 133 145 0
-46 106 -133 -145 0
-46 -106 133 -145 0
-46 -106 -133 145 0
65 83 109 151 0
65 83 -109 -151 0
65 -83 109 -151 0
65 -83 -109 151 0
-65 83 109 -151 0
-65 83 -109 151 0
-65 -83 109 151 0
-65 -83 -109 -151 0
38 63 98 -167 0
38 63 -98 167 0
38 -63 98 167 0
38 -63 -98 -167 0
-38 63 98 167 0
-38 63 -98 -167 0
-38 -63 98 -167 0
-38 -63 -98 167 0
34 161 -171 0
34 -161 171 0
-34 161 171 0
-34 -161 -171 0
2 73 -135 0
2 -73 135 0
-2 73 135 0
-2 -73 -135 0
75 118 150 -164 0
75 118 -150 164 0
75 -118 150 164 0
75 -118 -150 -164 0
-75 118 150 164 0
-75 118 -150 -164 0
-75 -118 150 -164 0
-75 -118 -150 164 0
8 66 143 170 0
8 66 -143 -170 0
8 -66 143 -170 0
8 -66 -143 170 0
-8 66 143 -170 0
-8 66 -143 170 0
-8 -66 143 170 0
-8 -66 -143 -170 0
45 47 173 0
45 -47 -173 0
-45 47 -173 0
-45 -47 173 0
46 73 75 163 0
46 73 -75 -163 0
46 -73 75 -163 0
46 -73 -75 163 0
-46 73 75 -163 0
-46 73 -75 163 0
-46 -73 75 163 0
-46 -73 -75 -163 0
83 85 102 156 0
83 85 -102 -156 0
83 -85 102 -156 0
83 -85 -102 156 0
-83 85 102 -156 0
-83 85 -102 156 0
-83 -85 102 156 0
-83 -85 -102 -156 0
33 43 60 -119 0
33 43 -60 119 0
33 -43 60 119 0
33 -43 -60 -119 0
-33 43 60 119 0
-33 43 -60 -119 0
-33 -43 60 -119 0
-33 -43 -60 119 0
30 71 92 -139 0
30 71 -92 139 0
30 -71 92 139 0
30 -71 -92 -139 0
-30 71 92 139 0
-30 71 -92 -139 0
-30 -71 92 -139 0
-30 -71 -92 139 0
75 129 -172 0
75 -129 172 0
-75 129 172 0
-75 -129 -172 0
