c generated_for formulae_like benchmark
c seed 20260531
c family graph_coloring
c expected_status SAT
c notes 500-variable planted 4-coloring
p cnf 500 1975
1 2 3 4 0
-1 -2 0
-1 -3 0
-1 -4 0
-2 -3 0
-2 -4 0
-3 -4 0
5 6 7 8 0
-5 -6 0
-5 -7 0
-5 -8 0
-6 -7 0
-6 -8 0
-7 -8 0
9 10 11 12 0
-9 -10 0
-9 -11 0
-9 -12 0
-10 -11 0
-10 -12 0
-11 -12 0
13 14 15 16 0
-13 -14 0
-13 -15 0
-13 -16 0
-14 -15 0
-14 -16 0
-15 -16 0
17 18 19 20 0
-17 -18 0
-17 -19 0
-17 -20 0
-18 -19 0
-18 -20 0
-19 -20 0
21 22 23 24 0
-21 -22 0
-21 -23 0
-21 -24 0
-22 -23 0
-22 -24 0
-23 -24 0
25 26 27 28 0
-25 -26 0
-25 -27 0
-25 -28 0
-26 -27 0
-26 -28 0
-27 -28 0
29 30 31 32 0
-29 -30 0
-29 -31 0
-29 -32 0
-30 -31 0
-30 -32 0
-31 -32 0
33 34 35 36 0
-33 -34 0
-33 -35 0
-33 -36 0
-34 -35 0
-34 -36 0
-35 -36 0
37 38 39 40 0
-37 -38 0
-37 -39 0
-37 -40 0
-38 -39 0
-38 -40 0
-39 -40 0
41 42 43 44 0
-41 -42 0
-41 -43 0
-41 -44 0
-42 -43 0
-42 -44 0
-43 -44 0
45 46 47 48 0
-45 -46 0
-45 -47 0
-45 -48 0
-46 -47 0
-46 -48 0
-47 -48 0
49 50 51 52 0
-49 -50 0
-49 -51 0
-49 -52 0
-50 -51 0
-50 -52 0
-51 -52 0
53 54 55 56 0
-53 -54 0
-53 -55 0
-53 -56 0
-54 -55 0
-54 -56 0
-55 -56 0
57 58 59 60 0
-57 -58 0
-57 -59 0
-57 -60 0
-58 -59 0
-58 -60 0
-59 -60 0
61 62 63 64 0
-61 -62 0
-61 -63 0
-61 -64 0
-62 -63 0
-62 -64 0
-63 -64 0
65 66 67 68 0
-65 -66 0
-65 -67 0
-65 -68 0
-66 -67 0
-66 -68 0
-67 -68 0
69 70 71 72 0
-69 -70 0
-69 -71 0
-69 -72 0
-70 -71 0
-70 -72 0
-71 -72 0
73 74 75 76 0
-73 -74 0
-73 -75 0
-73 -76 0
-74 -75 0
-74 -76 0
-75 -76 0
77 78 79 80 0
-77 -78 0
-77 -79 0
-77 -80 0
-78 -79 0
-78 -80 0
-79 -80 0
81 82 83 84 0
-81 -82 0
-81 -83 0
-81 -84 0
-82 -83 0
-82 -84 0
-83 -84 0
85 86 87 88 0
-85 -86 0
-85 -87 0
-85 -88 0
-86 -87 0
-86 -88 0
-87 -88 0
89 90 91 92 0
-89 -90 0
-89 -91 0
-89 -92 0
-90 -91 0
-90 -92 0
-91 -92 0
93 94 95 96 0
-93 -94 0
-93 -95 0
-93 -96 0
-94 -95 0
-94 -96 0
-95 -96 0
97 98 99 100 0
-97 -98 0
-97 -99 0
-97 -100 0
-98 -99 0
-98 -100 0
-99 -100 0
101 102 103 104 0
-101 -102 0
-101 -103 0
-101 -104 0
-102 -103 0
-102 -104 0
-103 -104 0
105 106 107 108 0
-105 -106 0
-105 -107 0
-105 -108 0
-106 -107 0
-106 -108 0
-107 -108 0
109 110 111 112 0
-109 -110 0
-109 -111 0
-109 -112 0
-110 -111 0
-110 -112 0
-111 -112 0
113 114 115 116 0
-113 -114 0
-113 -115 0
-113 -116 0
-114 -115 0
-114 -116 0
-115 -116 0
117 118 119 120 0
-117 -118 0
-117 -119 0
-117 -120 0
-118 -119 0
-118 -120 0
-119 -120 0
121 122 123 124 0
-121 -122 0
-121 -123 0
-121 -124 0
-122 -123 0
-122 -124 0
-123 -124 0
125 126 127 128 0
-125 -126 0
-125 -127 0
-125 -128 0
-126 -127 0
-126 -128 0
-127 -128 0
129 130 131 132 0
-129 -130 0
-129 -131 0
-129 -132 0
-130 -131 0
-130 -132 0
-131 -132 0
133 134 135 136 0
-133 -134 0
-133 -135 0
-133 -136 0
-134 -135 0
-134 -136 0
-135 -136 0
137 138 139 140 0
-137 -138 0
-137 -139 0
-137 -140 0
-138 -139 0
-138 -140 0
-139 -140 0
141 142 143 144 0
-141 -142 0
-141 -143 0
-141 -144 0
-142 -143 0
-142 -144 0
-143 -144 0
145 146 147 148 0
-145 -146 0
-145 -147 0
-145 -148 0
-146 -147 0
-146 -148 0
-147 -148 0
149 150 151 152 0
-149 -150 0
-149 -151 0
-149 -152 0
-150 -151 0
-150 -152 0
-151 -152 0
153 154 155 156 0
-153 -154 0
-153 -155 0
-153 -156 0
-154 -155 0
-154 -156 0
-155 -156 0
157 158 159 160 0
-157 -158 0
-157 -159 0
-157 -160 0
-158 -159 0
-158 -160 0
-159 -160 0
161 162 163 164 0
-161 -162 0
-161 -163 0
-161 -164 0
-162 -163 0
-162 -164 0
-163 -164 0
165 166 167 168 0
-165 -166 0
-165 -167 0
-165 -168 0
-166 -167 0
-166 -168 0
-167 -168 0
169 170 171 172 0
-169 -170 0
-169 -171 0
-169 -172 0
-170 -171 0
-170 -172 0
-171 -172 0
173 174 175 176 0
-173 -174 0
-173 -175 0
-173 -176 0
-174 -175 0
-174 -176 0
-175 -176 0
177 178 179 180 0
-177 -178 0
-177 -179 0
-177 -180 0
-178 -179 0
-178 -180 0
-179 -180 0
181 182 183 184 0
-181 -182 0
-181 -183 0
-181 -184 0
-182 -183 0
-182 -184 0
-183 -184 0
185 186 187 188 0
-185 -186 0
-185 -187 0
-185 -188 0
-186 -187 0
-186 -188 0
-187 -188 0
189 190 191 192 0
-189 -190 0
-189 -191 0
-189 -192 0
-190 -191 0
-190 -192 0
-191 -192 0
193 194 195 196 0
-193 -194 0
-193 -195 0
-193 -196 0
-194 -195 0
-194 -196 0
-195 -196 0
197 198 199 200 0
-197 -198 0
-197 -199 0
-197 -200 0
-198 -199 0
-198 -200 0
-199 -200 0
201 202 203 204 0
-201 -202 0
-201 -203 0
-201 -204 0
-202 -203 0
-202 -204 0
-203 -204 0
205 206 207 208 0
-205 -206 0
-205 -207 0
-205 -208 0
-206 -207 0
-206 -208 0
-207 -208 0
209 210 211 212 0
-209 -210 0
-209 -211 0
-209 -212 0
-210 -211 0
-210 -212 0
-211 -212 0
213 214 215 216 0
-213 -214 0
-213 -215 0
-213 -216 0
-214 -215 0
-214 -216 0
-215 -216 0
217 218 219 220 0
-217 -218 0
-217 -219 0
-217 -220 0
-218 -219 0
-218 -220 0
-219 -220 0
221 222 223 224 0
-221 -222 0
-221 -223 0
-221 -224 0
-222 -223 0
-222 -224 0
-223 -224 0
225 226 227 228 0
-225 -226 0
-225 -227 0
-225 -228 0
-226 -227 0
-226 -228 0
-227 -228 0
229 230 231 232 0
-229 -230 0
-229 -231 0
-229 -232 0
-230 -231 0
-230 -232 0
-231 -232 0
233 234 235 236 0
-233 -234 0
-233 -235 0
-233 -236 0
-234 -235 0
-234 -236 0
-235 -236 0
237 238 239 240 0
-237 -238 0
-237 -239 0
-237 -240 0
-238 -239 0
-238 -240 0
-239 -240 0
241 242 243 244 0
-241 -242 0
-241 -243 0
-241 -244 0
-242 -243 0
-242 -244 0
-243 -244 0
245 246 247 248 0
-245 -246 0
-245 -247 0
-245 -248 0
-246 -247 0
-246 -248 0
-247 -248 0
249 250 251 252 0
-249 -250 0
-249 -251 0
-249 -252 0
-250 -251 0
-250 -252 0
-251 -252 0
253 254 255 256 0
-253 -254 0
-253 -255 0
-253 -256 0
-254 -255 0
-254 -256 0
-255 -256 0
257 258 259 260 0
-257 -258 0
-257 -259 0
-257 -260 0
-258 -259 0
-258 -260 0
-259 -260 0
261 262 263 264 0
-261 -262 0
-261 -263 0
-261 -264 0
-262 -263 0
-262 -264 0
-263 -264 0
265 266 267 268 0
-265 -266 0
-265 -267 0
-265 -268 0
-266 -267 0
-266 -268 0
-267 -268 0
269 270 271 272 0
-269 -270 0
-269 -271 0
-269 -272 0
-270 -271 0
-270 -272 0
-271 -272 0
273 274 275 276 0
-273 -274 0
-273 -275 0
-273 -276 0
-274 -275 0
-274 -276 0
-275 -276 0
277 278 279 280 0
-277 -278 0
-277 -279 0
-277 -280 0
-278 -279 0
-278 -280 0
-279 -280 0
281 282 283 284 0
-281 -282 0
-281 -283 0
-281 -284 0
-282 -283 0
-282 -284 0
-283 -284 0
285 286 287 288 0
-285 -286 0
-285 -287 0
-285 -288 0
-286 -287 0
-286 -288 0
-287 -288 0
289 290 291 292 0
-289 -290 0
-289 -291 0
-289 -292 0
-290 -291 0
-290 -292 0
-291 -292 0
293 294 295 296 0
-293 -294 0
-293 -295 0
-293 -296 0
-294 -295 0
-294 -296 0
-295 -296 0
297 298 299 300 0
-297 -298 0
-297 -299 0
-297 -300 0
-298 -299 0
-298 -300 0
-299 -300 0
301 302 303 304 0
-301 -302 0
-301 -303 0
-301 -304 0
-302 -303 0
-302 -304 0
-303 -304 0
305 306 307 308 0
-305 -306 0
-305 -307 0
-305 -308 0
-306 -307 0
-306 -308 0
-307 -308 0
309 310 311 312 0
-309 -310 0
-309 -311 0
-309 -312 0
-310 -311 0
-310 -312 0
-311 -312 0
313 314 315 316 0
-313 -314 0
-313 -315 0
-313 -316 0
-314 -315 0
-314 -316 0
-315 -316 0
317 318 319 320 0
-317 -318 0
-317 -319 0
-317 -320 0
-318 -319 0
-318 -320 0
-319 -320 0
321 322 323 324 0
-321 -322 0
-321 -323 0
-321 -324 0
-322 -323 0
-322 -324 0
-323 -324 0
325 326 327 328 0
-325 -326 0
-325 -327 0
-325 -328 0
-326 -327 0
-326 -328 0
-327 -328 0
329 330 331 332 0
-329 -330 0
-329 -331 0
-329 -332 0
-330 -331 0
-330 -332 0
-331 -332 0
333 334 335 336 0
-333 -334 0
-333 -335 0
-333 -336 0
-334 -335 0
-334 -336 0
-335 -336 0
337 338 339 340 0
-337 -338 0
-337 -339 0
-337 -340 0
-338 -339 0
-338 -340 0
-339 -340 0
341 342 343 344 0
-341 -342 0
-341 -343 0
-341 -344 0
-342 -343 0
-342 -344 0
-343 -344 0
345 346 347 348 0
-345 -346 0
-345 -347 0
-345 -348 0
-346 -347 0
-346 -348 0
-347 -348 0
349 350 351 352 0
-349 -350 0
-349 -351 0
-349 -352 0
-350 -351 0
-350 -352 0
-351 -352 0
353 354 355 356 0
-353 -354 0
-353 -355 0
-353 -356 0
-354 -355 0
-354 -356 0
-355 -356 0
357 358 359 360 0
-357 -358 0
-357 -359 0
-357 -360 0
-358 -359 0
-358 -360 0
-359 -360 0
361 362 363 364 0
-361 -362 0
-361 -363 0
-361 -364 0
-362 -363 0
-362 -364 0
-363 -364 0
365 366 367 368 0
-365 -366 0
-365 -367 0
-365 -368 0
-366 -367 0
-366 -368 0
-367 -368 0
369 370 371 372 0
-369 -370 0
-369 -371 0
-369 -372 0
-370 -371 0
-370 -372 0
-371 -372 0
373 374 375 376 0
-373 -374 0
-373 -375 0
-373 -376 0
-374 -375 0
-374 -376 0
-375 -376 0
377 378 379 380 0
-377 -378 0
-377 -379 0
-377 -380 0
-378 -379 0
-378 -380 0
-379 -380 0
381 382 383 384 0
-381 -382 0
-381 -383 0
-381 -384 0
-382 -383 0
-382 -384 0
-383 -384 0
385 386 387 388 0
-385 -386 0
-385 -387 0
-385 -388 0
-386 -387 0
-386 -388 0
-387 -388 0
389 390 391 392 0
-389 -390 0
-389 -391 0
-389 -392 0
-390 -391 0
-390 -392 0
-391 -392 0
393 394 395 396 0
-393 -394 0
-393 -395 0
-393 -396 0
-394 -395 0
-394 -396 0
-395 -396 0
397 398 399 400 0
-397 -398 0
-397 -399 0
-397 -400 0
-398 -399 0
-398 -400 0
-399 -400 0
401 402 403 404 0
-401 -402 0
-401 -403 0
-401 -404 0
-402 -403 0
-402 -404 0
-403 -404 0
405 406 407 408 0
-405 -406 0
-405 -407 0
-405 -408 0
-406 -407 0
-406 -408 0
-407 -408 0
409 410 411 412 0
-409 -410 0
-409 -411 0
-409 -412 0
-410 -411 0
-410 -412 0
-411 -412 0
413 414 415 416 0
-413 -414 0
-413 -415 0
-413 -416 0
-414 -415 0
-414 -416 0
-415 -416 0
417 418 419 420 0
-417 -418 0
-417 -419 0
-417 -420 0
-418 -419 0
-418 -420 0
-419 -420 0
421 422 423 424 0
-421 -422 0
-421 -423 0
-421 -424 0
-422 -423 0
-422 -424 0
-423 -424 0
425 426 427 428 0
-425 -426 0
-425 -427 0
-425 -428 0
-426 -427 0
-426 -428 0
-427 -428 0
429 430 431 432 0
-429 -430 0
-429 -431 0
-429 -432 0
-430 -431 0
-430 -432 0
-431 -432 0
433 434 435 436 0
-433 -434 0
-433 -435 0
-433 -436 0
-434 -435 0
-434 -436 0
-435 -436 0
437 438 439 440 0
-437 -438 0
-437 -439 0
-437 -440 0
-438 -439 0
-438 -440 0
-439 -440 0
441 442 443 444 0
-441 -442 0
-441 -443 0
-441 -444 0
-442 -443 0
-442 -444 0
-443 -444 0
445 446 447 448 0
-445 -446 0
-445 -447 0
-445 -448 0
-446 -447 0
-446 -448 0
-447 -448 0
449 450 451 452 0
-449 -450 0
-449 -451 0
-449 -452 0
-450 -451 0
-450 -452 0
-451 -452 0
453 454 455 456 0
-453 -454 0
-453 -455 0
-453 -456 0
-454 -455 0
-454 -456 0
-455 -456 0
457 458 459 460 0
-457 -458 0
-457 -459 0
-457 -460 0
-458 -459 0
-458 -460 0
-459 -460 0
461 462 463 464 0
-461 -462 0
-461 -463 0
-461 -464 0
-462 -463 0
-462 -464 0
-463 -464 0
465 466 467 468 0
-465 -466 0
-465 -467 0
-465 -468 0
-466 -467 0
-466 -468 0
-467 -468 0
469 470 471 472 0
-469 -470 0
-469 -471 0
-469 -472 0
-470 -471 0
-470 -472 0
-471 -472 0
473 474 475 476 0
-473 -474 0
-473 -475 0
-473 -476 0
-474 -475 0
-474 -476 0
-475 -476 0
477 478 479 480 0
-477 -478 0
-477 -479 0
-477 -480 0
-478 -479 0
-478 -480 0
-479 -480 0
481 482 483 484 0
-481 -482 0
-481 -483 0
-481 -484 0
-482 -483 0
-482 -484 0
-483 -484 0
485 486 487 488 0
-485 -486 0
-485 -487 0
-485 -488 0
-486 -487 0
-486 -488 0
-487 -488 0
489 490 491 492 0
-489 -490 0
-489 -491 0
-489 -492 0
-490 -491 0
-490 -492 0
-491 -492 0
493 494 495 496 0
-493 -494 0
-493 -495 0
-493 -496 0
-494 -495 0
-494 -496 0
-495 -496 0
497 498 499 500 0
-497 -498 0
-497 -499 0
-497 -500 0
-498 -499 0
-498 -500 0
-499 -500 0
-257 -381 0
-258 -382 0
-259 -383 0
-260 -384 0
-9 -197 0
-10 -198 0
-11 -199 0
-12 -200 0
-285 -465 0
-286 -466 0
-287 -467 0
-288 -468 0
-109 -229 0
-110 -230 0
-111 -231 0
-112 -232 0
-377 -417 0
-378 -418 0
-379 -419 0
-380 -420 0
-193 -245 0
-194 -246 0
-195 -247 0
-196 -248 0
-65 -137 0
-66 -138 0
-67 -139 0
-68 -140 0
-109 -225 0
-110 -226 0
-111 -227 0
-112 -228 0
-45 -401 0
-46 -402 0
-47 -403 0
-48 -404 0
-353 -429 0
-354 -430 0
-355 -431 0
-356 -432 0
-21 -45 0
-22 -46 0
-23 -47 0
-24 -48 0
-205 -393 0
-206 -394 0
-207 -395 0
-208 -396 0
-153 -309 0
-154 -310 0
-155 -311 0
-156 -312 0
-133 -361 0
-134 -362 0
-135 -363 0
-136 -364 0
-57 -493 0
-58 -494 0
-59 -495 0
-60 -496 0
-69 -201 0
-70 -202 0
-71 -203 0
-72 -204 0
-29 -165 0
-30 -166 0
-31 -167 0
-32 -168 0
-113 -445 0
-114 -446 0
-115 -447 0
-116 -448 0
-125 -181 0
-126 -182 0
-127 -183 0
-128 -184 0
-109 -233 0
-110 -234 0
-111 -235 0
-112 -236 0
-149 -417 0
-150 -418 0
-151 -419 0
-152 -420 0
-41 -65 0
-42 -66 0
-43 -67 0
-44 -68 0
-225 -397 0
-226 -398 0
-227 -399 0
-228 -400 0
-5 -113 0
-6 -114 0
-7 -115 0
-8 -116 0
-285 -389 0
-286 -390 0
-287 -391 0
-288 -392 0
-13 -265 0
-14 -266 0
-15 -267 0
-16 -268 0
-65 -105 0
-66 -106 0
-67 -107 0
-68 -108 0
-105 -341 0
-106 -342 0
-107 -343 0
-108 -344 0
-361 -461 0
-362 -462 0
-363 -463 0
-364 -464 0
-213 -441 0
-214 -442 0
-215 -443 0
-216 -444 0
-313 -357 0
-314 -358 0
-315 -359 0
-316 -360 0
-29 -213 0
-30 -214 0
-31 -215 0
-32 -216 0
-337 -405 0
-338 -406 0
-339 -407 0
-340 -408 0
-257 -329 0
-258 -330 0
-259 -331 0
-260 -332 0
-121 -177 0
-122 -178 0
-123 -179 0
-124 -180 0
-181 -481 0
-182 -482 0
-183 -483 0
-184 -484 0
-365 -485 0
-366 -486 0
-367 -487 0
-368 -488 0
-201 -493 0
-202 -494 0
-203 -495 0
-204 -496 0
-125 -201 0
-126 -202 0
-127 -203 0
-128 -204 0
-77 -161 0
-78 -162 0
-79 -163 0
-80 -164 0
-41 -417 0
-42 -418 0
-43 -419 0
-44 -420 0
-281 -337 0
-282 -338 0
-283 -339 0
-284 -340 0
-113 -441 0
-114 -442 0
-115 -443 0
-116 -444 0
-89 -333 0
-90 -334 0
-91 -335 0
-92 -336 0
-117 -409 0
-118 -410 0
-119 -411 0
-120 -412 0
-117 -249 0
-118 -250 0
-119 -251 0
-120 -252 0
-113 -361 0
-114 -362 0
-115 -363 0
-116 -364 0
-125 -377 0
-126 -378 0
-127 -379 0
-128 -380 0
-5 -281 0
-6 -282 0
-7 -283 0
-8 -284 0
-113 -185 0
-114 -186 0
-115 -187 0
-116 -188 0
-25 -349 0
-26 -350 0
-27 -351 0
-28 -352 0
-265 -405 0
-266 -406 0
-267 -407 0
-268 -408 0
-369 -485 0
-370 -486 0
-371 -487 0
-372 -488 0
-33 -393 0
-34 -394 0
-35 -395 0
-36 -396 0
-1 -157 0
-2 -158 0
-3 -159 0
-4 -160 0
-453 -465 0
-454 -466 0
-455 -467 0
-456 -468 0
-9 -161 0
-10 -162 0
-11 -163 0
-12 -164 0
-137 -197 0
-138 -198 0
-139 -199 0
-140 -200 0
-37 -217 0
-38 -218 0
-39 -219 0
-40 -220 0
-177 -469 0
-178 -470 0
-179 -471 0
-180 -472 0
-141 -273 0
-142 -274 0
-143 -275 0
-144 -276 0
-249 -385 0
-250 -386 0
-251 -387 0
-252 -388 0
-329 -429 0
-330 -430 0
-331 -431 0
-332 -432 0
-181 -249 0
-182 -250 0
-183 -251 0
-184 -252 0
-37 -113 0
-38 -114 0
-39 -115 0
-40 -116 0
-169 -241 0
-170 -242 0
-171 -243 0
-172 -244 0
-29 -449 0
-30 -450 0
-31 -451 0
-32 -452 0
-1 -281 0
-2 -282 0
-3 -283 0
-4 -284 0
-249 -445 0
-250 -446 0
-251 -447 0
-252 -448 0
-301 -329 0
-302 -330 0
-303 -331 0
-304 -332 0
-145 -413 0
-146 -414 0
-147 -415 0
-148 -416 0
-93 -465 0
-94 -466 0
-95 -467 0
-96 -468 0
-29 -245 0
-30 -246 0
-31 -247 0
-32 -248 0
-149 -365 0
-150 -366 0
-151 -367 0
-152 -368 0
-345 -449 0
-346 -450 0
-347 -451 0
-348 -452 0
-185 -193 0
-186 -194 0
-187 -195 0
-188 -196 0
-5 -65 0
-6 -66 0
-7 -67 0
-8 -68 0
-37 -145 0
-38 -146 0
-39 -147 0
-40 -148 0
-213 -265 0
-214 -266 0
-215 -267 0
-216 -268 0
-169 -373 0
-170 -374 0
-171 -375 0
-172 -376 0
-69 -265 0
-70 -266 0
-71 -267 0
-72 -268 0
-137 -477 0
-138 -478 0
-139 -479 0
-140 -480 0
-189 -469 0
-190 -470 0
-191 -471 0
-192 -472 0
-153 -277 0
-154 -278 0
-155 -279 0
-156 -280 0
-61 -361 0
-62 -362 0
-63 -363 0
-64 -364 0
-237 -241 0
-238 -242 0
-239 -243 0
-240 -244 0
-5 -33 0
-6 -34 0
-7 -35 0
-8 -36 0
-17 -157 0
-18 -158 0
-19 -159 0
-20 -160 0
-429 -473 0
-430 -474 0
-431 -475 0
-432 -476 0
-349 -485 0
-350 -486 0
-351 -487 0
-352 -488 0
-401 -445 0
-402 -446 0
-403 -447 0
-404 -448 0
-145 -261 0
-146 -262 0
-147 -263 0
-148 -264 0
-313 -369 0
-314 -370 0
-315 -371 0
-316 -372 0
-137 -321 0
-138 -322 0
-139 -323 0
-140 -324 0
-441 -485 0
-442 -486 0
-443 -487 0
-444 -488 0
-49 -317 0
-50 -318 0
-51 -319 0
-52 -320 0
-285 -437 0
-286 -438 0
-287 -439 0
-288 -440 0
-229 -381 0
-230 -382 0
-231 -383 0
-232 -384 0
-217 -353 0
-218 -354 0
-219 -355 0
-220 -356 0
-61 -249 0
-62 -250 0
-63 -251 0
-64 -252 0
-441 -481 0
-442 -482 0
-443 -483 0
-444 -484 0
-33 -121 0
-34 -122 0
-35 -123 0
-36 -124 0
-197 -209 0
-198 -210 0
-199 -211 0
-200 -212 0
-177 -345 0
-178 -346 0
-179 -347 0
-180 -348 0
-321 -409 0
-322 -410 0
-323 -411 0
-324 -412 0
-493 -497 0
-494 -498 0
-495 -499 0
-496 -500 0
-113 -413 0
-114 -414 0
-115 -415 0
-116 -416 0
-209 -461 0
-210 -462 0
-211 -463 0
-212 -464 0
-409 -453 0
-410 -454 0
-411 -455 0
-412 -456 0
-85 -397 0
-86 -398 0
-87 -399 0
-88 -400 0
-257 -421 0
-258 -422 0
-259 -423 0
-260 -424 0
-97 -153 0
-98 -154 0
-99 -155 0
-100 -156 0
-57 -213 0
-58 -214 0
-59 -215 0
-60 -216 0
-205 -313 0
-206 -314 0
-207 -315 0
-208 -316 0
-401 -429 0
-402 -430 0
-403 -431 0
-404 -432 0
-109 -137 0
-110 -138 0
-111 -139 0
-112 -140 0
-257 -349 0
-258 -350 0
-259 -351 0
-260 -352 0
-293 -493 0
-294 -494 0
-295 -495 0
-296 -496 0
-89 -449 0
-90 -450 0
-91 -451 0
-92 -452 0
-213 -369 0
-214 -370 0
-215 -371 0
-216 -372 0
-229 -441 0
-230 -442 0
-231 -443 0
-232 -444 0
-49 -153 0
-50 -154 0
-51 -155 0
-52 -156 0
-25 -129 0
-26 -130 0
-27 -131 0
-28 -132 0
-349 -377 0
-350 -378 0
-351 -379 0
-352 -380 0
-233 -325 0
-234 -326 0
-235 -327 0
-236 -328 0
-229 -269 0
-230 -270 0
-231 -271 0
-232 -272 0
-153 -165 0
-154 -166 0
-155 -167 0
-156 -168 0
-209 -265 0
-210 -266 0
-211 -267 0
-212 -268 0
-129 -345 0
-130 -346 0
-131 -347 0
-132 -348 0
-385 -421 0
-386 -422 0
-387 -423 0
-388 -424 0
-149 -161 0
-150 -162 0
-151 -163 0
-152 -164 0
-137 -373 0
-138 -374 0
-139 -375 0
-140 -376 0
-49 -197 0
-50 -198 0
-51 -199 0
-52 -200 0
-269 -345 0
-270 -346 0
-271 -347 0
-272 -348 0
-37 -497 0
-38 -498 0
-39 -499 0
-40 -500 0
-333 -489 0
-334 -490 0
-335 -491 0
-336 -492 0
-369 -393 0
-370 -394 0
-371 -395 0
-372 -396 0
-109 -409 0
-110 -410 0
-111 -411 0
-112 -412 0
-109 -425 0
-110 -426 0
-111 -427 0
-112 -428 0
-165 -365 0
-166 -366 0
-167 -367 0
-168 -368 0
-49 -377 0
-50 -378 0
-51 -379 0
-52 -380 0
-221 -293 0
-222 -294 0
-223 -295 0
-224 -296 0
-117 -441 0
-118 -442 0
-119 -443 0
-120 -444 0
-305 -489 0
-306 -490 0
-307 -491 0
-308 -492 0
-13 -49 0
-14 -50 0
-15 -51 0
-16 -52 0
-305 -349 0
-306 -350 0
-307 -351 0
-308 -352 0
-149 -253 0
-150 -254 0
-151 -255 0
-152 -256 0
-265 -277 0
-266 -278 0
-267 -279 0
-268 -280 0
-81 -229 0
-82 -230 0
-83 -231 0
-84 -232 0
-217 -437 0
-218 -438 0
-219 -439 0
-220 -440 0
-265 -369 0
-266 -370 0
-267 -371 0
-268 -372 0
-377 -461 0
-378 -462 0
-379 -463 0
-380 -464 0
-9 -237 0
-10 -238 0
-11 -239 0
-12 -240 0
-197 -289 0
-198 -290 0
-199 -291 0
-200 -292 0
-25 -305 0
-26 -306 0
-27 -307 0
-28 -308 0
-53 -109 0
-54 -110 0
-55 -111 0
-56 -112 0
-89 -145 0
-90 -146 0
-91 -147 0
-92 -148 0
-129 -245 0
-130 -246 0
-131 -247 0
-132 -248 0
-297 -445 0
-298 -446 0
-299 -447 0
-300 -448 0
-261 -465 0
-262 -466 0
-263 -467 0
-264 -468 0
-257 -437 0
-258 -438 0
-259 -439 0
-260 -440 0
-197 -497 0
-198 -498 0
-199 -499 0
-200 -500 0
-185 -317 0
-186 -318 0
-187 -319 0
-188 -320 0
-249 -269 0
-250 -270 0
-251 -271 0
-252 -272 0
-249 -317 0
-250 -318 0
-251 -319 0
-252 -320 0
-249 -337 0
-250 -338 0
-251 -339 0
-252 -340 0
-57 -413 0
-58 -414 0
-59 -415 0
-60 -416 0
-69 -445 0
-70 -446 0
-71 -447 0
-72 -448 0
-205 -437 0
-206 -438 0
-207 -439 0
-208 -440 0
-133 -477 0
-134 -478 0
-135 -479 0
-136 -480 0
-33 -409 0
-34 -410 0
-35 -411 0
-36 -412 0
-89 -113 0
-90 -114 0
-91 -115 0
-92 -116 0
-193 -333 0
-194 -334 0
-195 -335 0
-196 -336 0
-277 -305 0
-278 -306 0
-279 -307 0
-280 -308 0
-33 -301 0
-34 -302 0
-35 -303 0
-36 -304 0
-85 -313 0
-86 -314 0
-87 -315 0
-88 -316 0
-257 -377 0
-258 -378 0
-259 -379 0
-260 -380 0
-145 -237 0
-146 -238 0
-147 -239 0
-148 -240 0
-13 -405 0
-14 -406 0
-15 -407 0
-16 -408 0
-341 -365 0
-342 -366 0
-343 -367 0
-344 -368 0
-329 -445 0
-330 -446 0
-331 -447 0
-332 -448 0
-197 -281 0
-198 -282 0
-199 -283 0
-200 -284 0
-197 -253 0
-198 -254 0
-199 -255 0
-200 -256 0
-365 -409 0
-366 -410 0
-367 -411 0
-368 -412 0
-17 -425 0
-18 -426 0
-19 -427 0
-20 -428 0
-21 -301 0
-22 -302 0
-23 -303 0
-24 -304 0
-249 -389 0
-250 -390 0
-251 -391 0
-252 -392 0
-425 -493 0
-426 -494 0
-427 -495 0
-428 -496 0
-85 -393 0
-86 -394 0
-87 -395 0
-88 -396 0
-1 -425 0
-2 -426 0
-3 -427 0
-4 -428 0
-265 -309 0
-266 -310 0
-267 -311 0
-268 -312 0
-53 -317 0
-54 -318 0
-55 -319 0
-56 -320 0
-245 -329 0
-246 -330 0
-247 -331 0
-248 -332 0
-177 -285 0
-178 -286 0
-179 -287 0
-180 -288 0
-109 -361 0
-110 -362 0
-111 -363 0
-112 -364 0
-293 -413 0
-294 -414 0
-295 -415 0
-296 -416 0
-69 -141 0
-70 -142 0
-71 -143 0
-72 -144 0
-53 -473 0
-54 -474 0
-55 -475 0
-56 -476 0
-121 -193 0
-122 -194 0
-123 -195 0
-124 -196 0
-369 -477 0
-370 -478 0
-371 -479 0
-372 -480 0
-181 -457 0
-182 -458 0
-183 -459 0
-184 -460 0
-69 -185 0
-70 -186 0
-71 -187 0
-72 -188 0
-9 -93 0
-10 -94 0
-11 -95 0
-12 -96 0
-153 -421 0
-154 -422 0
-155 -423 0
-156 -424 0
-97 -105 0
-98 -106 0
-99 -107 0
-100 -108 0
-13 -105 0
-14 -106 0
-15 -107 0
-16 -108 0
-81 -437 0
-82 -438 0
-83 -439 0
-84 -440 0
-9 -317 0
-10 -318 0
-11 -319 0
-12 -320 0
-173 -325 0
-174 -326 0
-175 -327 0
-176 -328 0
-233 -469 0
-234 -470 0
-235 -471 0
-236 -472 0
-269 -441 0
-270 -442 0
-271 -443 0
-272 -444 0
-45 -417 0
-46 -418 0
-47 -419 0
-48 -420 0
-197 -201 0
-198 -202 0
-199 -203 0
-200 -204 0
-33 -333 0
-34 -334 0
-35 -335 0
-36 -336 0
-297 -469 0
-298 -470 0
-299 -471 0
-300 -472 0
-213 -333 0
-214 -334 0
-215 -335 0
-216 -336 0
-37 -401 0
-38 -402 0
-39 -403 0
-40 -404 0
-181 -429 0
-182 -430 0
-183 -431 0
-184 -432 0
-81 -489 0
-82 -490 0
-83 -491 0
-84 -492 0
-301 -389 0
-302 -390 0
-303 -391 0
-304 -392 0
-53 -125 0
-54 -126 0
-55 -127 0
-56 -128 0
-57 -309 0
-58 -310 0
-59 -311 0
-60 -312 0
-69 -401 0
-70 -402 0
-71 -403 0
-72 -404 0
-9 -433 0
-10 -434 0
-11 -435 0
-12 -436 0
-277 -401 0
-278 -402 0
-279 -403 0
-280 -404 0
-141 -277 0
-142 -278 0
-143 -279 0
-144 -280 0
-37 -289 0
-38 -290 0
-39 -291 0
-40 -292 0
-201 -433 0
-202 -434 0
-203 -435 0
-204 -436 0
-53 -449 0
-54 -450 0
-55 -451 0
-56 -452 0
-73 -85 0
-74 -86 0
-75 -87 0
-76 -88 0
-29 -201 0
-30 -202 0
-31 -203 0
-32 -204 0
-313 -493 0
-314 -494 0
-315 -495 0
-316 -496 0
-97 -237 0
-98 -238 0
-99 -239 0
-100 -240 0
-225 -393 0
-226 -394 0
-227 -395 0
-228 -396 0
-341 -381 0
-342 -382 0
-343 -383 0
-344 -384 0
-209 -421 0
-210 -422 0
-211 -423 0
-212 -424 0
-121 -369 0
-122 -370 0
-123 -371 0
-124 -372 0
-197 -361 0
-198 -362 0
-199 -363 0
-200 -364 0
-181 -313 0
-182 -314 0
-183 -315 0
-184 -316 0
-17 -301 0
-18 -302 0
-19 -303 0
-20 -304 0
-281 -453 0
-282 -454 0
-283 -455 0
-284 -456 0
-153 -301 0
-154 -302 0
-155 -303 0
-156 -304 0
-21 -465 0
-22 -466 0
-23 -467 0
-24 -468 0
-417 -485 0
-418 -486 0
-419 -487 0
-420 -488 0
-101 -333 0
-102 -334 0
-103 -335 0
-104 -336 0
-89 -337 0
-90 -338 0
-91 -339 0
-92 -340 0
-257 -345 0
-258 -346 0
-259 -347 0
-260 -348 0
-165 -185 0
-166 -186 0
-167 -187 0
-168 -188 0
-181 -233 0
-182 -234 0
-183 -235 0
-184 -236 0
-21 -397 0
-22 -398 0
-23 -399 0
-24 -400 0
-245 -313 0
-246 -314 0
-247 -315 0
-248 -316 0
-169 -365 0
-170 -366 0
-171 -367 0
-172 -368 0
-65 -317 0
-66 -318 0
-67 -319 0
-68 -320 0
-101 -169 0
-102 -170 0
-103 -171 0
-104 -172 0
-197 -345 0
-198 -346 0
-199 -347 0
-200 -348 0
-109 -153 0
-110 -154 0
-111 -155 0
-112 -156 0
-89 -385 0
-90 -386 0
-91 -387 0
-92 -388 0
-129 -189 0
-130 -190 0
-131 -191 0
-132 -192 0
-249 -285 0
-250 -286 0
-251 -287 0
-252 -288 0
-353 -361 0
-354 -362 0
-355 -363 0
-356 -364 0
-145 -377 0
-146 -378 0
-147 -379 0
-148 -380 0
-177 -365 0
-178 -366 0
-179 -367 0
-180 -368 0
-5 -273 0
-6 -274 0
-7 -275 0
-8 -276 0
-185 -445 0
-186 -446 0
-187 -447 0
-188 -448 0
-41 -453 0
-42 -454 0
-43 -455 0
-44 -456 0
-21 -113 0
-22 -114 0
-23 -115 0
-24 -116 0
-185 -229 0
-186 -230 0
-187 -231 0
-188 -232 0
-177 -441 0
-178 -442 0
-179 -443 0
-180 -444 0
-157 -309 0
-158 -310 0
-159 -311 0
-160 -312 0
-297 -481 0
-298 -482 0
-299 -483 0
-300 -484 0
-97 -133 0
-98 -134 0
-99 -135 0
-100 -136 0
-45 -197 0
-46 -198 0
-47 -199 0
-48 -200 0
-117 -221 0
-118 -222 0
-119 -223 0
-120 -224 0
-17 -349 0
-18 -350 0
-19 -351 0
-20 -352 0
-29 -153 0
-30 -154 0
-31 -155 0
-32 -156 0
