c generated_for formulae_like benchmark
c seed 20260531
c family planted_3sat_dense
c expected_status SAT
c notes dense hidden-assignment 3-SAT
p cnf 200 1500
-39 -63 111 0
-84 117 142 0
-16 -29 -56 0
41 -77 190 0
-52 66 -76 0
-45 48 -151 0
36 -74 189 0
59 104 -118 0
24 -132 -178 0
-40 160 184 0
77 -103 -116 0
-33 64 130 0
114 -134 198 0
-69 -149 183 0
82 132 150 0
37 -186 197 0
135 -165 -199 0
-29 -95 -121 0
49 98 111 0
69 -91 -94 0
-36 145 198 0
-51 -134 -146 0
35 -52 130 0
72 -106 -165 0
22 -32 114 0
-19 -103 109 0
74 110 179 0
32 103 -168 0
-64 141 -168 0
9 -94 -129 0
-141 160 198 0
52 -152 -153 0
-81 120 149 0
17 -84 143 0
-117 -138 -190 0
-53 74 116 0
-12 34 137 0
-60 -101 -115 0
-95 96 112 0
55 112 157 0
51 127 186 0
88 111 -132 0
4 -60 -154 0
4 8 98 0
94 124 197 0
-84 -131 183 0
32 -164 -180 0
12 98 -197 0
-86 -95 107 0
-116 -120 121 0
88 123 -196 0
-126 164 198 0
3 -8 -45 0
25 -70 -179 0
14 81 -133 0
-7 -106 -125 0
-21 67 -154 0
50 -118 172 0
67 -88 98 0
-6 61 -107 0
-59 -65 -196 0
57 -120 -169 0
-26 -34 -122 0
11 -135 -141 0
-5 -131 -183 0
-24 -182 188 0
-23 -126 -192 0
32 133 -181 0
48 -58 171 0
14 76 173 0
50 127 -163 0
88 99 195 0
3 30 -167 0
44 -47 54 0
-79 -127 -131 0
-63 136 -138 0
117 -151 -175 0
-89 111 -181 0
1 97 150 0
-53 -113 188 0
96 -126 157 0
112 -142 175 0
-53 -108 -165 0
-49 132 144 0
10 34 -132 0
-3 -126 -143 0
64 -66 -191 0
-87 134 193 0
-3 -43 -63 0
148 -175 -189 0
-34 -114 182 0
39 -54 86 0
-1 36 -71 0
-143 159 -186 0
-34 72 157 0
-12 -27 -92 0
1 -32 67 0
-4 126 -153 0
-99 157 -162 0
-42 -72 -94 0
34 93 117 0
7 95 -190 0
-48 65 -91 0
76 90 102 0
70 93 147 0
73 99 -127 0
-33 -126 176 0
118 -129 -172 0
-26 -72 -167 0
-55 99 -119 0
-22 -42 -175 0
-6 99 107 0
125 -172 189 0
115 117 132 0
-8 -54 -56 0
6 36 -92 0
45 87 114 0
54 -186 192 0
66 109 151 0
-12 27 -156 0
94 157 174 0
-12 41 -107 0
-105 127 -196 0
9 82 -159 0
56 152 192 0
-16 -86 146 0
-39 -91 -110 0
-84 -91 -155 0
-150 196 -198 0
120 -155 -179 0
56 -124 -132 0
-30 -161 163 0
-8 35 -189 0
82 109 192 0
44 72 120 0
-13 -55 -68 0
3 35 151 0
-47 70 118 0
14 104 114 0
-49 -97 -122 0
52 53 -193 0
-37 84 169 0
-96 100 -135 0
-32 -106 -141 0
-143 146 149 0
39 97 -133 0
-28 69 147 0
84 150 191 0
44 114 -195 0
9 12 105 0
2 -42 159 0
-65 -113 136 0
23 133 -138 0
-142 -147 167 0
-86 -185 198 0
-53 86 -172 0
-61 -64 136 0
-26 61 -177 0
86 -188 191 0
108 -109 125 0
91 99 -138 0
43 -82 -93 0
65 70 139 0
-73 114 -167 0
-32 -72 -74 0
3 104 131 0
-45 74 -137 0
-42 79 130 0
-24 -174 -199 0
8 -12 -111 0
79 -190 -196 0
120 141 163 0
94 140 179 0
-52 -85 131 0
-75 -125 128 0
-19 119 -129 0
69 -70 -71 0
-83 161 180 0
-43 -153 166 0
-140 162 -184 0
9 -174 -187 0
105 -155 198 0
3 -69 187 0
-71 100 101 0
-106 169 175 0
25 62 150 0
51 116 192 0
118 142 162 0
-69 -79 83 0
25 -67 145 0
75 -84 -156 0
-21 136 -167 0
44 103 -159 0
-16 -128 -134 0
86 -125 168 0
-75 155 190 0
113 -175 -180 0
11 -23 76 0
-78 -99 107 0
-11 62 -146 0
26 -36 192 0
-35 -51 193 0
-35 -123 -157 0
1 -82 96 0
-34 -93 -142 0
45 150 -152 0
51 -118 182 0
61 -95 -161 0
81 107 -153 0
-63 -80 -141 0
-55 -83 -196 0
-38 81 131 0
39 -51 -72 0
6 -16 -67 0
3 -27 127 0
-32 123 -130 0
86 -93 -174 0
76 152 191 0
-35 -86 117 0
13 73 -134 0
-12 -154 -187 0
1 -61 74 0
-63 -129 -153 0
34 -37 44 0
-32 -46 -62 0
118 166 198 0
-121 -144 155 0
3 73 -174 0
-105 106 172 0
-44 -78 -187 0
4 -173 -192 0
39 52 178 0
39 -140 -180 0
24 122 -194 0
42 73 -86 0
27 58 -113 0
-94 111 175 0
72 176 -178 0
-14 28 172 0
42 -104 158 0
27 -120 -142 0
65 77 -183 0
10 178 185 0
39 94 -168 0
104 143 158 0
50 -154 159 0
-31 66 -134 0
-2 9 164 0
-3 -30 -71 0
106 -141 199 0
14 -52 -150 0
-107 -141 -192 0
-15 -34 -178 0
-30 -101 185 0
-73 -118 -160 0
-138 153 187 0
15 -66 102 0
-60 182 -200 0
-95 116 146 0
-3 -92 -146 0
-104 -125 171 0
-54 -170 -178 0
72 154 184 0
-25 79 92 0
-53 -62 81 0
103 132 170 0
-6 44 -104 0
-81 -98 173 0
-4 -88 197 0
25 159 -196 0
31 40 104 0
11 -68 -134 0
26 77 -161 0
71 174 178 0
110 131 144 0
-56 -100 -139 0
-139 -153 -160 0
135 145 192 0
119 -152 160 0
-37 -110 189 0
40 -98 163 0
59 151 160 0
-37 78 122 0
15 -18 180 0
44 96 -195 0
29 156 -192 0
37 46 196 0
16 -59 123 0
11 21 -146 0
7 -48 195 0
42 -70 186 0
-70 -155 -187 0
-71 -91 104 0
-64 -98 166 0
-118 -124 -136 0
-19 74 152 0
60 173 176 0
118 141 167 0
-130 -150 164 0
5 71 101 0
1 -45 -164 0
-77 -120 -122 0
39 63 -84 0
-71 -79 89 0
120 153 174 0
-21 63 174 0
45 -111 169 0
81 132 182 0
-67 113 178 0
-4 34 -69 0
-39 74 156 0
56 -64 -174 0
13 93 94 0
-27 -64 171 0
71 104 182 0
-107 -150 160 0
-25 -43 156 0
-71 89 -168 0
61 -75 -185 0
22 94 137 0
6 84 -135 0
-37 98 -101 0
29 -75 153 0
73 176 185 0
-5 -148 165 0
-6 161 167 0
28 161 178 0
-35 43 -59 0
-66 -100 139 0
2 -70 164 0
-8 60 82 0
105 -136 -151 0
22 -26 196 0
-61 146 190 0
-24 -76 -83 0
-13 -61 -148 0
-14 91 164 0
-18 -28 -144 0
69 -185 -192 0
-88 142 -194 0
31 -54 -169 0
9 76 -183 0
-15 81 -183 0
4 -14 -188 0
-26 -80 86 0
74 175 189 0
19 -72 -94 0
30 59 94 0
-81 -117 142 0
100 -121 -141 0
83 90 143 0
92 164 200 0
-129 153 -172 0
28 31 136 0
81 88 189 0
76 -132 164 0
-2 44 158 0
18 -75 -125 0
4 -16 -44 0
25 -164 -185 0
-3 25 127 0
-26 33 -81 0
-140 181 195 0
-15 -124 -154 0
55 67 -199 0
74 142 -155 0
41 179 189 0
24 63 -175 0
-32 120 -175 0
-8 28 -36 0
34 -64 -99 0
-70 -85 -119 0
-32 -62 99 0
14 -96 -135 0
-46 111 162 0
-12 -79 190 0
29 56 -97 0
120 -144 164 0
79 -134 -171 0
10 25 -38 0
39 -98 -128 0
-18 73 84 0
-15 76 -102 0
-36 165 -195 0
-52 -87 119 0
102 -145 -162 0
-17 -35 -191 0
-93 -186 187 0
16 -38 181 0
-100 -118 -164 0
-53 120 -190 0
92 -141 -151 0
68 -119 134 0
70 169 -191 0
28 -142 -154 0
-38 68 -186 0
-117 -162 192 0
-20 -61 160 0
43 50 171 0
-57 -79 122 0
-19 -75 190 0
37 -45 -159 0
-23 78 -95 0
71 -160 162 0
-84 170 -200 0
33 65 85 0
-25 -63 -109 0
63 -64 -87 0
36 76 -125 0
6 -79 -174 0
36 -127 -128 0
77 -91 119 0
-21 97 112 0
14 108 185 0
69 94 -125 0
-55 -77 -149 0
5 -83 -118 0
-86 -134 -176 0
31 -63 180 0
9 22 -93 0
43 48 -162 0
-13 -75 -178 0
-9 -160 -170 0
-2 -81 -129 0
-46 73 -122 0
71 -105 133 0
-9 -100 -158 0
22 -178 -184 0
38 58 113 0
125 178 194 0
-81 159 -183 0
72 -166 170 0
144 -187 -200 0
-9 -175 190 0
83 130 199 0
72 -146 160 0
-173 -175 186 0
-14 92 -152 0
-54 -161 -162 0
74 160 -192 0
-22 -35 88 0
10 50 164 0
2 -82 171 0
-48 141 167 0
-97 159 195 0
-95 -99 144 0
-30 -75 183 0
-28 32 -36 0
-31 63 108 0
-62 68 -168 0
-33 -110 143 0
-17 -122 150 0
40 -62 -174 0
-72 -89 -159 0
4 64 67 0
31 -114 156 0
56 -169 193 0
-15 33 -73 0
6 106 180 0
-55 -65 -121 0
-50 52 -115 0
31 77 -119 0
12 -63 127 0
137 -164 196 0
65 -96 -182 0
48 -91 125 0
92 155 -199 0
13 87 139 0
-98 -100 172 0
11 62 183 0
-9 181 195 0
-119 120 132 0
22 102 186 0
-41 -66 130 0
-75 186 195 0
-23 35 41 0
-31 -36 -149 0
1 96 -119 0
-100 170 -196 0
48 -52 -168 0
-18 -56 162 0
43 -96 163 0
32 -35 187 0
-107 -158 -188 0
110 -141 160 0
56 -127 131 0
73 83 -168 0
-90 -93 122 0
11 60 -143 0
-40 -75 -112 0
-41 -78 150 0
-31 -47 -200 0
1 8 -51 0
-21 -128 -129 0
13 -183 -185 0
-135 167 199 0
5 44 -135 0
-22 100 134 0
-10 -92 -142 0
156 183 190 0
-46 95 189 0
124 -143 -165 0
15 -124 162 0
65 -114 -143 0
-65 -68 -70 0
65 -153 169 0
9 -38 -199 0
-12 -21 158 0
13 -108 -159 0
20 51 188 0
-2 111 -128 0
-85 -113 143 0
64 102 170 0
-62 167 -180 0
114 117 199 0
-124 -148 -196 0
-49 104 -136 0
-12 -85 -143 0
-61 102 135 0
-110 151 163 0
-22 -163 -167 0
-25 -111 -172 0
-127 151 194 0
5 -81 -161 0
-74 83 -130 0
-96 111 -154 0
-2 54 -155 0
17 -86 119 0
97 162 -175 0
-107 -128 -143 0
22 -71 -199 0
-7 40 141 0
76 -135 155 0
-89 -146 157 0
35 102 -118 0
10 -153 -161 0
-30 62 86 0
16 -26 105 0
-23 50 -104 0
-45 154 -158 0
9 -171 -180 0
-89 101 -127 0
-138 163 -177 0
2 -55 132 0
110 -142 -158 0
-41 -108 169 0
103 -190 -196 0
-62 77 -167 0
114 179 -185 0
31 -33 107 0
54 63 -78 0
-55 -147 -188 0
121 157 158 0
137 -159 162 0
29 51 96 0
-23 -104 -124 0
5 134 -138 0
54 104 112 0
-64 -105 180 0
4 -120 183 0
-39 -51 -135 0
74 108 128 0
30 61 101 0
-61 -137 157 0
119 130 -182 0
-123 -149 196 0
33 142 -149 0
-80 -101 -166 0
-29 -60 -161 0
-20 26 198 0
51 -94 189 0
-5 153 -172 0
35 -102 187 0
29 -67 -90 0
8 -77 196 0
-10 54 -132 0
-34 145 163 0
55 -74 114 0
-40 -58 144 0
8 10 -98 0
47 104 129 0
7 40 160 0
24 164 -178 0
131 144 180 0
-91 -111 141 0
-44 -133 -153 0
-73 -77 -83 0
-15 96 134 0
30 -104 -128 0
73 -95 97 0
39 -185 200 0
44 96 188 0
-26 118 141 0
47 53 -137 0
39 120 -188 0
114 134 -152 0
151 165 180 0
-35 -172 -194 0
-57 -148 -170 0
105 133 160 0
-17 43 86 0
120 121 -128 0
32 -120 197 0
80 -179 198 0
-104 -185 191 0
3 51 -197 0
-55 89 127 0
22 144 -177 0
88 -102 -143 0
-43 -52 187 0
32 -76 -147 0
-30 163 -180 0
76 89 -137 0
-37 -126 -138 0
-117 -149 195 0
-50 91 109 0
67 -98 -198 0
45 75 -91 0
106 -108 -160 0
-2 -24 142 0
-64 68 -105 0
59 -128 165 0
38 82 -144 0
11 40 159 0
25 130 -159 0
11 15 -46 0
25 53 60 0
-129 143 145 0
2 19 -166 0
42 44 114 0
27 49 145 0
-1 90 -190 0
23 -84 180 0
124 135 -170 0
-80 -121 -160 0
-15 152 -171 0
58 -99 -100 0
9 -57 131 0
21 146 154 0
31 59 -112 0
6 -174 181 0
-93 -110 152 0
100 110 -122 0
3 124 189 0
-26 117 184 0
-33 -127 185 0
44 -53 88 0
78 80 -193 0
-25 -108 193 0
31 -58 157 0
-52 90 -128 0
-99 140 170 0
118 -163 168 0
-50 -93 -187 0
83 134 183 0
17 -55 -103 0
-59 -67 -175 0
20 -33 90 0
33 76 192 0
-34 -70 105 0
16 118 166 0
51 64 -100 0
-35 177 179 0
-62 86 105 0
-133 -183 196 0
109 -119 -200 0
-32 -46 -111 0
9 98 -99 0
91 165 193 0
-85 -120 148 0
71 -89 -133 0
18 75 -166 0
-35 -41 184 0
60 -132 -153 0
-36 -59 194 0
86 109 -152 0
-71 -109 181 0
74 -115 -154 0
1 -54 -134 0
14 69 -76 0
-24 162 168 0
42 162 165 0
-75 149 162 0
-74 -141 185 0
21 79 179 0
65 -79 193 0
86 -144 163 0
26 68 -164 0
79 -134 148 0
-59 162 -173 0
73 -152 -172 0
-33 109 -172 0
-53 122 137 0
21 -54 -59 0
68 107 184 0
24 -43 158 0
-139 -146 196 0
-11 -78 189 0
-29 -38 -82 0
50 60 185 0
-73 132 173 0
147 156 -161 0
-18 -56 97 0
123 139 -176 0
-58 114 -178 0
-13 91 154 0
101 159 -167 0
9 -98 119 0
-30 -64 -110 0
19 30 -117 0
72 -106 -115 0
34 -127 128 0
-40 -103 121 0
13 -178 -185 0
92 174 -178 0
17 -30 84 0
54 -88 -98 0
98 -129 -142 0
49 -72 182 0
12 -25 140 0
47 78 -123 0
40 73 192 0
23 40 150 0
-3 -127 -178 0
98 120 185 0
45 -122 157 0
-30 -52 74 0
-26 -65 76 0
102 148 173 0
103 131 -197 0
47 -88 139 0
-108 -123 -160 0
103 164 174 0
-19 98 182 0
-76 -96 163 0
-29 103 177 0
-50 -87 -103 0
-35 -67 170 0
-29 -107 190 0
-60 -69 -102 0
-30 110 117 0
-18 -88 113 0
-44 110 194 0
-4 -105 -159 0
91 122 -166 0
17 -46 -115 0
34 -67 -154 0
80 -106 -159 0
28 -40 118 0
-51 60 -95 0
91 113 -182 0
60 -178 -200 0
-3 109 -183 0
-43 149 150 0
-57 127 160 0
30 113 131 0
-2 -30 42 0
15 -31 168 0
5 -105 194 0
6 -71 138 0
-67 -97 -142 0
-61 65 -165 0
-7 88 186 0
-16 81 102 0
23 -140 178 0
14 -35 134 0
66 -79 -112 0
117 120 139 0
-107 -173 197 0
116 163 191 0
-78 -87 -157 0
45 105 -163 0
2 5 50 0
-43 -65 -190 0
43 76 117 0
-54 93 -189 0
18 150 -152 0
-78 81 128 0
-107 114 200 0
-10 92 -157 0
-110 112 -134 0
-56 -153 172 0
-61 -95 188 0
-6 20 -100 0
-31 -133 -153 0
-99 122 153 0
-66 107 -141 0
19 -44 97 0
21 48 138 0
28 -83 153 0
-58 105 175 0
17 124 199 0
-116 -133 -144 0
-32 -53 -72 0
44 145 -191 0
-94 186 194 0
22 -136 154 0
-95 146 153 0
39 91 -123 0
-32 -71 -193 0
-168 -171 190 0
-35 -88 107 0
7 -114 196 0
-12 -112 191 0
112 -132 194 0
-17 -123 -199 0
-103 140 195 0
-58 -118 -136 0
-10 -21 -68 0
84 -94 174 0
42 125 -141 0
-32 -109 -179 0
24 45 157 0
-12 -32 166 0
29 -87 190 0
50 -63 -85 0
10 160 -178 0
70 -159 -190 0
2 3 76 0
-107 138 192 0
-119 146 -158 0
-31 73 145 0
-5 -134 195 0
-33 -146 184 0
-97 101 179 0
-74 -103 -148 0
22 -52 -78 0
56 66 103 0
-84 112 -137 0
130 -160 162 0
104 150 -159 0
53 78 80 0
36 91 94 0
3 -68 -158 0
152 177 180 0
11 28 -187 0
14 -125 -147 0
-128 -144 162 0
-33 -66 -155 0
5 -15 156 0
-93 153 -178 0
101 -142 179 0
83 168 -189 0
35 104 -168 0
-16 21 -138 0
-44 84 -100 0
80 168 -178 0
-17 157 184 0
-118 -124 163 0
-9 -73 -192 0
-13 -92 104 0
-23 49 187 0
54 -93 161 0
-85 -105 174 0
-60 -70 179 0
-21 -23 184 0
75 109 -173 0
75 109 149 0
1 -122 135 0
85 90 139 0
40 -79 -109 0
-13 188 -191 0
-69 180 -198 0
-52 -110 -142 0
-26 -66 70 0
18 -41 -190 0
-33 -76 101 0
-49 99 166 0
44 -173 198 0
98 135 153 0
19 -108 150 0
91 110 -173 0
-53 74 174 0
87 -190 199 0
15 -92 157 0
114 123 146 0
-24 -71 81 0
60 -116 -153 0
-81 90 -200 0
9 -15 174 0
6 -29 -67 0
56 -151 -169 0
121 -148 171 0
-89 131 -180 0
-3 69 147 0
18 112 -194 0
43 -130 165 0
-58 -71 -156 0
1 -59 -140 0
-143 -182 192 0
50 98 -195 0
-57 113 183 0
18 -25 188 0
-21 95 -186 0
-7 -33 -122 0
8 -81 -137 0
-67 -107 -129 0
54 135 175 0
-1 -26 200 0
-2 3 176 0
39 156 196 0
-63 -85 196 0
-8 104 -111 0
3 74 163 0
43 51 -113 0
-83 -111 167 0
-2 -7 -89 0
12 27 -120 0
109 161 194 0
-19 -69 -85 0
51 -128 -178 0
72 124 140 0
44 -51 -83 0
19 -84 182 0
20 91 -97 0
32 173 -194 0
51 79 -102 0
-99 -183 -199 0
31 63 99 0
-45 -52 -106 0
5 28 -165 0
28 -65 133 0
8 -15 146 0
-105 173 181 0
-70 -125 190 0
-66 146 165 0
73 -184 -197 0
109 113 147 0
-81 -94 141 0
6 -36 170 0
62 72 102 0
84 -114 163 0
51 -90 -173 0
82 107 -181 0
81 128 158 0
-104 175 183 0
-63 -75 -90 0
17 71 -87 0
-72 190 -194 0
-25 90 181 0
8 88 174 0
-56 75 -145 0
-9 47 -169 0
54 98 157 0
1 122 -164 0
105 -108 -156 0
38 -167 183 0
99 -151 -200 0
79 84 195 0
78 -169 182 0
-72 -122 165 0
87 -127 132 0
-53 -69 168 0
2 -132 -154 0
-22 25 187 0
12 -22 -115 0
68 191 195 0
16 71 -141 0
7 22 -35 0
-102 113 190 0
73 84 102 0
-48 -80 93 0
-63 127 189 0
93 159 -165 0
14 60 129 0
-8 44 180 0
-3 125 -128 0
4 -69 -192 0
-4 -16 -103 0
14 24 129 0
-94 118 -171 0
106 125 128 0
30 -185 -199 0
49 -66 -126 0
-83 -148 150 0
-35 88 95 0
-121 -128 147 0
25 65 74 0
-102 106 -117 0
-72 -95 161 0
81 -95 -182 0
-102 143 -195 0
-138 -187 189 0
-9 -117 144 0
-66 -97 140 0
70 -108 -161 0
-6 8 92 0
-80 -95 154 0
-5 144 192 0
5 24 -42 0
-19 -142 -165 0
10 122 -125 0
-21 22 176 0
-39 43 -175 0
-103 -148 181 0
105 138 -139 0
162 -181 -193 0
-4 -104 -177 0
-53 -63 183 0
-18 27 123 0
59 -62 114 0
29 34 -118 0
10 -129 -132 0
-7 -144 -198 0
-44 -148 192 0
65 86 -129 0
78 125 -183 0
-21 -27 -57 0
-86 -140 -199 0
16 74 117 0
-26 64 -103 0
-19 -80 173 0
-34 51 -131 0
13 -95 -199 0
-16 58 89 0
33 -93 -138 0
60 -156 174 0
-4 19 -64 0
-3 -59 -179 0
25 51 -114 0
-38 84 139 0
-38 -118 -199 0
-60 162 194 0
-23 -89 -103 0
66 89 -141 0
-30 45 -113 0
78 84 -193 0
-70 137 191 0
50 -64 128 0
7 -28 170 0
53 108 130 0
11 -13 168 0
-13 102 -107 0
-32 -51 124 0
-4 -128 173 0
35 -81 -182 0
-4 -8 -121 0
4 5 162 0
87 112 -151 0
-94 -107 -168 0
32 -137 -194 0
80 -121 162 0
23 38 172 0
-108 152 -167 0
74 -76 -198 0
-16 -28 128 0
86 159 164 0
-115 -155 191 0
45 57 -171 0
7 -18 74 0
-13 -75 -154 0
44 80 -164 0
64 -106 199 0
10 -73 198 0
-5 164 183 0
-36 37 108 0
35 -112 -145 0
23 25 146 0
-42 -71 -189 0
69 -79 -97 0
43 -62 -67 0
-8 35 111 0
25 131 187 0
-23 26 180 0
-63 115 142 0
-91 -151 196 0
-30 -78 112 0
43 133 168 0
3 -144 -173 0
-61 -75 -132 0
-2 45 159 0
-13 142 189 0
4 -29 151 0
36 85 121 0
-56 69 -175 0
6 13 38 0
-39 58 -73 0
-64 -67 188 0
21 -95 130 0
49 -115 150 0
-2 -107 -173 0
-70 137 -194 0
16 34 66 0
-51 -149 -158 0
69 -104 162 0
65 114 -127 0
110 121 -163 0
-127 -159 160 0
57 -74 -157 0
45 51 -144 0
26 -131 -152 0
-24 -45 -134 0
-9 -108 153 0
15 -36 51 0
-119 126 -179 0
-132 171 -195 0
-23 -153 -169 0
-15 -140 159 0
8 -133 -144 0
-9 83 90 0
-39 92 -167 0
59 -178 185 0
57 85 -174 0
138 159 -188 0
-39 -60 -88 0
-7 68 -148 0
-33 -46 -86 0
50 -52 88 0
1 66 -134 0
76 95 110 0
-20 24 -98 0
-125 161 -199 0
-44 -108 -109 0
-51 100 115 0
-62 -164 -187 0
-46 -62 -68 0
-15 -110 190 0
-8 -71 83 0
-100 -157 188 0
-42 -87 -197 0
44 90 112 0
-29 76 138 0
-33 -71 -173 0
66 174 195 0
-26 -106 -117 0
-8 63 -171 0
-79 -106 -187 0
-53 -150 159 0
28 143 198 0
-47 -96 190 0
-76 77 -101 0
26 67 -132 0
18 -63 126 0
55 91 -142 0
-22 93 171 0
-2 158 -176 0
13 -25 118 0
-88 -89 125 0
-43 87 -127 0
-33 73 -151 0
-58 59 107 0
-34 -91 -154 0
34 120 -130 0
22 35 103 0
-125 -172 177 0
57 -130 -139 0
-21 -63 -172 0
35 56 -170 0
4 112 -180 0
-75 100 138 0
57 -151 -190 0
-70 -101 130 0
-46 51 176 0
-7 -48 -143 0
-35 57 147 0
-41 42 -152 0
84 -127 -174 0
-18 -69 -150 0
7 78 199 0
-89 -95 -129 0
11 -19 -132 0
-32 -65 67 0
3 28 50 0
63 -78 105 0
46 57 -110 0
4 -82 87 0
72 187 199 0
46 67 193 0
-61 -151 -160 0
-68 156 -166 0
113 129 165 0
49 97 -126 0
-6 174 -192 0
-33 -55 136 0
-13 -154 -162 0
19 125 -132 0
4 -29 49 0
151 -185 188 0
4 -96 -99 0
51 -112 -121 0
28 34 -70 0
-80 139 180 0
54 -112 -141 0
-96 99 -173 0
77 105 -111 0
52 -110 185 0
22 -44 83 0
-46 -151 200 0
82 124 185 0
-117 134 -188 0
37 38 102 0
-28 116 152 0
-48 -65 95 0
-55 -80 150 0
103 144 -167 0
5 -27 -105 0
-54 61 -100 0
36 -125 -131 0
4 81 -136 0
-30 159 -186 0
8 -39 121 0
-94 168 196 0
33 82 -117 0
7 64 164 0
18 -33 181 0
-25 71 -89 0
-42 90 165 0
29 -93 -167 0
-14 -26 72 0
-19 29 129 0
-67 -68 -190 0
-10 -84 124 0
-10 133 -195 0
23 45 54 0
3 91 -171 0
-113 -129 141 0
-73 119 -174 0
-19 -58 -129 0
-51 -99 180 0
12 -46 100 0
86 -90 -133 0
-36 -82 -190 0
-35 -96 -179 0
-134 150 -162 0
104 152 -156 0
20 44 197 0
5 -10 -90 0
94 -120 -123 0
-59 -137 192 0
25 -135 -170 0
67 -130 -163 0
-75 79 121 0
15 170 -197 0
8 -96 -194 0
122 -180 -188 0
-55 96 149 0
110 -117 169 0
-132 -146 -147 0
16 -36 165 0
89 111 -180 0
73 115 142 0
-129 -152 163 0
-79 -132 -180 0
156 170 194 0
-120 145 -193 0
-7 81 -131 0
10 87 120 0
-20 85 -129 0
42 181 188 0
25 85 169 0
100 -186 -200 0
41 -60 72 0
-52 103 -160 0
-104 -139 157 0
11 -49 -100 0
32 -38 192 0
28 67 -100 0
26 -44 -153 0
51 -80 184 0
-20 -57 152 0
-58 64 75 0
4 148 -169 0
-26 -71 83 0
33 131 183 0
-11 151 190 0
122 134 -186 0
16 -45 181 0
-106 157 191 0
-20 -126 165 0
-46 132 170 0
44 120 -176 0
-65 83 120 0
164 189 -196 0
43 -100 -187 0
-98 144 -194 0
34 109 171 0
73 -162 -170 0
73 108 171 0
45 -85 -144 0
-19 171 188 0
-9 -30 98 0
-121 126 157 0
-97 112 -122 0
-119 -162 164 0
38 -115 -195 0
-42 53 74 0
-123 153 -179 0
44 -81 126 0
13 -77 -200 0
66 99 175 0
-14 -18 63 0
-70 -104 196 0
2 -87 153 0
-14 147 -194 0
-95 120 -146 0
-22 -40 169 0
-54 77 -81 0
-17 -51 -123 0
103 125 -155 0
-4 -58 -113 0
-7 69 -84 0
-36 121 -165 0
-32 -112 -130 0
6 69 -174 0
-52 -54 168 0
74 159 194 0
80 -135 154 0
-5 -49 126 0
115 162 -200 0
-51 -103 -114 0
-47 -166 -187 0
72 -139 169 0
-33 79 -148 0
3 22 192 0
105 -144 192 0
-66 118 164 0
92 189 199 0
56 130 177 0
-50 -112 123 0
49 -64 -155 0
12 47 97 0
-50 102 -103 0
-87 115 -158 0
7 -8 -123 0
6 71 -156 0
21 -51 -133 0
-57 -73 132 0
-2 114 -164 0
40 -99 -142 0
-33 -156 189 0
23 71 166 0
34 -105 148 0
3 -65 161 0
59 -82 -142 0
-12 -126 195 0
-120 144 177 0
86 -115 192 0
13 -54 65 0
63 68 -90 0
-4 -46 -167 0
-69 100 -101 0
68 -73 176 0
-36 140 190 0
52 73 118 0
-54 -90 -200 0
-64 -86 -167 0
150 170 -198 0
92 -93 96 0
15 58 86 0
94 116 -141 0
11 -133 -199 0
-21 -35 98 0
50 63 93 0
6 9 -159 0
-79 -135 -153 0
-65 83 -161 0
134 156 -181 0
-55 61 70 0
97 -125 186 0
-3 -55 128 0
-25 44 -73 0
-62 103 198 0
11 49 163 0
3 20 189 0
-35 46 -191 0
33 99 -145 0
21 103 -164 0
-23 -61 162 0
82 122 146 0
15 -51 102 0
-10 -16 -68 0
29 125 184 0
-5 -93 193 0
-68 77 -159 0
106 -138 184 0
-166 -178 184 0
17 -31 160 0
-75 -165 -184 0
-53 74 130 0
109 -169 -175 0
10 80 199 0
-1 -57 176 0
-54 -130 -135 0
-35 -55 62 0
102 108 184 0
-70 101 191 0
119 120 133 0
-101 -113 173 0
-14 20 -190 0
-15 67 144 0
-53 -132 -198 0
62 -98 -132 0
40 -52 -197 0
56 -83 -199 0
-33 -182 195 0
-12 67 -167 0
-118 -129 185 0
97 -132 -193 0
111 151 199 0
-25 26 -120 0
28 -37 -151 0
18 -93 -156 0
49 75 -153 0
8 -75 152 0
-22 -42 -131 0
-30 133 -181 0
36 -89 -98 0
19 -156 -186 0
-6 42 -183 0
-64 131 195 0
47 -84 154 0
-37 122 172 0
48 -96 138 0
-23 33 160 0
-40 167 173 0
-30 -85 -97 0
2 -126 -181 0
60 92 100 0
-1 32 -117 0
-118 123 195 0
-114 140 -171 0
-10 45 67 0
46 47 118 0
124 -130 138 0
-42 -84 155 0
129 153 160 0
25 75 146 0
-33 60 61 0
-146 -153 -172 0
12 67 118 0
14 -133 -161 0
-1 -40 116 0
7 -35 182 0
89 -96 -142 0
33 -78 145 0
-25 100 -168 0
28 -82 -137 0
45 80 -116 0
-103 -121 -161 0
43 74 -188 0
-61 -98 -185 0
-13 152 153 0
-61 106 159 0
-29 121 -192 0
-58 83 100 0
-19 48 -107 0
6 51 180 0
4 -25 46 0
-27 -59 -93 0
-10 -17 -152 0
-40 -173 186 0
36 -178 200 0
81 110 122 0
-121 133 -173 0
-6 -82 184 0
-68 138 -154 0
-119 -143 -178 0
-69 95 110 0
-1 156 -180 0
9 -15 -71 0
12 34 -134 0
103 -104 141 0
-34 -63 -147 0
-16 62 -153 0
4 8 -104 0
-11 -115 -116 0
-31 -32 -46 0
-81 145 195 0
68 157 182 0
43 -92 -101 0
36 -122 167 0
108 -120 -182 0
5 71 141 0
-156 163 -167 0
-68 -105 -168 0
18 150 161 0
65 -89 158 0
-29 -80 -81 0
-53 -128 177 0
-85 86 120 0
23 118 -130 0
50 168 174 0
42 -59 -105 0
68 114 126 0
-62 105 -158 0
10 -154 -173 0
57 -62 198 0
-8 101 122 0
74 -123 -190 0
48 126 162 0
51 -126 -162 0
37 65 -120 0
55 72 140 0
-39 -89 -113 0
-15 -31 -61 0
12 152 -175 0
-6 -51 -125 0
-14 -88 -125 0
74 92 -182 0
88 -170 -199 0
