c generated_for formulae_like benchmark
c seed 20260531
c family xor_parity
c expected_status UNSAT
c notes large sparse contradictory parity system
p cnf 320 1920
5 38 -204 0
5 -38 204 0
-5 38 204 0
-5 -38 -204 0
5 38 204 0
5 -38 -204 0
-5 38 -204 0
-5 -38 204 0
118 246 -315 0
118 -246 315 0
-118 246 315 0
-118 -246 -315 0
49 158 -254 0
49 -158 254 0
-49 158 254 0
-49 -158 -254 0
8 235 302 0
8 -235 -302 0
-8 235 -302 0
-8 -235 302 0
258 288 316 0
258 -288 -316 0
-258 288 -316 0
-258 -288 316 0
185 233 240 0
185 -233 -240 0
-185 233 -240 0
-185 -233 240 0
8 93 -226 0
8 -93 226 0
-8 93 226 0
-8 -93 -226 0
102 249 -288 0
102 -249 288 0
-102 249 288 0
-102 -249 -288 0
71 167 -313 0
71 -167 313 0
-71 167 313 0
-71 -167 -313 0
40 140 234 0
40 -140 -234 0
-40 140 -234 0
-40 -140 234 0
69 91 -241 0
69 -91 241 0
-69 91 241 0
-69 -91 -241 0
158 236 -282 0
158 -236 282 0
-158 236 282 0
-158 -236 -282 0
268 295 -316 0
268 -295 316 0
-268 295 316 0
-268 -295 -316 0
51 96 286 0
51 -96 -286 0
-51 96 -286 0
-51 -96 286 0
107 251 -284 0
107 -251 284 0
-107 251 284 0
-107 -251 -284 0
259 317 318 0
259 -317 -318 0
-259 317 -318 0
-259 -317 318 0
50 157 203 0
50 -157 -203 0
-50 157 -203 0
-50 -157 203 0
81 241 279 0
81 -241 -279 0
-81 241 -279 0
-81 -241 279 0
178 310 312 0
178 -310 -312 0
-178 310 -312 0
-178 -310 312 0
45 112 -123 0
45 -112 123 0
-45 112 123 0
-45 -112 -123 0
35 87 -163 0
35 -87 163 0
-35 87 163 0
-35 -87 -163 0
48 122 291 0
48 -122 -291 0
-48 122 -291 0
-48 -122 291 0
62 69 170 0
62 -69 -170 0
-62 69 -170 0
-62 -69 170 0
21 87 262 0
21 -87 -262 0
-21 87 -262 0
-21 -87 262 0
64 138 221 0
64 -138 -221 0
-64 138 -221 0
-64 -138 221 0
144 183 225 0
144 -183 -225 0
-144 183 -225 0
-144 -183 225 0
138 182 231 0
138 -182 -231 0
-138 182 -231 0
-138 -182 231 0
19 73 -319 0
19 -73 319 0
-19 73 319 0
-19 -73 -319 0
89 127 -173 0
89 -127 173 0
-89 127 173 0
-89 -127 -173 0
20 196 261 0
20 -196 -261 0
-20 196 -261 0
-20 -196 261 0
90 282 -293 0
90 -282 293 0
-90 282 293 0
-90 -282 -293 0
62 112 266 0
62 -112 -266 0
-62 112 -266 0
-62 -112 266 0
38 135 -199 0
38 -135 199 0
-38 135 199 0
-38 -135 -199 0
76 112 219 0
76 -112 -219 0
-76 112 -219 0
-76 -112 219 0
19 95 119 0
19 -95 -119 0
-19 95 -119 0
-19 -95 119 0
68 195 203 0
68 -195 -203 0
-68 195 -203 0
-68 -195 203 0
50 71 113 0
50 -71 -113 0
-50 71 -113 0
-50 -71 113 0
15 28 -88 0
15 -28 88 0
-15 28 88 0
-15 -28 -88 0
47 175 250 0
47 -175 -250 0
-47 175 -250 0
-47 -175 250 0
15 226 -295 0
15 -226 295 0
-15 226 295 0
-15 -226 -295 0
47 132 -209 0
47 -132 209 0
-47 132 209 0
-47 -132 -209 0
36 105 257 0
36 -105 -257 0
-36 105 -257 0
-36 -105 257 0
91 192 -274 0
91 -192 274 0
-91 192 274 0
-91 -192 -274 0
42 221 -304 0
42 -221 304 0
-42 221 304 0
-42 -221 -304 0
146 178 287 0
146 -178 -287 0
-146 178 -287 0
-146 -178 287 0
90 157 -158 0
90 -157 158 0
-90 157 158 0
-90 -157 -158 0
2 105 250 0
2 -105 -250 0
-2 105 -250 0
-2 -105 250 0
165 244 -279 0
165 -244 279 0
-165 244 279 0
-165 -244 -279 0
52 59 -170 0
52 -59 170 0
-52 59 170 0
-52 -59 -170 0
143 222 262 0
143 -222 -262 0
-143 222 -262 0
-143 -222 262 0
228 258 -293 0
228 -258 293 0
-228 258 293 0
-228 -258 -293 0
5 174 -214 0
5 -174 214 0
-5 174 214 0
-5 -174 -214 0
190 195 -233 0
190 -195 233 0
-190 195 233 0
-190 -195 -233 0
60 135 -293 0
60 -135 293 0
-60 135 293 0
-60 -135 -293 0
125 202 301 0
125 -202 -301 0
-125 202 -301 0
-125 -202 301 0
58 89 144 0
58 -89 -144 0
-58 89 -144 0
-58 -89 144 0
92 152 -275 0
92 -152 275 0
-92 152 275 0
-92 -152 -275 0
95 202 314 0
95 -202 -314 0
-95 202 -314 0
-95 -202 314 0
43 57 -175 0
43 -57 175 0
-43 57 175 0
-43 -57 -175 0
23 235 -294 0
23 -235 294 0
-23 235 294 0
-23 -235 -294 0
102 146 -295 0
102 -146 295 0
-102 146 295 0
-102 -146 -295 0
70 251 290 0
70 -251 -290 0
-70 251 -290 0
-70 -251 290 0
203 239 -320 0
203 -239 320 0
-203 239 320 0
-203 -239 -320 0
137 149 -304 0
137 -149 304 0
-137 149 304 0
-137 -149 -304 0
20 100 -196 0
20 -100 196 0
-20 100 196 0
-20 -100 -196 0
36 185 193 0
36 -185 -193 0
-36 185 -193 0
-36 -185 193 0
28 89 -114 0
28 -89 114 0
-28 89 114 0
-28 -89 -114 0
8 99 -229 0
8 -99 229 0
-8 99 229 0
-8 -99 -229 0
61 106 126 0
61 -106 -126 0
-61 106 -126 0
-61 -106 126 0
148 279 285 0
148 -279 -285 0
-148 279 -285 0
-148 -279 285 0
99 111 -245 0
99 -111 245 0
-99 111 245 0
-99 -111 -245 0
91 96 215 0
91 -96 -215 0
-91 96 -215 0
-91 -96 215 0
167 256 275 0
167 -256 -275 0
-167 256 -275 0
-167 -256 275 0
251 283 312 0
251 -283 -312 0
-251 283 -312 0
-251 -283 312 0
149 166 261 0
149 -166 -261 0
-149 166 -261 0
-149 -166 261 0
59 142 -280 0
59 -142 280 0
-59 142 280 0
-59 -142 -280 0
33 150 -176 0
33 -150 176 0
-33 150 176 0
-33 -150 -176 0
66 241 277 0
66 -241 -277 0
-66 241 -277 0
-66 -241 277 0
53 181 -270 0
53 -181 270 0
-53 181 270 0
-53 -181 -270 0
167 311 315 0
167 -311 -315 0
-167 311 -315 0
-167 -311 315 0
74 225 304 0
74 -225 -304 0
-74 225 -304 0
-74 -225 304 0
17 189 -274 0
17 -189 274 0
-17 189 274 0
-17 -189 -274 0
153 247 284 0
153 -247 -284 0
-153 247 -284 0
-153 -247 284 0
31 90 112 0
31 -90 -112 0
-31 90 -112 0
-31 -90 112 0
67 122 -235 0
67 -122 235 0
-67 122 235 0
-67 -122 -235 0
87 148 279 0
87 -148 -279 0
-87 148 -279 0
-87 -148 279 0
30 151 180 0
30 -151 -180 0
-30 151 -180 0
-30 -151 180 0
56 118 -191 0
56 -118 191 0
-56 118 191 0
-56 -118 -191 0
141 144 243 0
141 -144 -243 0
-141 144 -243 0
-141 -144 243 0
79 172 266 0
79 -172 -266 0
-79 172 -266 0
-79 -172 266 0
194 316 318 0
194 -316 -318 0
-194 316 -318 0
-194 -316 318 0
101 166 314 0
101 -166 -314 0
-101 166 -314 0
-101 -166 314 0
4 18 62 0
4 -18 -62 0
-4 18 -62 0
-4 -18 62 0
92 120 156 0
92 -120 -156 0
-92 120 -156 0
-92 -120 156 0
208 257 300 0
208 -257 -300 0
-208 257 -300 0
-208 -257 300 0
77 226 231 0
77 -226 -231 0
-77 226 -231 0
-77 -226 231 0
61 120 -253 0
61 -120 253 0
-61 120 253 0
-61 -120 -253 0
120 275 294 0
120 -275 -294 0
-120 275 -294 0
-120 -275 294 0
78 177 -208 0
78 -177 208 0
-78 177 208 0
-78 -177 -208 0
104 128 -168 0
104 -128 168 0
-104 128 168 0
-104 -128 -168 0
303 318 -319 0
303 -318 319 0
-303 318 319 0
-303 -318 -319 0
67 256 -312 0
67 -256 312 0
-67 256 312 0
-67 -256 -312 0
109 136 -237 0
109 -136 237 0
-109 136 237 0
-109 -136 -237 0
17 126 -271 0
17 -126 271 0
-17 126 271 0
-17 -126 -271 0
160 231 -257 0
160 -231 257 0
-160 231 257 0
-160 -231 -257 0
32 137 -295 0
32 -137 295 0
-32 137 295 0
-32 -137 -295 0
127 153 -198 0
127 -153 198 0
-127 153 198 0
-127 -153 -198 0
54 92 204 0
54 -92 -204 0
-54 92 -204 0
-54 -92 204 0
91 168 -291 0
91 -168 291 0
-91 168 291 0
-91 -168 -291 0
4 71 234 0
4 -71 -234 0
-4 71 -234 0
-4 -71 234 0
56 116 -123 0
56 -116 123 0
-56 116 123 0
-56 -116 -123 0
23 110 265 0
23 -110 -265 0
-23 110 -265 0
-23 -110 265 0
71 249 -280 0
71 -249 280 0
-71 249 280 0
-71 -249 -280 0
214 250 -266 0
214 -250 266 0
-214 250 266 0
-214 -250 -266 0
68 179 262 0
68 -179 -262 0
-68 179 -262 0
-68 -179 262 0
168 209 250 0
168 -209 -250 0
-168 209 -250 0
-168 -209 250 0
70 129 -279 0
70 -129 279 0
-70 129 279 0
-70 -129 -279 0
44 96 -281 0
44 -96 281 0
-44 96 281 0
-44 -96 -281 0
154 234 -285 0
154 -234 285 0
-154 234 285 0
-154 -234 -285 0
114 130 -218 0
114 -130 218 0
-114 130 218 0
-114 -130 -218 0
47 228 -314 0
47 -228 314 0
-47 228 314 0
-47 -228 -314 0
75 76 153 0
75 -76 -153 0
-75 76 -153 0
-75 -76 153 0
106 108 -159 0
106 -108 159 0
-106 108 159 0
-106 -108 -159 0
26 31 -59 0
26 -31 59 0
-26 31 59 0
-26 -31 -59 0
110 143 -248 0
110 -143 248 0
-110 143 248 0
-110 -143 -248 0
40 194 -275 0
40 -194 275 0
-40 194 275 0
-40 -194 -275 0
10 121 286 0
10 -121 -286 0
-10 121 -286 0
-10 -121 286 0
54 111 -185 0
54 -111 185 0
-54 111 185 0
-54 -111 -185 0
79 147 -200 0
79 -147 200 0
-79 147 200 0
-79 -147 -200 0
164 216 258 0
164 -216 -258 0
-164 216 -258 0
-164 -216 258 0
106 111 160 0
106 -111 -160 0
-106 111 -160 0
-106 -111 160 0
134 182 189 0
134 -182 -189 0
-134 182 -189 0
-134 -182 189 0
71 137 158 0
71 -137 -158 0
-71 137 -158 0
-71 -137 158 0
67 291 307 0
67 -291 -307 0
-67 291 -307 0
-67 -291 307 0
40 89 132 0
40 -89 -132 0
-40 89 -132 0
-40 -89 132 0
108 116 174 0
108 -116 -174 0
-108 116 -174 0
-108 -116 174 0
42 81 320 0
42 -81 -320 0
-42 81 -320 0
-42 -81 320 0
60 191 273 0
60 -191 -273 0
-60 191 -273 0
-60 -191 273 0
83 232 242 0
83 -232 -242 0
-83 232 -242 0
-83 -232 242 0
3 235 261 0
3 -235 -261 0
-3 235 -261 0
-3 -235 261 0
36 141 -279 0
36 -141 279 0
-36 141 279 0
-36 -141 -279 0
67 223 289 0
67 -223 -289 0
-67 223 -289 0
-67 -223 289 0
11 51 141 0
11 -51 -141 0
-11 51 -141 0
-11 -51 141 0
209 278 -284 0
209 -278 284 0
-209 278 284 0
-209 -278 -284 0
78 192 -262 0
78 -192 262 0
-78 192 262 0
-78 -192 -262 0
66 103 -250 0
66 -103 250 0
-66 103 250 0
-66 -103 -250 0
17 37 -51 0
17 -37 51 0
-17 37 51 0
-17 -37 -51 0
70 85 -162 0
70 -85 162 0
-70 85 162 0
-70 -85 -162 0
51 134 244 0
51 -134 -244 0
-51 134 -244 0
-51 -134 244 0
218 269 -303 0
218 -269 303 0
-218 269 303 0
-218 -269 -303 0
80 145 -255 0
80 -145 255 0
-80 145 255 0
-80 -145 -255 0
163 182 -314 0
163 -182 314 0
-163 182 314 0
-163 -182 -314 0
5 129 -139 0
5 -129 139 0
-5 129 139 0
-5 -129 -139 0
62 237 298 0
62 -237 -298 0
-62 237 -298 0
-62 -237 298 0
89 106 196 0
89 -106 -196 0
-89 106 -196 0
-89 -106 196 0
4 139 279 0
4 -139 -279 0
-4 139 -279 0
-4 -139 279 0
84 253 -290 0
84 -253 290 0
-84 253 290 0
-84 -253 -290 0
8 98 242 0
8 -98 -242 0
-8 98 -242 0
-8 -98 242 0
134 140 269 0
134 -140 -269 0
-134 140 -269 0
-134 -140 269 0
28 81 -118 0
28 -81 118 0
-28 81 118 0
-28 -81 -118 0
62 147 268 0
62 -147 -268 0
-62 147 -268 0
-62 -147 268 0
26 160 -250 0
26 -160 250 0
-26 160 250 0
-26 -160 -250 0
58 234 262 0
58 -234 -262 0
-58 234 -262 0
-58 -234 262 0
2 156 306 0
2 -156 -306 0
-2 156 -306 0
-2 -156 306 0
110 150 -261 0
110 -150 261 0
-110 150 261 0
-110 -150 -261 0
39 173 247 0
39 -173 -247 0
-39 173 -247 0
-39 -173 247 0
83 98 227 0
83 -98 -227 0
-83 98 -227 0
-83 -98 227 0
55 141 237 0
55 -141 -237 0
-55 141 -237 0
-55 -141 237 0
29 199 262 0
29 -199 -262 0
-29 199 -262 0
-29 -199 262 0
162 215 -246 0
162 -215 246 0
-162 215 246 0
-162 -215 -246 0
117 141 180 0
117 -141 -180 0
-117 141 -180 0
-117 -141 180 0
93 183 -305 0
93 -183 305 0
-93 183 305 0
-93 -183 -305 0
8 147 -263 0
8 -147 263 0
-8 147 263 0
-8 -147 -263 0
21 30 31 0
21 -30 -31 0
-21 30 -31 0
-21 -30 31 0
256 266 -270 0
256 -266 270 0
-256 266 270 0
-256 -266 -270 0
18 215 254 0
18 -215 -254 0
-18 215 -254 0
-18 -215 254 0
25 30 312 0
25 -30 -312 0
-25 30 -312 0
-25 -30 312 0
17 252 -274 0
17 -252 274 0
-17 252 274 0
-17 -252 -274 0
37 180 -299 0
37 -180 299 0
-37 180 299 0
-37 -180 -299 0
53 57 229 0
53 -57 -229 0
-53 57 -229 0
-53 -57 229 0
105 281 308 0
105 -281 -308 0
-105 281 -308 0
-105 -281 308 0
125 193 -207 0
125 -193 207 0
-125 193 207 0
-125 -193 -207 0
268 282 -297 0
268 -282 297 0
-268 282 297 0
-268 -282 -297 0
53 80 -160 0
53 -80 160 0
-53 80 160 0
-53 -80 -160 0
38 129 267 0
38 -129 -267 0
-38 129 -267 0
-38 -129 267 0
88 93 173 0
88 -93 -173 0
-88 93 -173 0
-88 -93 173 0
101 108 -158 0
101 -108 158 0
-101 108 158 0
-101 -108 -158 0
3 170 312 0
3 -170 -312 0
-3 170 -312 0
-3 -170 312 0
207 260 306 0
207 -260 -306 0
-207 260 -306 0
-207 -260 306 0
140 259 -311 0
140 -259 311 0
-140 259 311 0
-140 -259 -311 0
31 39 286 0
31 -39 -286 0
-31 39 -286 0
-31 -39 286 0
16 49 209 0
16 -49 -209 0
-16 49 -209 0
-16 -49 209 0
63 109 176 0
63 -109 -176 0
-63 109 -176 0
-63 -109 176 0
8 33 280 0
8 -33 -280 0
-8 33 -280 0
-8 -33 280 0
73 142 270 0
73 -142 -270 0
-73 142 -270 0
-73 -142 270 0
152 177 197 0
152 -177 -197 0
-152 177 -197 0
-152 -177 197 0
64 103 226 0
64 -103 -226 0
-64 103 -226 0
-64 -103 226 0
92 97 257 0
92 -97 -257 0
-92 97 -257 0
-92 -97 257 0
203 251 -311 0
203 -251 311 0
-203 251 311 0
-203 -251 -311 0
24 80 272 0
24 -80 -272 0
-24 80 -272 0
-24 -80 272 0
6 87 271 0
6 -87 -271 0
-6 87 -271 0
-6 -87 271 0
210 261 -266 0
210 -261 266 0
-210 261 266 0
-210 -261 -266 0
61 63 -149 0
61 -63 149 0
-61 63 149 0
-61 -63 -149 0
38 150 282 0
38 -150 -282 0
-38 150 -282 0
-38 -150 282 0
175 209 -288 0
175 -209 288 0
-175 209 288 0
-175 -209 -288 0
94 249 279 0
94 -249 -279 0
-94 249 -279 0
-94 -249 279 0
62 251 -312 0
62 -251 312 0
-62 251 312 0
-62 -251 -312 0
6 184 294 0
6 -184 -294 0
-6 184 -294 0
-6 -184 294 0
179 224 -228 0
179 -224 228 0
-179 224 228 0
-179 -224 -228 0
187 234 263 0
187 -234 -263 0
-187 234 -263 0
-187 -234 263 0
9 228 -303 0
9 -228 303 0
-9 228 303 0
-9 -228 -303 0
171 175 -314 0
171 -175 314 0
-171 175 314 0
-171 -175 -314 0
87 211 -285 0
87 -211 285 0
-87 211 285 0
-87 -211 -285 0
20 242 -277 0
20 -242 277 0
-20 242 277 0
-20 -242 -277 0
37 160 -240 0
37 -160 240 0
-37 160 240 0
-37 -160 -240 0
49 110 -233 0
49 -110 233 0
-49 110 233 0
-49 -110 -233 0
8 50 -283 0
8 -50 283 0
-8 50 283 0
-8 -50 -283 0
12 146 156 0
12 -146 -156 0
-12 146 -156 0
-12 -146 156 0
126 259 -314 0
126 -259 314 0
-126 259 314 0
-126 -259 -314 0
57 115 -222 0
57 -115 222 0
-57 115 222 0
-57 -115 -222 0
54 57 -133 0
54 -57 133 0
-54 57 133 0
-54 -57 -133 0
166 219 264 0
166 -219 -264 0
-166 219 -264 0
-166 -219 264 0
32 118 -233 0
32 -118 233 0
-32 118 233 0
-32 -118 -233 0
52 112 -142 0
52 -112 142 0
-52 112 142 0
-52 -112 -142 0
78 120 219 0
78 -120 -219 0
-78 120 -219 0
-78 -120 219 0
100 234 -248 0
100 -234 248 0
-100 234 248 0
-100 -234 -248 0
1 160 317 0
1 -160 -317 0
-1 160 -317 0
-1 -160 317 0
245 269 -296 0
245 -269 296 0
-245 269 296 0
-245 -269 -296 0
127 161 310 0
127 -161 -310 0
-127 161 -310 0
-127 -161 310 0
68 70 -267 0
68 -70 267 0
-68 70 267 0
-68 -70 -267 0
17 154 -196 0
17 -154 196 0
-17 154 196 0
-17 -154 -196 0
164 175 -314 0
164 -175 314 0
-164 175 314 0
-164 -175 -314 0
132 134 262 0
132 -134 -262 0
-132 134 -262 0
-132 -134 262 0
139 233 288 0
139 -233 -288 0
-139 233 -288 0
-139 -233 288 0
30 223 -287 0
30 -223 287 0
-30 223 287 0
-30 -223 -287 0
7 123 -266 0
7 -123 266 0
-7 123 266 0
-7 -123 -266 0
162 177 -275 0
162 -177 275 0
-162 177 275 0
-162 -177 -275 0
142 189 279 0
142 -189 -279 0
-142 189 -279 0
-142 -189 279 0
24 92 -268 0
24 -92 268 0
-24 92 268 0
-24 -92 -268 0
42 104 313 0
42 -104 -313 0
-42 104 -313 0
-42 -104 313 0
155 237 273 0
155 -237 -273 0
-155 237 -273 0
-155 -237 273 0
105 262 -295 0
105 -262 295 0
-105 262 295 0
-105 -262 -295 0
94 201 -218 0
94 -201 218 0
-94 201 218 0
-94 -201 -218 0
17 46 -239 0
17 -46 239 0
-17 46 239 0
-17 -46 -239 0
11 65 -71 0
11 -65 71 0
-11 65 71 0
-11 -65 -71 0
107 211 312 0
107 -211 -312 0
-107 211 -312 0
-107 -211 312 0
3 160 -297 0
3 -160 297 0
-3 160 297 0
-3 -160 -297 0
9 120 262 0
9 -120 -262 0
-9 120 -262 0
-9 -120 262 0
49 93 -195 0
49 -93 195 0
-49 93 195 0
-49 -93 -195 0
225 298 300 0
225 -298 -300 0
-225 298 -300 0
-225 -298 300 0
1 127 -176 0
1 -127 176 0
-1 127 176 0
-1 -127 -176 0
65 147 -231 0
65 -147 231 0
-65 147 231 0
-65 -147 -231 0
152 174 -252 0
152 -174 252 0
-152 174 252 0
-152 -174 -252 0
107 179 -184 0
107 -179 184 0
-107 179 184 0
-107 -179 -184 0
104 121 318 0
104 -121 -318 0
-104 121 -318 0
-104 -121 318 0
75 188 314 0
75 -188 -314 0
-75 188 -314 0
-75 -188 314 0
106 161 252 0
106 -161 -252 0
-106 161 -252 0
-106 -161 252 0
34 35 -56 0
34 -35 56 0
-34 35 56 0
-34 -35 -56 0
166 222 317 0
166 -222 -317 0
-166 222 -317 0
-166 -222 317 0
13 206 252 0
13 -206 -252 0
-13 206 -252 0
-13 -206 252 0
195 206 -251 0
195 -206 251 0
-195 206 251 0
-195 -206 -251 0
7 83 147 0
7 -83 -147 0
-7 83 -147 0
-7 -83 147 0
12 60 130 0
12 -60 -130 0
-12 60 -130 0
-12 -60 130 0
166 234 -239 0
166 -234 239 0
-166 234 239 0
-166 -234 -239 0
187 281 -319 0
187 -281 319 0
-187 281 319 0
-187 -281 -319 0
5 167 -173 0
5 -167 173 0
-5 167 173 0
-5 -167 -173 0
19 72 149 0
19 -72 -149 0
-19 72 -149 0
-19 -72 149 0
3 83 272 0
3 -83 -272 0
-3 83 -272 0
-3 -83 272 0
73 185 195 0
73 -185 -195 0
-73 185 -195 0
-73 -185 195 0
105 187 249 0
105 -187 -249 0
-105 187 -249 0
-105 -187 249 0
88 134 -223 0
88 -134 223 0
-88 134 223 0
-88 -134 -223 0
32 125 -298 0
32 -125 298 0
-32 125 298 0
-32 -125 -298 0
15 85 164 0
15 -85 -164 0
-15 85 -164 0
-15 -85 164 0
92 109 -180 0
92 -109 180 0
-92 109 180 0
-92 -109 -180 0
13 19 267 0
13 -19 -267 0
-13 19 -267 0
-13 -19 267 0
19 78 -318 0
19 -78 318 0
-19 78 318 0
-19 -78 -318 0
253 301 317 0
253 -301 -317 0
-253 301 -317 0
-253 -301 317 0
65 225 261 0
65 -225 -261 0
-65 225 -261 0
-65 -225 261 0
14 109 243 0
14 -109 -243 0
-14 109 -243 0
-14 -109 243 0
50 147 -168 0
50 -147 168 0
-50 147 168 0
-50 -147 -168 0
32 212 242 0
32 -212 -242 0
-32 212 -242 0
-32 -212 242 0
143 178 -242 0
143 -178 242 0
-143 178 242 0
-143 -178 -242 0
208 223 -253 0
208 -223 253 0
-208 223 253 0
-208 -223 -253 0
112 256 -287 0
112 -256 287 0
-112 256 287 0
-112 -256 -287 0
44 174 -255 0
44 -174 255 0
-44 174 255 0
-44 -174 -255 0
146 187 -285 0
146 -187 285 0
-146 187 285 0
-146 -187 -285 0
102 134 -190 0
102 -134 190 0
-102 134 190 0
-102 -134 -190 0
5 28 -54 0
5 -28 54 0
-5 28 54 0
-5 -28 -54 0
179 192 -240 0
179 -192 240 0
-179 192 240 0
-179 -192 -240 0
11 158 234 0
11 -158 -234 0
-11 158 -234 0
-11 -158 234 0
4 108 -226 0
4 -108 226 0
-4 108 226 0
-4 -108 -226 0
19 56 320 0
19 -56 -320 0
-19 56 -320 0
-19 -56 320 0
178 195 -280 0
178 -195 280 0
-178 195 280 0
-178 -195 -280 0
71 174 238 0
71 -174 -238 0
-71 174 -238 0
-71 -174 238 0
117 167 -189 0
117 -167 189 0
-117 167 189 0
-117 -167 -189 0
98 134 -255 0
98 -134 255 0
-98 134 255 0
-98 -134 -255 0
141 163 -300 0
141 -163 300 0
-141 163 300 0
-141 -163 -300 0
126 285 -310 0
126 -285 310 0
-126 285 310 0
-126 -285 -310 0
8 38 231 0
8 -38 -231 0
-8 38 -231 0
-8 -38 231 0
5 147 277 0
5 -147 -277 0
-5 147 -277 0
-5 -147 277 0
48 257 -266 0
48 -257 266 0
-48 257 266 0
-48 -257 -266 0
20 168 -187 0
20 -168 187 0
-20 168 187 0
-20 -168 -187 0
25 87 306 0
25 -87 -306 0
-25 87 -306 0
-25 -87 306 0
165 170 243 0
165 -170 -243 0
-165 170 -243 0
-165 -170 243 0
34 72 182 0
34 -72 -182 0
-34 72 -182 0
-34 -72 182 0
47 62 -133 0
47 -62 133 0
-47 62 133 0
-47 -62 -133 0
63 179 204 0
63 -179 -204 0
-63 179 -204 0
-63 -179 204 0
1 249 265 0
1 -249 -265 0
-1 249 -265 0
-1 -249 265 0
74 152 187 0
74 -152 -187 0
-74 152 -187 0
-74 -152 187 0
176 179 212 0
176 -179 -212 0
-176 179 -212 0
-176 -179 212 0
48 66 115 0
48 -66 -115 0
-48 66 -115 0
-48 -66 115 0
174 285 -294 0
174 -285 294 0
-174 285 294 0
-174 -285 -294 0
38 211 -249 0
38 -211 249 0
-38 211 249 0
-38 -211 -249 0
194 224 -317 0
194 -224 317 0
-194 224 317 0
-194 -224 -317 0
33 137 -194 0
33 -137 194 0
-33 137 194 0
-33 -137 -194 0
112 141 -315 0
112 -141 315 0
-112 141 315 0
-112 -141 -315 0
57 139 -146 0
57 -139 146 0
-57 139 146 0
-57 -139 -146 0
73 119 203 0
73 -119 -203 0
-73 119 -203 0
-73 -119 203 0
37 163 -257 0
37 -163 257 0
-37 163 257 0
-37 -163 -257 0
220 226 262 0
220 -226 -262 0
-220 226 -262 0
-220 -226 262 0
139 177 -199 0
139 -177 199 0
-139 177 199 0
-139 -177 -199 0
164 170 -243 0
164 -170 243 0
-164 170 243 0
-164 -170 -243 0
142 157 -178 0
142 -157 178 0
-142 157 178 0
-142 -157 -178 0
12 243 297 0
12 -243 -297 0
-12 243 -297 0
-12 -243 297 0
237 242 270 0
237 -242 -270 0
-237 242 -270 0
-237 -242 270 0
91 125 -211 0
91 -125 211 0
-91 125 211 0
-91 -125 -211 0
205 249 -293 0
205 -249 293 0
-205 249 293 0
-205 -249 -293 0
146 166 299 0
146 -166 -299 0
-146 166 -299 0
-146 -166 299 0
37 220 251 0
37 -220 -251 0
-37 220 -251 0
-37 -220 251 0
34 47 67 0
34 -47 -67 0
-34 47 -67 0
-34 -47 67 0
94 122 -126 0
94 -122 126 0
-94 122 126 0
-94 -122 -126 0
88 176 281 0
88 -176 -281 0
-88 176 -281 0
-88 -176 281 0
42 160 163 0
42 -160 -163 0
-42 160 -163 0
-42 -160 163 0
69 267 290 0
69 -267 -290 0
-69 267 -290 0
-69 -267 290 0
54 55 272 0
54 -55 -272 0
-54 55 -272 0
-54 -55 272 0
241 278 -285 0
241 -278 285 0
-241 278 285 0
-241 -278 -285 0
1 102 253 0
1 -102 -253 0
-1 102 -253 0
-1 -102 253 0
63 268 -308 0
63 -268 308 0
-63 268 308 0
-63 -268 -308 0
24 54 -123 0
24 -54 123 0
-24 54 123 0
-24 -54 -123 0
7 11 -136 0
7 -11 136 0
-7 11 136 0
-7 -11 -136 0
15 34 -40 0
15 -34 40 0
-15 34 40 0
-15 -34 -40 0
29 53 232 0
29 -53 -232 0
-29 53 -232 0
-29 -53 232 0
29 197 254 0
29 -197 -254 0
-29 197 -254 0
-29 -197 254 0
191 256 293 0
191 -256 -293 0
-191 256 -293 0
-191 -256 293 0
168 222 240 0
168 -222 -240 0
-168 222 -240 0
-168 -222 240 0
71 83 -126 0
71 -83 126 0
-71 83 126 0
-71 -83 -126 0
37 161 206 0
37 -161 -206 0
-37 161 -206 0
-37 -161 206 0
146 204 -246 0
146 -204 246 0
-146 204 246 0
-146 -204 -246 0
77 108 227 0
77 -108 -227 0
-77 108 -227 0
-77 -108 227 0
45 85 -300 0
45 -85 300 0
-45 85 300 0
-45 -85 -300 0
54 156 -210 0
54 -156 210 0
-54 156 210 0
-54 -156 -210 0
117 224 -296 0
117 -224 296 0
-117 224 296 0
-117 -224 -296 0
41 184 214 0
41 -184 -214 0
-41 184 -214 0
-41 -184 214 0
129 249 -251 0
129 -249 251 0
-129 249 251 0
-129 -249 -251 0
21 33 -176 0
21 -33 176 0
-21 33 176 0
-21 -33 -176 0
32 38 -219 0
32 -38 219 0
-32 38 219 0
-32 -38 -219 0
168 255 294 0
168 -255 -294 0
-168 255 -294 0
-168 -255 294 0
14 216 -261 0
14 -216 261 0
-14 216 261 0
-14 -216 -261 0
159 216 -257 0
159 -216 257 0
-159 216 257 0
-159 -216 -257 0
124 241 256 0
124 -241 -256 0
-124 241 -256 0
-124 -241 256 0
25 26 -71 0
25 -26 71 0
-25 26 71 0
-25 -26 -71 0
31 82 85 0
31 -82 -85 0
-31 82 -85 0
-31 -82 85 0
49 244 300 0
49 -244 -300 0
-49 244 -300 0
-49 -244 300 0
60 174 306 0
60 -174 -306 0
-60 174 -306 0
-60 -174 306 0
116 190 -306 0
116 -190 306 0
-116 190 306 0
-116 -190 -306 0
164 174 291 0
164 -174 -291 0
-164 174 -291 0
-164 -174 291 0
6 77 -200 0
6 -77 200 0
-6 77 200 0
-6 -77 -200 0
41 69 -148 0
41 -69 148 0
-41 69 148 0
-41 -69 -148 0
31 97 -319 0
31 -97 319 0
-31 97 319 0
-31 -97 -319 0
103 132 293 0
103 -132 -293 0
-103 132 -293 0
-103 -132 293 0
43 271 303 0
43 -271 -303 0
-43 271 -303 0
-43 -271 303 0
75 151 292 0
75 -151 -292 0
-75 151 -292 0
-75 -151 292 0
184 296 -301 0
184 -296 301 0
-184 296 301 0
-184 -296 -301 0
40 168 186 0
40 -168 -186 0
-40 168 -186 0
-40 -168 186 0
56 241 318 0
56 -241 -318 0
-56 241 -318 0
-56 -241 318 0
174 212 252 0
174 -212 -252 0
-174 212 -252 0
-174 -212 252 0
133 149 273 0
133 -149 -273 0
-133 149 -273 0
-133 -149 273 0
196 243 307 0
196 -243 -307 0
-196 243 -307 0
-196 -243 307 0
37 191 264 0
37 -191 -264 0
-37 191 -264 0
-37 -191 264 0
67 204 227 0
67 -204 -227 0
-67 204 -227 0
-67 -204 227 0
64 218 -311 0
64 -218 311 0
-64 218 311 0
-64 -218 -311 0
163 236 259 0
163 -236 -259 0
-163 236 -259 0
-163 -236 259 0
153 254 -289 0
153 -254 289 0
-153 254 289 0
-153 -254 -289 0
160 163 -193 0
160 -163 193 0
-160 163 193 0
-160 -163 -193 0
40 146 -302 0
40 -146 302 0
-40 146 302 0
-40 -146 -302 0
134 218 239 0
134 -218 -239 0
-134 218 -239 0
-134 -218 239 0
1 138 255 0
1 -138 -255 0
-1 138 -255 0
-1 -138 255 0
136 179 -203 0
136 -179 203 0
-136 179 203 0
-136 -179 -203 0
17 22 -217 0
17 -22 217 0
-17 22 217 0
-17 -22 -217 0
11 245 313 0
11 -245 -313 0
-11 245 -313 0
-11 -245 313 0
92 170 -178 0
92 -170 178 0
-92 170 178 0
-92 -170 -178 0
231 244 296 0
231 -244 -296 0
-231 244 -296 0
-231 -244 296 0
143 190 271 0
143 -190 -271 0
-143 190 -271 0
-143 -190 271 0
82 149 250 0
82 -149 -250 0
-82 149 -250 0
-82 -149 250 0
27 151 -219 0
27 -151 219 0
-27 151 219 0
-27 -151 -219 0
55 226 270 0
55 -226 -270 0
-55 226 -270 0
-55 -226 270 0
177 233 -294 0
177 -233 294 0
-177 233 294 0
-177 -233 -294 0
4 124 -171 0
4 -124 171 0
-4 124 171 0
-4 -124 -171 0
3 109 279 0
3 -109 -279 0
-3 109 -279 0
-3 -109 279 0
117 159 -305 0
117 -159 305 0
-117 159 305 0
-117 -159 -305 0
169 217 -259 0
169 -217 259 0
-169 217 259 0
-169 -217 -259 0
184 185 -267 0
184 -185 267 0
-184 185 267 0
-184 -185 -267 0
15 215 261 0
15 -215 -261 0
-15 215 -261 0
-15 -215 261 0
216 280 -313 0
216 -280 313 0
-216 280 313 0
-216 -280 -313 0
128 167 176 0
128 -167 -176 0
-128 167 -176 0
-128 -167 176 0
76 157 -165 0
76 -157 165 0
-76 157 165 0
-76 -157 -165 0
30 260 -308 0
30 -260 308 0
-30 260 308 0
-30 -260 -308 0
52 54 137 0
52 -54 -137 0
-52 54 -137 0
-52 -54 137 0
266 284 300 0
266 -284 -300 0
-266 284 -300 0
-266 -284 300 0
194 255 294 0
194 -255 -294 0
-194 255 -294 0
-194 -255 294 0
179 229 253 0
179 -229 -253 0
-179 229 -253 0
-179 -229 253 0
241 246 257 0
241 -246 -257 0
-241 246 -257 0
-241 -246 257 0
90 197 -252 0
90 -197 252 0
-90 197 252 0
-90 -197 -252 0
112 213 312 0
112 -213 -312 0
-112 213 -312 0
-112 -213 312 0
25 30 -206 0
25 -30 206 0
-25 30 206 0
-25 -30 -206 0
37 73 -180 0
37 -73 180 0
-37 73 180 0
-37 -73 -180 0
7 153 -192 0
7 -153 192 0
-7 153 192 0
-7 -153 -192 0
44 45 113 0
44 -45 -113 0
-44 45 -113 0
-44 -45 113 0
99 119 -139 0
99 -119 139 0
-99 119 139 0
-99 -119 -139 0
98 150 168 0
98 -150 -168 0
-98 150 -168 0
-98 -150 168 0
215 291 320 0
215 -291 -320 0
-215 291 -320 0
-215 -291 320 0
69 192 280 0
69 -192 -280 0
-69 192 -280 0
-69 -192 280 0
209 242 310 0
209 -242 -310 0
-209 242 -310 0
-209 -242 310 0
109 131 146 0
109 -131 -146 0
-109 131 -146 0
-109 -131 146 0
42 116 146 0
42 -116 -146 0
-42 116 -146 0
-42 -116 146 0
67 198 292 0
67 -198 -292 0
-67 198 -292 0
-67 -198 292 0
63 131 -143 0
63 -131 143 0
-63 131 143 0
-63 -131 -143 0
54 246 310 0
54 -246 -310 0
-54 246 -310 0
-54 -246 310 0
166 167 -185 0
166 -167 185 0
-166 167 185 0
-166 -167 -185 0
57 237 251 0
57 -237 -251 0
-57 237 -251 0
-57 -237 251 0
153 227 -247 0
153 -227 247 0
-153 227 247 0
-153 -227 -247 0
60 71 96 0
60 -71 -96 0
-60 71 -96 0
-60 -71 96 0
46 156 -301 0
46 -156 301 0
-46 156 301 0
-46 -156 -301 0
26 88 -278 0
26 -88 278 0
-26 88 278 0
-26 -88 -278 0
92 260 297 0
92 -260 -297 0
-92 260 -297 0
-92 -260 297 0
79 207 -300 0
79 -207 300 0
-79 207 300 0
-79 -207 -300 0
190 277 287 0
190 -277 -287 0
-190 277 -287 0
-190 -277 287 0
82 102 130 0
82 -102 -130 0
-82 102 -130 0
-82 -102 130 0
21 149 190 0
21 -149 -190 0
-21 149 -190 0
-21 -149 190 0
45 55 -197 0
45 -55 197 0
-45 55 197 0
-45 -55 -197 0
84 120 -232 0
84 -120 232 0
-84 120 232 0
-84 -120 -232 0
15 75 -101 0
15 -75 101 0
-15 75 101 0
-15 -75 -101 0
28 238 269 0
28 -238 -269 0
-28 238 -269 0
-28 -238 269 0
45 120 309 0
45 -120 -309 0
-45 120 -309 0
-45 -120 309 0
103 212 -302 0
103 -212 302 0
-103 212 302 0
-103 -212 -302 0
125 169 -318 0
125 -169 318 0
-125 169 318 0
-125 -169 -318 0
11 102 -249 0
11 -102 249 0
-11 102 249 0
-11 -102 -249 0
15 98 -236 0
15 -98 236 0
-15 98 236 0
-15 -98 -236 0
98 114 -171 0
98 -114 171 0
-98 114 171 0
-98 -114 -171 0
127 153 180 0
127 -153 -180 0
-127 153 -180 0
-127 -153 180 0
101 175 -239 0
101 -175 239 0
-101 175 239 0
-101 -175 -239 0
19 181 -222 0
19 -181 222 0
-19 181 222 0
-19 -181 -222 0
70 205 -238 0
70 -205 238 0
-70 205 238 0
-70 -205 -238 0
111 186 265 0
111 -186 -265 0
-111 186 -265 0
-111 -186 265 0
28 129 300 0
28 -129 -300 0
-28 129 -300 0
-28 -129 300 0
119 175 -239 0
119 -175 239 0
-119 175 239 0
-119 -175 -239 0
64 87 -254 0
64 -87 254 0
-64 87 254 0
-64 -87 -254 0
72 177 -200 0
72 -177 200 0
-72 177 200 0
-72 -177 -200 0
64 70 182 0
64 -70 -182 0
-64 70 -182 0
-64 -70 182 0
85 212 295 0
85 -212 -295 0
-85 212 -295 0
-85 -212 295 0
108 148 207 0
108 -148 -207 0
-108 148 -207 0
-108 -148 207 0
63 122 234 0
63 -122 -234 0
-63 122 -234 0
-63 -122 234 0
86 124 292 0
86 -124 -292 0
-86 124 -292 0
-86 -124 292 0
182 214 249 0
182 -214 -249 0
-182 214 -249 0
-182 -214 249 0
92 172 276 0
92 -172 -276 0
-92 172 -276 0
-92 -172 276 0
7 85 -140 0
7 -85 140 0
-7 85 140 0
-7 -85 -140 0
66 93 -113 0
66 -93 113 0
-66 93 113 0
-66 -93 -113 0
75 193 -261 0
75 -193 261 0
-75 193 261 0
-75 -193 -261 0
156 304 315 0
156 -304 -315 0
-156 304 -315 0
-156 -304 315 0
185 205 307 0
185 -205 -307 0
-185 205 -307 0
-185 -205 307 0
84 226 240 0
84 -226 -240 0
-84 226 -240 0
-84 -226 240 0
18 113 156 0
18 -113 -156 0
-18 113 -156 0
-18 -113 156 0
106 263 -284 0
106 -263 284 0
-106 263 284 0
-106 -263 -284 0
54 201 202 0
54 -201 -202 0
-54 201 -202 0
-54 -201 202 0
174 241 281 0
174 -241 -281 0
-174 241 -281 0
-174 -241 281 0
56 232 -269 0
56 -232 269 0
-56 232 269 0
-56 -232 -269 0
165 271 307 0
165 -271 -307 0
-165 271 -307 0
-165 -271 307 0
9 88 134 0
9 -88 -134 0
-9 88 -134 0
-9 -88 134 0
173 256 -283 0
173 -256 283 0
-173 256 283 0
-173 -256 -283 0
