c generated_for formulae_like_variant benchmark
c dataset formulae_like_02
c variant 2
c seed_base 20280601
c family graph_coloring
c expected_status SAT
c notes 500-variable planted 4-coloring
p cnf 500 1935
1 2 3 4 0
-1 -2 0
-1 -3 0
-1 -4 0
-2 -3 0
-2 -4 0
-3 -4 0
5 6 7 8 0
-5 -6 0
-5 -7 0
-5 -8 0
-6 -7 0
-6 -8 0
-7 -8 0
9 10 11 12 0
-9 -10 0
-9 -11 0
-9 -12 0
-10 -11 0
-10 -12 0
-11 -12 0
13 14 15 16 0
-13 -14 0
-13 -15 0
-13 -16 0
-14 -15 0
-14 -16 0
-15 -16 0
17 18 19 20 0
-17 -18 0
-17 -19 0
-17 -20 0
-18 -19 0
-18 -20 0
-19 -20 0
21 22 23 24 0
-21 -22 0
-21 -23 0
-21 -24 0
-22 -23 0
-22 -24 0
-23 -24 0
25 26 27 28 0
-25 -26 0
-25 -27 0
-25 -28 0
-26 -27 0
-26 -28 0
-27 -28 0
29 30 31 32 0
-29 -30 0
-29 -31 0
-29 -32 0
-30 -31 0
-30 -32 0
-31 -32 0
33 34 35 36 0
-33 -34 0
-33 -35 0
-33 -36 0
-34 -35 0
-34 -36 0
-35 -36 0
37 38 39 40 0
-37 -38 0
-37 -39 0
-37 -40 0
-38 -39 0
-38 -40 0
-39 -40 0
41 42 43 44 0
-41 -42 0
-41 -43 0
-41 -44 0
-42 -43 0
-42 -44 0
-43 -44 0
45 46 47 48 0
-45 -46 0
-45 -47 0
-45 -48 0
-46 -47 0
-46 -48 0
-47 -48 0
49 50 51 52 0
-49 -50 0
-49 -51 0
-49 -52 0
-50 -51 0
-50 -52 0
-51 -52 0
53 54 55 56 0
-53 -54 0
-53 -55 0
-53 -56 0
-54 -55 0
-54 -56 0
-55 -56 0
57 58 59 60 0
-57 -58 0
-57 -59 0
-57 -60 0
-58 -59 0
-58 -60 0
-59 -60 0
61 62 63 64 0
-61 -62 0
-61 -63 0
-61 -64 0
-62 -63 0
-62 -64 0
-63 -64 0
65 66 67 68 0
-65 -66 0
-65 -67 0
-65 -68 0
-66 -67 0
-66 -68 0
-67 -68 0
69 70 71 72 0
-69 -70 0
-69 -71 0
-69 -72 0
-70 -71 0
-70 -72 0
-71 -72 0
73 74 75 76 0
-73 -74 0
-73 -75 0
-73 -76 0
-74 -75 0
-74 -76 0
-75 -76 0
77 78 79 80 0
-77 -78 0
-77 -79 0
-77 -80 0
-78 -79 0
-78 -80 0
-79 -80 0
81 82 83 84 0
-81 -82 0
-81 -83 0
-81 -84 0
-82 -83 0
-82 -84 0
-83 -84 0
85 86 87 88 0
-85 -86 0
-85 -87 0
-85 -88 0
-86 -87 0
-86 -88 0
-87 -88 0
89 90 91 92 0
-89 -90 0
-89 -91 0
-89 -92 0
-90 -91 0
-90 -92 0
-91 -92 0
93 94 95 96 0
-93 -94 0
-93 -95 0
-93 -96 0
-94 -95 0
-94 -96 0
-95 -96 0
97 98 99 100 0
-97 -98 0
-97 -99 0
-97 -100 0
-98 -99 0
-98 -100 0
-99 -100 0
101 102 103 104 0
-101 -102 0
-101 -103 0
-101 -104 0
-102 -103 0
-102 -104 0
-103 -104 0
105 106 107 108 0
-105 -106 0
-105 -107 0
-105 -108 0
-106 -107 0
-106 -108 0
-107 -108 0
109 110 111 112 0
-109 -110 0
-109 -111 0
-109 -112 0
-110 -111 0
-110 -112 0
-111 -112 0
113 114 115 116 0
-113 -114 0
-113 -115 0
-113 -116 0
-114 -115 0
-114 -116 0
-115 -116 0
117 118 119 120 0
-117 -118 0
-117 -119 0
-117 -120 0
-118 -119 0
-118 -120 0
-119 -120 0
121 122 123 124 0
-121 -122 0
-121 -123 0
-121 -124 0
-122 -123 0
-122 -124 0
-123 -124 0
125 126 127 128 0
-125 -126 0
-125 -127 0
-125 -128 0
-126 -127 0
-126 -128 0
-127 -128 0
129 130 131 132 0
-129 -130 0
-129 -131 0
-129 -132 0
-130 -131 0
-130 -132 0
-131 -132 0
133 134 135 136 0
-133 -134 0
-133 -135 0
-133 -136 0
-134 -135 0
-134 -136 0
-135 -136 0
137 138 139 140 0
-137 -138 0
-137 -139 0
-137 -140 0
-138 -139 0
-138 -140 0
-139 -140 0
141 142 143 144 0
-141 -142 0
-141 -143 0
-141 -144 0
-142 -143 0
-142 -144 0
-143 -144 0
145 146 147 148 0
-145 -146 0
-145 -147 0
-145 -148 0
-146 -147 0
-146 -148 0
-147 -148 0
149 150 151 152 0
-149 -150 0
-149 -151 0
-149 -152 0
-150 -151 0
-150 -152 0
-151 -152 0
153 154 155 156 0
-153 -154 0
-153 -155 0
-153 -156 0
-154 -155 0
-154 -156 0
-155 -156 0
157 158 159 160 0
-157 -158 0
-157 -159 0
-157 -160 0
-158 -159 0
-158 -160 0
-159 -160 0
161 162 163 164 0
-161 -162 0
-161 -163 0
-161 -164 0
-162 -163 0
-162 -164 0
-163 -164 0
165 166 167 168 0
-165 -166 0
-165 -167 0
-165 -168 0
-166 -167 0
-166 -168 0
-167 -168 0
169 170 171 172 0
-169 -170 0
-169 -171 0
-169 -172 0
-170 -171 0
-170 -172 0
-171 -172 0
173 174 175 176 0
-173 -174 0
-173 -175 0
-173 -176 0
-174 -175 0
-174 -176 0
-175 -176 0
177 178 179 180 0
-177 -178 0
-177 -179 0
-177 -180 0
-178 -179 0
-178 -180 0
-179 -180 0
181 182 183 184 0
-181 -182 0
-181 -183 0
-181 -184 0
-182 -183 0
-182 -184 0
-183 -184 0
185 186 187 188 0
-185 -186 0
-185 -187 0
-185 -188 0
-186 -187 0
-186 -188 0
-187 -188 0
189 190 191 192 0
-189 -190 0
-189 -191 0
-189 -192 0
-190 -191 0
-190 -192 0
-191 -192 0
193 194 195 196 0
-193 -194 0
-193 -195 0
-193 -196 0
-194 -195 0
-194 -196 0
-195 -196 0
197 198 199 200 0
-197 -198 0
-197 -199 0
-197 -200 0
-198 -199 0
-198 -200 0
-199 -200 0
201 202 203 204 0
-201 -202 0
-201 -203 0
-201 -204 0
-202 -203 0
-202 -204 0
-203 -204 0
205 206 207 208 0
-205 -206 0
-205 -207 0
-205 -208 0
-206 -207 0
-206 -208 0
-207 -208 0
209 210 211 212 0
-209 -210 0
-209 -211 0
-209 -212 0
-210 -211 0
-210 -212 0
-211 -212 0
213 214 215 216 0
-213 -214 0
-213 -215 0
-213 -216 0
-214 -215 0
-214 -216 0
-215 -216 0
217 218 219 220 0
-217 -218 0
-217 -219 0
-217 -220 0
-218 -219 0
-218 -220 0
-219 -220 0
221 222 223 224 0
-221 -222 0
-221 -223 0
-221 -224 0
-222 -223 0
-222 -224 0
-223 -224 0
225 226 227 228 0
-225 -226 0
-225 -227 0
-225 -228 0
-226 -227 0
-226 -228 0
-227 -228 0
229 230 231 232 0
-229 -230 0
-229 -231 0
-229 -232 0
-230 -231 0
-230 -232 0
-231 -232 0
233 234 235 236 0
-233 -234 0
-233 -235 0
-233 -236 0
-234 -235 0
-234 -236 0
-235 -236 0
237 238 239 240 0
-237 -238 0
-237 -239 0
-237 -240 0
-238 -239 0
-238 -240 0
-239 -240 0
241 242 243 244 0
-241 -242 0
-241 -243 0
-241 -244 0
-242 -243 0
-242 -244 0
-243 -244 0
245 246 247 248 0
-245 -246 0
-245 -247 0
-245 -248 0
-246 -247 0
-246 -248 0
-247 -248 0
249 250 251 252 0
-249 -250 0
-249 -251 0
-249 -252 0
-250 -251 0
-250 -252 0
-251 -252 0
253 254 255 256 0
-253 -254 0
-253 -255 0
-253 -256 0
-254 -255 0
-254 -256 0
-255 -256 0
257 258 259 260 0
-257 -258 0
-257 -259 0
-257 -260 0
-258 -259 0
-258 -260 0
-259 -260 0
261 262 263 264 0
-261 -262 0
-261 -263 0
-261 -264 0
-262 -263 0
-262 -264 0
-263 -264 0
265 266 267 268 0
-265 -266 0
-265 -267 0
-265 -268 0
-266 -267 0
-266 -268 0
-267 -268 0
269 270 271 272 0
-269 -270 0
-269 -271 0
-269 -272 0
-270 -271 0
-270 -272 0
-271 -272 0
273 274 275 276 0
-273 -274 0
-273 -275 0
-273 -276 0
-274 -275 0
-274 -276 0
-275 -276 0
277 278 279 280 0
-277 -278 0
-277 -279 0
-277 -280 0
-278 -279 0
-278 -280 0
-279 -280 0
281 282 283 284 0
-281 -282 0
-281 -283 0
-281 -284 0
-282 -283 0
-282 -284 0
-283 -284 0
285 286 287 288 0
-285 -286 0
-285 -287 0
-285 -288 0
-286 -287 0
-286 -288 0
-287 -288 0
289 290 291 292 0
-289 -290 0
-289 -291 0
-289 -292 0
-290 -291 0
-290 -292 0
-291 -292 0
293 294 295 296 0
-293 -294 0
-293 -295 0
-293 -296 0
-294 -295 0
-294 -296 0
-295 -296 0
297 298 299 300 0
-297 -298 0
-297 -299 0
-297 -300 0
-298 -299 0
-298 -300 0
-299 -300 0
301 302 303 304 0
-301 -302 0
-301 -303 0
-301 -304 0
-302 -303 0
-302 -304 0
-303 -304 0
305 306 307 308 0
-305 -306 0
-305 -307 0
-305 -308 0
-306 -307 0
-306 -308 0
-307 -308 0
309 310 311 312 0
-309 -310 0
-309 -311 0
-309 -312 0
-310 -311 0
-310 -312 0
-311 -312 0
313 314 315 316 0
-313 -314 0
-313 -315 0
-313 -316 0
-314 -315 0
-314 -316 0
-315 -316 0
317 318 319 320 0
-317 -318 0
-317 -319 0
-317 -320 0
-318 -319 0
-318 -320 0
-319 -320 0
321 322 323 324 0
-321 -322 0
-321 -323 0
-321 -324 0
-322 -323 0
-322 -324 0
-323 -324 0
325 326 327 328 0
-325 -326 0
-325 -327 0
-325 -328 0
-326 -327 0
-326 -328 0
-327 -328 0
329 330 331 332 0
-329 -330 0
-329 -331 0
-329 -332 0
-330 -331 0
-330 -332 0
-331 -332 0
333 334 335 336 0
-333 -334 0
-333 -335 0
-333 -336 0
-334 -335 0
-334 -336 0
-335 -336 0
337 338 339 340 0
-337 -338 0
-337 -339 0
-337 -340 0
-338 -339 0
-338 -340 0
-339 -340 0
341 342 343 344 0
-341 -342 0
-341 -343 0
-341 -344 0
-342 -343 0
-342 -344 0
-343 -344 0
345 346 347 348 0
-345 -346 0
-345 -347 0
-345 -348 0
-346 -347 0
-346 -348 0
-347 -348 0
349 350 351 352 0
-349 -350 0
-349 -351 0
-349 -352 0
-350 -351 0
-350 -352 0
-351 -352 0
353 354 355 356 0
-353 -354 0
-353 -355 0
-353 -356 0
-354 -355 0
-354 -356 0
-355 -356 0
357 358 359 360 0
-357 -358 0
-357 -359 0
-357 -360 0
-358 -359 0
-358 -360 0
-359 -360 0
361 362 363 364 0
-361 -362 0
-361 -363 0
-361 -364 0
-362 -363 0
-362 -364 0
-363 -364 0
365 366 367 368 0
-365 -366 0
-365 -367 0
-365 -368 0
-366 -367 0
-366 -368 0
-367 -368 0
369 370 371 372 0
-369 -370 0
-369 -371 0
-369 -372 0
-370 -371 0
-370 -372 0
-371 -372 0
373 374 375 376 0
-373 -374 0
-373 -375 0
-373 -376 0
-374 -375 0
-374 -376 0
-375 -376 0
377 378 379 380 0
-377 -378 0
-377 -379 0
-377 -380 0
-378 -379 0
-378 -380 0
-379 -380 0
381 382 383 384 0
-381 -382 0
-381 -383 0
-381 -384 0
-382 -383 0
-382 -384 0
-383 -384 0
385 386 387 388 0
-385 -386 0
-385 -387 0
-385 -388 0
-386 -387 0
-386 -388 0
-387 -388 0
389 390 391 392 0
-389 -390 0
-389 -391 0
-389 -392 0
-390 -391 0
-390 -392 0
-391 -392 0
393 394 395 396 0
-393 -394 0
-393 -395 0
-393 -396 0
-394 -395 0
-394 -396 0
-395 -396 0
397 398 399 400 0
-397 -398 0
-397 -399 0
-397 -400 0
-398 -399 0
-398 -400 0
-399 -400 0
401 402 403 404 0
-401 -402 0
-401 -403 0
-401 -404 0
-402 -403 0
-402 -404 0
-403 -404 0
405 406 407 408 0
-405 -406 0
-405 -407 0
-405 -408 0
-406 -407 0
-406 -408 0
-407 -408 0
409 410 411 412 0
-409 -410 0
-409 -411 0
-409 -412 0
-410 -411 0
-410 -412 0
-411 -412 0
413 414 415 416 0
-413 -414 0
-413 -415 0
-413 -416 0
-414 -415 0
-414 -416 0
-415 -416 0
417 418 419 420 0
-417 -418 0
-417 -419 0
-417 -420 0
-418 -419 0
-418 -420 0
-419 -420 0
421 422 423 424 0
-421 -422 0
-421 -423 0
-421 -424 0
-422 -423 0
-422 -424 0
-423 -424 0
425 426 427 428 0
-425 -426 0
-425 -427 0
-425 -428 0
-426 -427 0
-426 -428 0
-427 -428 0
429 430 431 432 0
-429 -430 0
-429 -431 0
-429 -432 0
-430 -431 0
-430 -432 0
-431 -432 0
433 434 435 436 0
-433 -434 0
-433 -435 0
-433 -436 0
-434 -435 0
-434 -436 0
-435 -436 0
437 438 439 440 0
-437 -438 0
-437 -439 0
-437 -440 0
-438 -439 0
-438 -440 0
-439 -440 0
441 442 443 444 0
-441 -442 0
-441 -443 0
-441 -444 0
-442 -443 0
-442 -444 0
-443 -444 0
445 446 447 448 0
-445 -446 0
-445 -447 0
-445 -448 0
-446 -447 0
-446 -448 0
-447 -448 0
449 450 451 452 0
-449 -450 0
-449 -451 0
-449 -452 0
-450 -451 0
-450 -452 0
-451 -452 0
453 454 455 456 0
-453 -454 0
-453 -455 0
-453 -456 0
-454 -455 0
-454 -456 0
-455 -456 0
457 458 459 460 0
-457 -458 0
-457 -459 0
-457 -460 0
-458 -459 0
-458 -460 0
-459 -460 0
461 462 463 464 0
-461 -462 0
-461 -463 0
-461 -464 0
-462 -463 0
-462 -464 0
-463 -464 0
465 466 467 468 0
-465 -466 0
-465 -467 0
-465 -468 0
-466 -467 0
-466 -468 0
-467 -468 0
469 470 471 472 0
-469 -470 0
-469 -471 0
-469 -472 0
-470 -471 0
-470 -472 0
-471 -472 0
473 474 475 476 0
-473 -474 0
-473 -475 0
-473 -476 0
-474 -475 0
-474 -476 0
-475 -476 0
477 478 479 480 0
-477 -478 0
-477 -479 0
-477 -480 0
-478 -479 0
-478 -480 0
-479 -480 0
481 482 483 484 0
-481 -482 0
-481 -483 0
-481 -484 0
-482 -483 0
-482 -484 0
-483 -484 0
485 486 487 488 0
-485 -486 0
-485 -487 0
-485 -488 0
-486 -487 0
-486 -488 0
-487 -488 0
489 490 491 492 0
-489 -490 0
-489 -491 0
-489 -492 0
-490 -491 0
-490 -492 0
-491 -492 0
493 494 495 496 0
-493 -494 0
-493 -495 0
-493 -496 0
-494 -495 0
-494 -496 0
-495 -496 0
497 498 499 500 0
-497 -498 0
-497 -499 0
-497 -500 0
-498 -499 0
-498 -500 0
-499 -500 0
-161 -389 0
-162 -390 0
-163 -391 0
-164 -392 0
-233 -437 0
-234 -438 0
-235 -439 0
-236 -440 0
-233 -433 0
-234 -434 0
-235 -435 0
-236 -436 0
-81 -469 0
-82 -470 0
-83 -471 0
-84 -472 0
-73 -289 0
-74 -290 0
-75 -291 0
-76 -292 0
-89 -321 0
-90 -322 0
-91 -323 0
-92 -324 0
-265 -301 0
-266 -302 0
-267 -303 0
-268 -304 0
-45 -421 0
-46 -422 0
-47 -423 0
-48 -424 0
-213 -221 0
-214 -222 0
-215 -223 0
-216 -224 0
-441 -493 0
-442 -494 0
-443 -495 0
-444 -496 0
-1 -329 0
-2 -330 0
-3 -331 0
-4 -332 0
-41 -117 0
-42 -118 0
-43 -119 0
-44 -120 0
-397 -469 0
-398 -470 0
-399 -471 0
-400 -472 0
-53 -97 0
-54 -98 0
-55 -99 0
-56 -100 0
-57 -465 0
-58 -466 0
-59 -467 0
-60 -468 0
-9 -253 0
-10 -254 0
-11 -255 0
-12 -256 0
-109 -425 0
-110 -426 0
-111 -427 0
-112 -428 0
-209 -217 0
-210 -218 0
-211 -219 0
-212 -220 0
-33 -345 0
-34 -346 0
-35 -347 0
-36 -348 0
-229 -473 0
-230 -474 0
-231 -475 0
-232 -476 0
-137 -321 0
-138 -322 0
-139 -323 0
-140 -324 0
-189 -233 0
-190 -234 0
-191 -235 0
-192 -236 0
-93 -209 0
-94 -210 0
-95 -211 0
-96 -212 0
-453 -465 0
-454 -466 0
-455 -467 0
-456 -468 0
-97 -281 0
-98 -282 0
-99 -283 0
-100 -284 0
-225 -329 0
-226 -330 0
-227 -331 0
-228 -332 0
-17 -297 0
-18 -298 0
-19 -299 0
-20 -300 0
-145 -317 0
-146 -318 0
-147 -319 0
-148 -320 0
-69 -145 0
-70 -146 0
-71 -147 0
-72 -148 0
-33 -197 0
-34 -198 0
-35 -199 0
-36 -200 0
-421 -449 0
-422 -450 0
-423 -451 0
-424 -452 0
-269 -469 0
-270 -470 0
-271 -471 0
-272 -472 0
-205 -425 0
-206 -426 0
-207 -427 0
-208 -428 0
-301 -497 0
-302 -498 0
-303 -499 0
-304 -500 0
-373 -417 0
-374 -418 0
-375 -419 0
-376 -420 0
-433 -457 0
-434 -458 0
-435 -459 0
-436 -460 0
-289 -493 0
-290 -494 0
-291 -495 0
-292 -496 0
-365 -417 0
-366 -418 0
-367 -419 0
-368 -420 0
-129 -169 0
-130 -170 0
-131 -171 0
-132 -172 0
-105 -397 0
-106 -398 0
-107 -399 0
-108 -400 0
-17 -409 0
-18 -410 0
-19 -411 0
-20 -412 0
-165 -381 0
-166 -382 0
-167 -383 0
-168 -384 0
-73 -421 0
-74 -422 0
-75 -423 0
-76 -424 0
-141 -293 0
-142 -294 0
-143 -295 0
-144 -296 0
-113 -349 0
-114 -350 0
-115 -351 0
-116 -352 0
-9 -449 0
-10 -450 0
-11 -451 0
-12 -452 0
-33 -61 0
-34 -62 0
-35 -63 0
-36 -64 0
-5 -209 0
-6 -210 0
-7 -211 0
-8 -212 0
-49 -261 0
-50 -262 0
-51 -263 0
-52 -264 0
-349 -437 0
-350 -438 0
-351 -439 0
-352 -440 0
-73 -445 0
-74 -446 0
-75 -447 0
-76 -448 0
-81 -101 0
-82 -102 0
-83 -103 0
-84 -104 0
-213 -473 0
-214 -474 0
-215 -475 0
-216 -476 0
-289 -365 0
-290 -366 0
-291 -367 0
-292 -368 0
-25 -421 0
-26 -422 0
-27 -423 0
-28 -424 0
-329 -341 0
-330 -342 0
-331 -343 0
-332 -344 0
-469 -481 0
-470 -482 0
-471 -483 0
-472 -484 0
-9 -261 0
-10 -262 0
-11 -263 0
-12 -264 0
-253 -277 0
-254 -278 0
-255 -279 0
-256 -280 0
-181 -377 0
-182 -378 0
-183 -379 0
-184 -380 0
-277 -285 0
-278 -286 0
-279 -287 0
-280 -288 0
-25 -161 0
-26 -162 0
-27 -163 0
-28 -164 0
-113 -421 0
-114 -422 0
-115 -423 0
-116 -424 0
-373 -433 0
-374 -434 0
-375 -435 0
-376 -436 0
-377 -405 0
-378 -406 0
-379 -407 0
-380 -408 0
-125 -357 0
-126 -358 0
-127 -359 0
-128 -360 0
-105 -205 0
-106 -206 0
-107 -207 0
-108 -208 0
-21 -125 0
-22 -126 0
-23 -127 0
-24 -128 0
-401 -457 0
-402 -458 0
-403 -459 0
-404 -460 0
-137 -381 0
-138 -382 0
-139 -383 0
-140 -384 0
-257 -381 0
-258 -382 0
-259 -383 0
-260 -384 0
-289 -309 0
-290 -310 0
-291 -311 0
-292 -312 0
-5 -305 0
-6 -306 0
-7 -307 0
-8 -308 0
-213 -345 0
-214 -346 0
-215 -347 0
-216 -348 0
-13 -357 0
-14 -358 0
-15 -359 0
-16 -360 0
-117 -257 0
-118 -258 0
-119 -259 0
-120 -260 0
-341 -397 0
-342 -398 0
-343 -399 0
-344 -400 0
-161 -341 0
-162 -342 0
-163 -343 0
-164 -344 0
-125 -185 0
-126 -186 0
-127 -187 0
-128 -188 0
-201 -401 0
-202 -402 0
-203 -403 0
-204 -404 0
-137 -453 0
-138 -454 0
-139 -455 0
-140 -456 0
-205 -217 0
-206 -218 0
-207 -219 0
-208 -220 0
-29 -169 0
-30 -170 0
-31 -171 0
-32 -172 0
-381 -453 0
-382 -454 0
-383 -455 0
-384 -456 0
-221 -449 0
-222 -450 0
-223 -451 0
-224 -452 0
-157 -345 0
-158 -346 0
-159 -347 0
-160 -348 0
-1 -293 0
-2 -294 0
-3 -295 0
-4 -296 0
-37 -65 0
-38 -66 0
-39 -67 0
-40 -68 0
-333 -389 0
-334 -390 0
-335 -391 0
-336 -392 0
-145 -489 0
-146 -490 0
-147 -491 0
-148 -492 0
-57 -477 0
-58 -478 0
-59 -479 0
-60 -480 0
-73 -373 0
-74 -374 0
-75 -375 0
-76 -376 0
-461 -485 0
-462 -486 0
-463 -487 0
-464 -488 0
-13 -281 0
-14 -282 0
-15 -283 0
-16 -284 0
-229 -257 0
-230 -258 0
-231 -259 0
-232 -260 0
-1 -189 0
-2 -190 0
-3 -191 0
-4 -192 0
-149 -153 0
-150 -154 0
-151 -155 0
-152 -156 0
-273 -429 0
-274 -430 0
-275 -431 0
-276 -432 0
-69 -353 0
-70 -354 0
-71 -355 0
-72 -356 0
-265 -269 0
-266 -270 0
-267 -271 0
-268 -272 0
-93 -137 0
-94 -138 0
-95 -139 0
-96 -140 0
-165 -337 0
-166 -338 0
-167 -339 0
-168 -340 0
-229 -441 0
-230 -442 0
-231 -443 0
-232 -444 0
-265 -321 0
-266 -322 0
-267 -323 0
-268 -324 0
-257 -461 0
-258 -462 0
-259 -463 0
-260 -464 0
-33 -453 0
-34 -454 0
-35 -455 0
-36 -456 0
-53 -305 0
-54 -306 0
-55 -307 0
-56 -308 0
-213 -385 0
-214 -386 0
-215 -387 0
-216 -388 0
-13 -73 0
-14 -74 0
-15 -75 0
-16 -76 0
-21 -285 0
-22 -286 0
-23 -287 0
-24 -288 0
-157 -497 0
-158 -498 0
-159 -499 0
-160 -500 0
-201 -261 0
-202 -262 0
-203 -263 0
-204 -264 0
-53 -105 0
-54 -106 0
-55 -107 0
-56 -108 0
-125 -129 0
-126 -130 0
-127 -131 0
-128 -132 0
-21 -129 0
-22 -130 0
-23 -131 0
-24 -132 0
-37 -329 0
-38 -330 0
-39 -331 0
-40 -332 0
-81 -137 0
-82 -138 0
-83 -139 0
-84 -140 0
-9 -93 0
-10 -94 0
-11 -95 0
-12 -96 0
-93 -277 0
-94 -278 0
-95 -279 0
-96 -280 0
-57 -213 0
-58 -214 0
-59 -215 0
-60 -216 0
-149 -297 0
-150 -298 0
-151 -299 0
-152 -300 0
-205 -261 0
-206 -262 0
-207 -263 0
-208 -264 0
-273 -333 0
-274 -334 0
-275 -335 0
-276 -336 0
-145 -393 0
-146 -394 0
-147 -395 0
-148 -396 0
-77 -265 0
-78 -266 0
-79 -267 0
-80 -268 0
-265 -413 0
-266 -414 0
-267 -415 0
-268 -416 0
-21 -221 0
-22 -222 0
-23 -223 0
-24 -224 0
-433 -445 0
-434 -446 0
-435 -447 0
-436 -448 0
-137 -181 0
-138 -182 0
-139 -183 0
-140 -184 0
-53 -121 0
-54 -122 0
-55 -123 0
-56 -124 0
-113 -245 0
-114 -246 0
-115 -247 0
-116 -248 0
-261 -433 0
-262 -434 0
-263 -435 0
-264 -436 0
-93 -321 0
-94 -322 0
-95 -323 0
-96 -324 0
-57 -445 0
-58 -446 0
-59 -447 0
-60 -448 0
-77 -417 0
-78 -418 0
-79 -419 0
-80 -420 0
-13 -53 0
-14 -54 0
-15 -55 0
-16 -56 0
-129 -137 0
-130 -138 0
-131 -139 0
-132 -140 0
-33 -45 0
-34 -46 0
-35 -47 0
-36 -48 0
-321 -469 0
-322 -470 0
-323 -471 0
-324 -472 0
-45 -277 0
-46 -278 0
-47 -279 0
-48 -280 0
-81 -317 0
-82 -318 0
-83 -319 0
-84 -320 0
-77 -137 0
-78 -138 0
-79 -139 0
-80 -140 0
-421 -497 0
-422 -498 0
-423 -499 0
-424 -500 0
-409 -485 0
-410 -486 0
-411 -487 0
-412 -488 0
-221 -309 0
-222 -310 0
-223 -311 0
-224 -312 0
-209 -253 0
-210 -254 0
-211 -255 0
-212 -256 0
-389 -441 0
-390 -442 0
-391 -443 0
-392 -444 0
-25 -449 0
-26 -450 0
-27 -451 0
-28 -452 0
-101 -393 0
-102 -394 0
-103 -395 0
-104 -396 0
-89 -397 0
-90 -398 0
-91 -399 0
-92 -400 0
-193 -469 0
-194 -470 0
-195 -471 0
-196 -472 0
-125 -361 0
-126 -362 0
-127 -363 0
-128 -364 0
-293 -381 0
-294 -382 0
-295 -383 0
-296 -384 0
-361 -421 0
-362 -422 0
-363 -423 0
-364 -424 0
-333 -441 0
-334 -442 0
-335 -443 0
-336 -444 0
-225 -361 0
-226 -362 0
-227 -363 0
-228 -364 0
-53 -481 0
-54 -482 0
-55 -483 0
-56 -484 0
-425 -437 0
-426 -438 0
-427 -439 0
-428 -440 0
-333 -353 0
-334 -354 0
-335 -355 0
-336 -356 0
-425 -453 0
-426 -454 0
-427 -455 0
-428 -456 0
-349 -433 0
-350 -434 0
-351 -435 0
-352 -436 0
-301 -405 0
-302 -406 0
-303 -407 0
-304 -408 0
-169 -321 0
-170 -322 0
-171 -323 0
-172 -324 0
-17 -189 0
-18 -190 0
-19 -191 0
-20 -192 0
-77 -293 0
-78 -294 0
-79 -295 0
-80 -296 0
-325 -481 0
-326 -482 0
-327 -483 0
-328 -484 0
-165 -397 0
-166 -398 0
-167 -399 0
-168 -400 0
-289 -317 0
-290 -318 0
-291 -319 0
-292 -320 0
-61 -489 0
-62 -490 0
-63 -491 0
-64 -492 0
-437 -473 0
-438 -474 0
-439 -475 0
-440 -476 0
-261 -301 0
-262 -302 0
-263 -303 0
-264 -304 0
-249 -385 0
-250 -386 0
-251 -387 0
-252 -388 0
-69 -109 0
-70 -110 0
-71 -111 0
-72 -112 0
-201 -293 0
-202 -294 0
-203 -295 0
-204 -296 0
-9 -21 0
-10 -22 0
-11 -23 0
-12 -24 0
-45 -449 0
-46 -450 0
-47 -451 0
-48 -452 0
-89 -497 0
-90 -498 0
-91 -499 0
-92 -500 0
-89 -469 0
-90 -470 0
-91 -471 0
-92 -472 0
-281 -413 0
-282 -414 0
-283 -415 0
-284 -416 0
-61 -361 0
-62 -362 0
-63 -363 0
-64 -364 0
-49 -413 0
-50 -414 0
-51 -415 0
-52 -416 0
-5 -265 0
-6 -266 0
-7 -267 0
-8 -268 0
-109 -117 0
-110 -118 0
-111 -119 0
-112 -120 0
-1 -181 0
-2 -182 0
-3 -183 0
-4 -184 0
-265 -273 0
-266 -274 0
-267 -275 0
-268 -276 0
-193 -429 0
-194 -430 0
-195 -431 0
-196 -432 0
-41 -129 0
-42 -130 0
-43 -131 0
-44 -132 0
-325 -449 0
-326 -450 0
-327 -451 0
-328 -452 0
-41 -365 0
-42 -366 0
-43 -367 0
-44 -368 0
-85 -489 0
-86 -490 0
-87 -491 0
-88 -492 0
-81 -453 0
-82 -454 0
-83 -455 0
-84 -456 0
-45 -353 0
-46 -354 0
-47 -355 0
-48 -356 0
-129 -445 0
-130 -446 0
-131 -447 0
-132 -448 0
-245 -429 0
-246 -430 0
-247 -431 0
-248 -432 0
-149 -173 0
-150 -174 0
-151 -175 0
-152 -176 0
-85 -249 0
-86 -250 0
-87 -251 0
-88 -252 0
-245 -413 0
-246 -414 0
-247 -415 0
-248 -416 0
-217 -429 0
-218 -430 0
-219 -431 0
-220 -432 0
-369 -461 0
-370 -462 0
-371 -463 0
-372 -464 0
-137 -301 0
-138 -302 0
-139 -303 0
-140 -304 0
-241 -477 0
-242 -478 0
-243 -479 0
-244 -480 0
-269 -305 0
-270 -306 0
-271 -307 0
-272 -308 0
-469 -477 0
-470 -478 0
-471 -479 0
-472 -480 0
-269 -489 0
-270 -490 0
-271 -491 0
-272 -492 0
-101 -137 0
-102 -138 0
-103 -139 0
-104 -140 0
-241 -297 0
-242 -298 0
-243 -299 0
-244 -300 0
-49 -237 0
-50 -238 0
-51 -239 0
-52 -240 0
-65 -233 0
-66 -234 0
-67 -235 0
-68 -236 0
-121 -157 0
-122 -158 0
-123 -159 0
-124 -160 0
-213 -241 0
-214 -242 0
-215 -243 0
-216 -244 0
-77 -161 0
-78 -162 0
-79 -163 0
-80 -164 0
-85 -321 0
-86 -322 0
-87 -323 0
-88 -324 0
-253 -341 0
-254 -342 0
-255 -343 0
-256 -344 0
-89 -269 0
-90 -270 0
-91 -271 0
-92 -272 0
-57 -433 0
-58 -434 0
-59 -435 0
-60 -436 0
-21 -173 0
-22 -174 0
-23 -175 0
-24 -176 0
-229 -445 0
-230 -446 0
-231 -447 0
-232 -448 0
-21 -385 0
-22 -386 0
-23 -387 0
-24 -388 0
-1 -77 0
-2 -78 0
-3 -79 0
-4 -80 0
-305 -345 0
-306 -346 0
-307 -347 0
-308 -348 0
-305 -309 0
-306 -310 0
-307 -311 0
-308 -312 0
-173 -309 0
-174 -310 0
-175 -311 0
-176 -312 0
-97 -429 0
-98 -430 0
-99 -431 0
-100 -432 0
-285 -329 0
-286 -330 0
-287 -331 0
-288 -332 0
-69 -317 0
-70 -318 0
-71 -319 0
-72 -320 0
-9 -485 0
-10 -486 0
-11 -487 0
-12 -488 0
-93 -265 0
-94 -266 0
-95 -267 0
-96 -268 0
-57 -333 0
-58 -334 0
-59 -335 0
-60 -336 0
-417 -457 0
-418 -458 0
-419 -459 0
-420 -460 0
-205 -325 0
-206 -326 0
-207 -327 0
-208 -328 0
-385 -421 0
-386 -422 0
-387 -423 0
-388 -424 0
-85 -369 0
-86 -370 0
-87 -371 0
-88 -372 0
-153 -373 0
-154 -374 0
-155 -375 0
-156 -376 0
-381 -441 0
-382 -442 0
-383 -443 0
-384 -444 0
-117 -449 0
-118 -450 0
-119 -451 0
-120 -452 0
-149 -305 0
-150 -306 0
-151 -307 0
-152 -308 0
-81 -85 0
-82 -86 0
-83 -87 0
-84 -88 0
-21 -253 0
-22 -254 0
-23 -255 0
-24 -256 0
-365 -433 0
-366 -434 0
-367 -435 0
-368 -436 0
-53 -185 0
-54 -186 0
-55 -187 0
-56 -188 0
-253 -369 0
-254 -370 0
-255 -371 0
-256 -372 0
-109 -169 0
-110 -170 0
-111 -171 0
-112 -172 0
-17 -73 0
-18 -74 0
-19 -75 0
-20 -76 0
-105 -317 0
-106 -318 0
-107 -319 0
-108 -320 0
-61 -101 0
-62 -102 0
-63 -103 0
-64 -104 0
-153 -305 0
-154 -306 0
-155 -307 0
-156 -308 0
-105 -341 0
-106 -342 0
-107 -343 0
-108 -344 0
-265 -449 0
-266 -450 0
-267 -451 0
-268 -452 0
-473 -497 0
-474 -498 0
-475 -499 0
-476 -500 0
-281 -305 0
-282 -306 0
-283 -307 0
-284 -308 0
-161 -489 0
-162 -490 0
-163 -491 0
-164 -492 0
-105 -237 0
-106 -238 0
-107 -239 0
-108 -240 0
-333 -337 0
-334 -338 0
-335 -339 0
-336 -340 0
-209 -277 0
-210 -278 0
-211 -279 0
-212 -280 0
-445 -449 0
-446 -450 0
-447 -451 0
-448 -452 0
-45 -489 0
-46 -490 0
-47 -491 0
-48 -492 0
-177 -277 0
-178 -278 0
-179 -279 0
-180 -280 0
-33 -149 0
-34 -150 0
-35 -151 0
-36 -152 0
-121 -257 0
-122 -258 0
-123 -259 0
-124 -260 0
-49 -157 0
-50 -158 0
-51 -159 0
-52 -160 0
-33 -377 0
-34 -378 0
-35 -379 0
-36 -380 0
-473 -493 0
-474 -494 0
-475 -495 0
-476 -496 0
-261 -497 0
-262 -498 0
-263 -499 0
-264 -500 0
-277 -317 0
-278 -318 0
-279 -319 0
-280 -320 0
-201 -289 0
-202 -290 0
-203 -291 0
-204 -292 0
