c generated_for formulae_like_variant benchmark
c dataset formulae_like_02
c variant 2
c seed_base 20280601
c family planted_3sat_dense
c expected_status SAT
c notes dense hidden-assignment 3-SAT
p cnf 200 1450
-98 135 198 0
-118 -144 156 0
17 23 -164 0
18 46 131 0
20 -25 -52 0
-94 -123 168 0
-67 133 -176 0
-64 188 -192 0
8 -41 -182 0
91 -151 161 0
72 89 141 0
40 -71 -103 0
-13 67 83 0
-50 77 127 0
10 -83 174 0
-29 -119 183 0
159 -160 -177 0
64 -164 170 0
-20 -32 -162 0
-5 142 172 0
47 54 -192 0
97 156 -167 0
-39 -101 125 0
-24 106 -183 0
-10 153 -198 0
28 -37 -173 0
1 -141 -199 0
120 146 -185 0
-130 160 173 0
15 77 110 0
138 -151 166 0
7 -72 181 0
37 57 58 0
17 90 130 0
-8 -14 68 0
77 -85 110 0
56 -132 -184 0
-14 40 82 0
-2 -31 199 0
-29 115 -193 0
25 -29 -69 0
-45 -53 -122 0
-70 -84 131 0
-110 165 -179 0
-16 86 141 0
-50 64 122 0
3 13 -153 0
23 130 -191 0
44 -131 163 0
-15 -33 117 0
19 -90 187 0
81 101 -147 0
79 -150 -194 0
-42 79 -125 0
-7 -18 -100 0
8 -176 -191 0
15 -133 -145 0
-18 -74 -126 0
-29 35 76 0
54 -64 -96 0
-8 146 163 0
-104 106 -126 0
41 74 -179 0
62 126 -157 0
-62 116 -187 0
-89 -147 162 0
17 -87 110 0
-29 -95 -111 0
1 -25 118 0
-117 132 -165 0
45 -64 -116 0
-114 -169 -177 0
18 104 176 0
13 -25 140 0
-124 171 -182 0
-84 88 116 0
-114 116 -170 0
-29 51 -94 0
36 -138 -154 0
-55 -87 -198 0
-107 118 126 0
-81 104 109 0
46 74 78 0
84 -124 159 0
88 -112 163 0
28 149 192 0
18 145 156 0
-71 105 -131 0
68 -81 176 0
43 62 195 0
-18 -108 -114 0
-21 145 160 0
71 -175 187 0
96 97 123 0
4 -104 -132 0
135 137 -199 0
-32 -47 -104 0
50 104 -162 0
-25 54 -65 0
70 -123 -160 0
85 169 171 0
-17 -52 -195 0
20 -26 42 0
24 -72 80 0
41 -79 -199 0
49 78 160 0
126 -130 -162 0
-5 34 -184 0
19 -149 166 0
-36 113 169 0
47 109 156 0
82 92 99 0
71 169 -187 0
-102 -131 -148 0
20 35 172 0
17 28 -156 0
6 21 83 0
-25 76 147 0
22 -139 198 0
35 148 150 0
1 101 -145 0
-63 85 95 0
-72 -95 130 0
106 -137 192 0
-7 -10 -126 0
6 -78 80 0
-102 118 -171 0
-118 -154 -192 0
105 -116 -132 0
27 -76 -109 0
-21 -134 143 0
35 -117 199 0
-14 -41 51 0
-10 -54 105 0
54 58 179 0
-92 139 161 0
104 106 140 0
44 -59 142 0
28 -32 -137 0
-65 -92 167 0
7 -9 106 0
48 -72 145 0
-69 99 -136 0
-45 48 -134 0
-66 -112 -159 0
-29 -110 185 0
43 -187 197 0
-24 -55 85 0
4 -16 -75 0
-43 65 -168 0
-12 -137 194 0
-13 22 143 0
-29 49 79 0
59 -73 -145 0
-1 52 155 0
-31 40 174 0
10 78 -111 0
32 126 -157 0
-128 183 -192 0
-10 -41 -74 0
21 -36 52 0
22 53 -186 0
-7 31 -170 0
-17 77 105 0
-71 -154 -200 0
9 42 -137 0
-32 -64 -154 0
-48 92 -98 0
60 -113 162 0
8 109 -152 0
16 -63 151 0
12 37 111 0
3 -156 160 0
-20 -127 129 0
11 -126 -172 0
-15 64 -184 0
76 137 -164 0
-72 -85 -98 0
-48 76 176 0
-64 -116 -149 0
-66 152 -170 0
-8 -86 -151 0
-93 157 175 0
-119 -126 151 0
-53 -139 156 0
14 60 -183 0
133 -171 182 0
130 135 198 0
16 31 42 0
-2 6 135 0
-30 77 -170 0
98 -109 175 0
-8 32 123 0
20 -59 -71 0
116 -145 -148 0
-154 168 195 0
27 -43 127 0
133 134 149 0
-115 145 174 0
40 68 -159 0
33 130 -172 0
23 -121 -135 0
-61 65 -155 0
43 165 187 0
-72 -138 144 0
35 145 -172 0
-52 174 -195 0
-36 44 -129 0
-86 121 -175 0
67 178 -196 0
-80 95 136 0
48 -98 -148 0
-7 -130 190 0
20 -93 -173 0
41 52 75 0
-52 -110 -185 0
34 -85 -194 0
93 -118 187 0
-31 105 171 0
-39 -79 128 0
-95 98 105 0
88 136 -144 0
-44 -97 114 0
83 122 -196 0
34 43 58 0
-18 45 196 0
-36 109 111 0
-118 132 174 0
19 -52 -140 0
-24 -116 145 0
87 149 164 0
78 86 170 0
-191 -193 -194 0
-11 18 29 0
101 112 -180 0
22 65 163 0
-119 -186 -198 0
54 109 -127 0
101 -119 -192 0
-116 128 -141 0
58 -91 -96 0
-15 42 -80 0
-14 -85 -145 0
-55 -109 119 0
79 114 185 0
-98 -107 119 0
102 122 195 0
-11 -16 77 0
-36 41 -150 0
-85 130 -155 0
42 145 147 0
-84 167 177 0
-12 24 -137 0
95 -189 -198 0
19 -75 149 0
-81 110 198 0
12 -59 -144 0
-37 109 -198 0
-39 -116 -199 0
14 106 -191 0
12 -36 184 0
-75 165 -182 0
60 -131 -180 0
15 40 -192 0
65 87 179 0
28 -96 197 0
24 120 164 0
12 -99 -126 0
82 141 -146 0
-50 -57 -112 0
110 129 -197 0
124 -176 -179 0
20 -41 -164 0
-12 -45 -74 0
82 -95 103 0
52 88 -127 0
-20 -66 195 0
-2 80 -98 0
21 -84 -180 0
-4 -9 -169 0
-87 -133 134 0
49 125 164 0
15 -17 -97 0
-2 99 -180 0
-1 95 181 0
44 -121 -144 0
-112 131 -197 0
6 42 123 0
48 88 -133 0
-39 -186 -193 0
-25 -29 -57 0
36 -41 177 0
-25 -27 43 0
-47 -168 173 0
-15 -116 -187 0
-91 143 -167 0
-77 159 174 0
81 111 -191 0
140 144 -163 0
-21 -45 -159 0
-110 138 145 0
83 135 -137 0
100 107 -162 0
85 89 -185 0
-69 91 176 0
-131 151 -173 0
27 -35 -185 0
-47 -56 -158 0
-82 145 -174 0
30 -66 -121 0
-115 130 -153 0
-74 88 94 0
47 114 157 0
98 174 -189 0
-107 122 135 0
24 -33 179 0
-130 -136 144 0
61 103 116 0
116 171 196 0
13 119 193 0
25 97 137 0
156 187 195 0
16 137 190 0
-22 -25 100 0
68 107 -116 0
76 107 -171 0
-101 175 197 0
61 -105 -109 0
-3 -153 193 0
-81 92 114 0
-154 157 198 0
-139 154 188 0
3 -133 -136 0
96 109 -144 0
94 115 160 0
109 -153 -178 0
13 29 -100 0
-74 134 196 0
20 27 109 0
-116 -155 -200 0
-32 73 168 0
-38 -52 -119 0
13 -14 -67 0
134 140 179 0
12 63 132 0
44 -128 173 0
-39 -95 158 0
-37 -46 135 0
-70 87 -112 0
14 119 -154 0
62 103 -190 0
-49 -93 -107 0
86 -96 -191 0
-128 -136 169 0
54 -65 -141 0
68 172 175 0
-63 179 -191 0
-2 21 86 0
66 109 -174 0
73 -167 196 0
-9 -124 -181 0
-96 100 200 0
11 -54 -157 0
2 -47 -69 0
33 63 186 0
91 -101 -106 0
101 -153 191 0
-53 80 109 0
-16 -59 -187 0
-13 -58 -195 0
-8 68 132 0
136 -155 169 0
-4 50 -194 0
55 77 145 0
65 66 175 0
-123 149 199 0
-75 146 -177 0
-4 19 169 0
-49 -57 150 0
-67 -74 196 0
-40 -44 -123 0
-36 -127 -137 0
66 -81 -117 0
107 111 137 0
56 -58 119 0
22 -27 31 0
-76 145 163 0
46 -55 70 0
29 -118 181 0
10 91 -178 0
-84 177 197 0
-30 -94 95 0
-83 -130 -199 0
77 -132 -186 0
-145 -169 -174 0
113 -114 168 0
-37 -171 174 0
-2 -67 -118 0
21 -80 95 0
-83 126 185 0
-72 129 -175 0
-21 -77 -111 0
-91 96 -104 0
-176 198 199 0
116 131 133 0
61 -153 185 0
-109 132 -142 0
-92 188 192 0
51 -146 -168 0
-25 -79 93 0
13 103 -199 0
-20 -33 -183 0
-81 -151 189 0
19 -62 136 0
-5 -70 -71 0
-69 124 -136 0
5 76 -161 0
35 127 135 0
-48 49 -110 0
-35 45 179 0
20 46 141 0
-13 -33 168 0
9 32 187 0
-102 103 167 0
-17 -27 165 0
67 -119 164 0
-35 -112 186 0
42 -59 -186 0
-48 126 -155 0
-22 38 -186 0
18 111 115 0
94 124 141 0
24 -59 -185 0
4 28 87 0
-14 184 200 0
61 68 -93 0
42 141 -192 0
-17 -25 33 0
-86 147 -168 0
71 -80 172 0
-33 -110 -121 0
-135 153 -184 0
-5 39 -112 0
42 69 134 0
-65 -84 -162 0
38 118 190 0
42 142 -193 0
4 70 -110 0
-126 142 198 0
86 -100 -165 0
-6 87 -90 0
-121 143 -174 0
187 -195 -196 0
-137 -157 173 0
-26 -72 189 0
50 -111 -170 0
-50 124 135 0
123 -172 -182 0
-20 -60 -67 0
-32 152 -193 0
34 135 -152 0
122 172 196 0
43 -56 192 0
11 -77 87 0
-16 -64 105 0
-117 -144 195 0
31 68 80 0
20 78 142 0
24 -58 174 0
3 -41 69 0
30 -83 -138 0
-67 152 157 0
59 137 -141 0
24 152 194 0
-1 -16 -74 0
-39 -86 183 0
-37 48 166 0
7 117 169 0
-17 -35 -116 0
55 -82 -130 0
24 81 -137 0
-5 -133 196 0
105 -156 199 0
-91 126 -145 0
76 -93 -170 0
67 158 -162 0
81 114 -185 0
22 -107 192 0
23 117 132 0
81 -187 195 0
11 146 162 0
-17 21 139 0
10 41 68 0
-24 -51 171 0
74 78 79 0
-2 3 112 0
-37 116 200 0
10 -13 120 0
41 -186 -193 0
-20 -160 -168 0
23 37 53 0
127 130 165 0
-44 76 -90 0
-93 -101 156 0
64 73 154 0
99 150 160 0
-62 -158 -198 0
34 -44 -179 0
-48 -144 180 0
44 -57 -179 0
-14 -52 -139 0
42 -57 163 0
-90 -142 184 0
29 66 -189 0
93 -113 -167 0
137 -161 192 0
-87 -167 174 0
-14 -45 -90 0
3 71 -130 0
-19 -41 133 0
-29 -170 182 0
102 104 140 0
-16 167 172 0
75 -98 -197 0
-36 -136 192 0
38 -109 -125 0
3 -21 -195 0
-20 96 -117 0
18 -91 -102 0
-125 -166 197 0
-24 -90 -193 0
123 -131 -133 0
-57 -78 124 0
-21 73 79 0
-28 -118 125 0
-49 -55 -112 0
-61 -69 196 0
-10 -17 -60 0
57 -126 147 0
55 103 140 0
93 184 196 0
96 190 195 0
-43 60 -82 0
20 -126 187 0
1 67 180 0
-20 -105 -175 0
-38 -104 -148 0
-48 150 159 0
-53 117 -123 0
44 -84 155 0
40 103 150 0
26 31 -192 0
-13 69 138 0
18 -61 -108 0
85 -139 148 0
-79 -167 175 0
-20 83 119 0
55 -123 163 0
-41 163 -196 0
-102 129 185 0
-22 97 -194 0
29 -54 135 0
-106 -159 -165 0
77 94 157 0
-69 74 186 0
144 -177 -183 0
-28 -38 -45 0
-73 -86 114 0
-37 -117 -187 0
16 29 190 0
-74 -86 90 0
46 -60 75 0
-18 -69 -95 0
-79 -84 -147 0
-94 101 -174 0
21 57 -83 0
7 -61 165 0
-34 -50 -69 0
74 95 -184 0
-8 -65 -160 0
-68 148 -170 0
-22 24 190 0
117 141 -167 0
42 55 -163 0
-47 -55 -76 0
-56 93 103 0
35 -118 -173 0
-116 -132 -192 0
-86 -149 -193 0
32 -68 135 0
33 -104 -139 0
-37 -95 -135 0
98 -169 -192 0
-101 -128 -182 0
-3 -94 145 0
18 -100 -134 0
-87 -88 -150 0
-74 -142 146 0
-120 161 -197 0
-9 83 -180 0
-11 55 -145 0
-43 -109 168 0
2 13 90 0
-47 -157 165 0
10 49 98 0
-145 162 -188 0
-35 111 131 0
-30 -59 80 0
24 57 -152 0
-9 27 -57 0
153 -188 -191 0
92 -131 -182 0
9 56 184 0
35 -105 -159 0
-13 59 108 0
-8 148 -200 0
39 -116 174 0
60 -103 179 0
-72 93 -96 0
-105 117 162 0
1 -16 -137 0
40 -138 -174 0
38 -134 198 0
-42 -84 124 0
-18 -84 -86 0
-99 154 -194 0
62 -67 -180 0
136 163 -195 0
47 158 -181 0
-62 99 145 0
36 165 -181 0
103 -131 -184 0
74 -193 197 0
44 -92 199 0
30 -141 179 0
50 -90 165 0
-10 51 196 0
27 -106 -165 0
-88 158 185 0
17 -133 194 0
40 129 149 0
5 -14 -45 0
24 113 199 0
38 -135 177 0
48 -134 174 0
12 42 165 0
-33 -67 120 0
7 98 -139 0
-46 -62 140 0
38 -156 -171 0
3 -175 190 0
70 -97 193 0
69 80 -185 0
25 79 -200 0
2 -132 -160 0
51 55 164 0
15 -37 -88 0
70 -103 195 0
80 -109 125 0
-8 41 47 0
-34 64 143 0
-115 165 -197 0
-40 57 -87 0
-47 129 -137 0
38 72 -131 0
-84 158 -174 0
-9 76 -158 0
-10 74 -86 0
94 -100 177 0
-72 -124 -138 0
-9 20 -103 0
-62 -67 73 0
-4 20 187 0
-64 85 -170 0
46 -110 -171 0
30 76 161 0
-90 154 -188 0
-22 -93 199 0
-51 61 185 0
72 -128 -164 0
86 131 141 0
50 -158 164 0
-1 -42 137 0
26 65 -185 0
-48 71 116 0
-17 150 197 0
2 -138 186 0
8 -139 183 0
19 -80 -120 0
141 -146 -200 0
109 163 -184 0
-79 97 -117 0
-104 145 -154 0
170 -177 -179 0
-71 -109 157 0
-63 -69 138 0
13 141 186 0
85 -123 139 0
38 44 98 0
-132 158 191 0
-14 -24 -59 0
-9 -59 -178 0
-30 96 -112 0
47 81 -163 0
25 83 -130 0
31 -167 191 0
67 98 100 0
-14 27 175 0
53 -55 80 0
-22 123 -153 0
165 -190 -199 0
71 -99 117 0
-7 -25 -132 0
-87 -93 -118 0
23 -54 155 0
146 -148 -186 0
-64 74 133 0
-47 -110 -124 0
109 186 -198 0
-25 155 -180 0
11 56 -73 0
-19 85 188 0
113 -145 -151 0
63 86 177 0
10 80 107 0
-142 157 -184 0
-63 169 189 0
60 155 -163 0
5 22 -139 0
-14 -80 -88 0
-26 -115 -123 0
-20 -39 -71 0
2 -7 -120 0
78 -82 200 0
55 85 -142 0
34 -44 -114 0
-77 164 -188 0
-76 127 167 0
-120 154 -169 0
-40 -135 154 0
-22 -112 -155 0
3 150 -195 0
34 -117 136 0
86 117 135 0
10 62 150 0
-62 -82 -165 0
64 -88 -139 0
-148 186 -199 0
18 -131 190 0
33 -54 -128 0
17 -85 110 0
90 -120 -184 0
-34 42 -75 0
125 -132 175 0
49 167 -182 0
26 118 -155 0
-24 33 198 0
26 -175 -180 0
-128 130 184 0
4 -80 -93 0
13 79 -190 0
87 -106 195 0
-38 -82 108 0
-38 130 -196 0
-57 123 -160 0
-62 -152 196 0
-16 -130 183 0
27 -130 171 0
-120 148 176 0
-62 114 117 0
-53 -79 -123 0
15 102 -180 0
-45 -100 -113 0
47 52 -118 0
-56 -73 -113 0
19 -30 54 0
-105 106 -157 0
-132 -161 -163 0
32 101 -151 0
41 -82 -141 0
-116 -127 197 0
129 143 -171 0
41 95 183 0
42 198 -200 0
-60 103 -179 0
107 140 195 0
-24 -104 142 0
34 -36 -37 0
-44 -71 157 0
-27 159 184 0
-4 42 -152 0
101 -167 184 0
129 149 -163 0
30 -112 -118 0
53 135 188 0
5 -10 107 0
88 115 162 0
-36 -45 -124 0
22 36 -181 0
-1 -104 -143 0
84 -151 195 0
4 7 -134 0
-9 101 -118 0
6 -59 -179 0
73 -148 -161 0
-47 130 -189 0
-44 -135 -180 0
-1 10 127 0
59 -94 -177 0
35 -94 95 0
-33 -37 57 0
-37 146 179 0
8 -96 181 0
-41 -131 174 0
-26 29 -72 0
-73 -94 -148 0
80 89 171 0
5 -44 75 0
-99 -116 -135 0
-45 155 -160 0
-16 -116 184 0
2 -102 -141 0
-6 41 -63 0
10 -106 -128 0
-57 -114 -160 0
7 -39 -91 0
-50 -73 -174 0
14 23 -158 0
-49 95 122 0
-46 -105 131 0
63 186 -188 0
43 -135 173 0
-64 -179 -184 0
-36 138 -167 0
-58 -126 -190 0
-106 -127 157 0
-145 -158 169 0
-76 -114 -181 0
12 -52 153 0
-45 93 170 0
-30 49 -90 0
6 20 117 0
-39 79 -93 0
27 146 152 0
-42 89 -151 0
68 -107 123 0
-11 -105 184 0
-24 -31 -173 0
-104 -118 -194 0
-17 86 180 0
-90 113 -164 0
-16 22 -29 0
19 -180 -181 0
83 -158 -165 0
34 -74 -80 0
3 -24 -38 0
-7 -54 -71 0
131 151 -162 0
63 77 161 0
-14 -31 175 0
71 -121 187 0
92 106 189 0
-11 12 39 0
-35 124 -158 0
122 164 -189 0
-60 -69 78 0
124 -172 -177 0
-11 115 144 0
49 138 -146 0
57 -124 174 0
-24 -162 -194 0
-26 109 -191 0
-125 -129 -162 0
64 -122 123 0
18 -19 135 0
-67 -84 -89 0
19 56 156 0
-11 86 152 0
32 64 193 0
64 80 -89 0
-4 -160 167 0
76 115 -191 0
-28 -45 -181 0
-105 108 169 0
14 136 -151 0
52 -123 -128 0
-24 54 -78 0
-14 28 -30 0
23 -129 -177 0
11 -39 -154 0
6 34 169 0
28 -87 97 0
-35 88 103 0
36 -63 163 0
-46 -101 193 0
-48 -53 163 0
29 -52 168 0
4 -64 181 0
-7 52 144 0
3 -37 -40 0
6 50 -83 0
-29 56 -122 0
34 -121 -171 0
70 77 91 0
4 145 176 0
82 88 162 0
-47 -162 169 0
73 141 -153 0
5 79 198 0
26 -54 183 0
35 -48 -103 0
35 36 81 0
-62 -96 -170 0
-92 97 181 0
42 -157 170 0
-8 130 -169 0
-30 68 -87 0
-30 63 -81 0
10 56 -110 0
94 165 -180 0
36 -79 -90 0
34 -73 194 0
-23 -105 132 0
52 81 192 0
-25 61 87 0
-52 -160 181 0
28 125 177 0
-103 -124 -196 0
-14 -92 180 0
-3 -4 -149 0
1 108 -136 0
2 -78 82 0
27 -139 180 0
-154 170 -182 0
-1 -65 114 0
78 -126 -157 0
-14 -43 -121 0
-95 -130 -158 0
58 157 197 0
128 -183 196 0
-42 -82 -178 0
13 -45 -183 0
33 79 -113 0
-1 123 -164 0
76 -99 -178 0
1 78 -102 0
-67 129 -177 0
20 143 174 0
10 102 154 0
27 -145 -146 0
43 73 150 0
-92 -103 -167 0
117 157 168 0
-72 -128 180 0
126 141 143 0
59 -177 185 0
-11 -103 187 0
-87 93 186 0
30 -107 -167 0
-97 128 -131 0
-27 -105 -121 0
28 -81 190 0
-41 115 181 0
-67 -89 185 0
-5 59 189 0
-21 -74 135 0
-152 160 191 0
-44 -119 -184 0
2 110 -156 0
113 -179 187 0
-22 -156 178 0
50 -169 182 0
75 106 -194 0
2 19 80 0
-14 58 -121 0
93 122 134 0
-77 -88 107 0
-52 104 179 0
68 -99 178 0
133 144 150 0
-40 76 115 0
-38 -153 184 0
-61 -128 187 0
-121 -129 149 0
47 79 84 0
25 63 -173 0
18 100 164 0
1 -60 191 0
7 -117 -124 0
-25 -148 -156 0
75 79 163 0
24 -56 -153 0
-143 -163 172 0
-43 -96 -186 0
154 177 193 0
5 33 -174 0
72 -81 -82 0
10 152 176 0
-32 69 192 0
23 189 192 0
-67 70 -176 0
-66 112 127 0
-72 -140 -154 0
23 -153 -193 0
23 39 -103 0
65 -123 -192 0
60 -119 -200 0
-123 -136 180 0
-10 -17 91 0
49 89 144 0
53 84 -110 0
-35 -116 134 0
-78 115 -152 0
-21 -70 100 0
26 30 -97 0
-62 120 -186 0
81 -165 -186 0
24 -76 197 0
47 -65 191 0
-35 -91 121 0
92 -147 181 0
-21 -105 -189 0
-37 46 49 0
-92 116 -167 0
7 -33 148 0
12 61 -76 0
32 -148 -185 0
-48 111 -123 0
-62 158 -193 0
-47 63 152 0
67 -146 195 0
37 49 -132 0
8 161 -167 0
25 92 179 0
-56 -122 -134 0
75 -90 116 0
151 -163 165 0
4 92 154 0
22 -47 197 0
50 -142 -154 0
116 -153 158 0
-137 141 200 0
28 34 -58 0
-2 -73 167 0
-10 -21 99 0
2 105 -183 0
18 29 -137 0
49 -88 -121 0
102 -148 191 0
-28 43 145 0
44 107 152 0
-73 112 -142 0
19 -53 -183 0
-26 -35 117 0
43 74 -123 0
13 -156 173 0
91 -101 -128 0
12 86 136 0
70 123 194 0
-42 -116 167 0
-5 20 -123 0
-40 75 82 0
-61 119 -176 0
45 75 196 0
64 -134 159 0
2 58 -66 0
26 -94 -194 0
70 81 82 0
-70 -129 157 0
-115 -116 141 0
-46 117 176 0
46 -55 -127 0
-110 163 -192 0
16 30 57 0
88 -141 -143 0
-4 -91 164 0
-26 103 -152 0
72 136 143 0
63 72 134 0
17 -45 140 0
86 -87 -137 0
-31 -152 193 0
79 -101 125 0
75 -123 -136 0
89 90 117 0
23 -34 138 0
-46 67 -123 0
-2 -32 179 0
-55 -131 -181 0
51 -105 168 0
117 139 188 0
-111 175 176 0
27 129 -187 0
-56 88 -162 0
-64 -123 -152 0
-12 77 -181 0
-82 94 -176 0
-88 140 -187 0
40 -42 -180 0
-40 56 -72 0
91 103 195 0
-5 -190 195 0
14 -91 -163 0
-63 72 -182 0
24 66 134 0
100 -142 169 0
28 41 88 0
51 66 166 0
-24 55 97 0
28 122 -158 0
123 -138 161 0
-9 44 70 0
12 25 -123 0
-14 -49 -200 0
-4 104 -182 0
-4 26 140 0
-13 -154 190 0
124 -127 188 0
43 -84 141 0
27 -72 94 0
27 80 -172 0
58 93 160 0
-131 -137 164 0
77 114 -176 0
2 -140 -171 0
-47 -60 -153 0
55 110 114 0
2 85 122 0
31 61 -172 0
64 -87 168 0
-67 -101 -167 0
115 -131 173 0
-24 56 -141 0
57 93 107 0
20 -81 156 0
51 74 192 0
-58 -165 184 0
69 -82 -173 0
54 -170 189 0
2 -4 -74 0
21 77 -149 0
120 153 -183 0
94 -182 199 0
19 128 191 0
-1 -10 -78 0
-24 99 115 0
-100 107 139 0
23 -140 -192 0
-30 85 -170 0
31 69 158 0
-105 125 134 0
28 31 -112 0
-38 -85 -149 0
37 -115 190 0
-65 -176 191 0
24 -35 87 0
15 17 -25 0
-9 -74 133 0
-79 -181 -182 0
25 29 66 0
-25 27 -193 0
80 -110 124 0
-49 111 173 0
-78 102 -167 0
-47 53 66 0
28 113 -156 0
-12 34 131 0
44 -100 128 0
42 -57 -133 0
-16 -34 -38 0
73 -150 -177 0
-28 -54 169 0
11 -44 119 0
10 17 -18 0
51 54 150 0
-58 -139 194 0
-5 -7 172 0
-22 125 -182 0
28 181 -194 0
27 -153 -155 0
127 184 -190 0
84 -163 -176 0
26 -91 144 0
-83 93 153 0
-20 115 -138 0
68 157 171 0
-18 -133 155 0
-55 85 187 0
44 -45 -63 0
17 79 97 0
41 120 133 0
66 -122 177 0
-6 -9 161 0
-21 -65 123 0
-18 108 -196 0
1 -130 -178 0
88 -152 -190 0
70 174 -185 0
-42 48 -85 0
-54 -177 -183 0
16 53 -55 0
-1 30 55 0
141 -162 192 0
-9 -40 91 0
50 -70 -144 0
-19 41 196 0
41 -113 125 0
13 -42 -108 0
58 -67 -112 0
-45 -76 182 0
52 74 -137 0
-44 -96 138 0
8 12 19 0
-80 180 185 0
-144 -145 198 0
19 -151 200 0
-96 -132 158 0
1 -134 135 0
23 44 52 0
36 -79 139 0
-99 -101 182 0
63 -92 169 0
-17 91 -152 0
-77 112 194 0
7 36 -149 0
12 -122 -166 0
-141 -152 173 0
-95 -103 -134 0
-24 -167 197 0
62 -107 127 0
-55 -162 177 0
-34 186 198 0
48 -54 -68 0
-70 114 138 0
-96 131 -146 0
-95 120 -130 0
-38 -64 -148 0
116 150 -193 0
70 75 -123 0
94 -108 -161 0
28 -68 -103 0
79 126 -130 0
-20 -141 -176 0
-61 -63 -197 0
-93 130 166 0
-96 -146 -166 0
-70 86 152 0
40 -66 77 0
21 -56 -169 0
9 54 92 0
35 -121 138 0
66 68 -138 0
84 102 -141 0
-64 115 199 0
105 -129 159 0
5 20 -51 0
71 -72 122 0
-24 -30 -65 0
-51 94 -142 0
-101 -108 -111 0
-142 177 -194 0
10 -97 -155 0
15 95 122 0
88 -152 -182 0
51 -161 -174 0
103 -140 -151 0
47 77 -165 0
67 107 -134 0
-9 -27 -76 0
-33 64 -157 0
36 98 181 0
-12 88 -106 0
34 -150 -185 0
-53 122 131 0
-100 110 179 0
90 -162 -164 0
-176 -185 194 0
22 -95 118 0
10 76 -106 0
-17 -141 -152 0
94 127 -168 0
27 41 179 0
-78 105 194 0
-88 188 -195 0
80 92 -137 0
43 -82 -151 0
73 147 180 0
78 -94 -134 0
-99 -109 137 0
-2 -11 -150 0
12 81 200 0
16 -51 -72 0
-35 -123 -186 0
57 128 -148 0
-28 -30 62 0
-125 162 194 0
13 57 -195 0
-109 137 -142 0
-48 57 80 0
-115 150 -186 0
86 147 158 0
92 148 -168 0
22 58 170 0
22 35 -161 0
43 95 195 0
-44 53 -62 0
20 114 149 0
-68 -126 -196 0
-28 46 50 0
-22 102 -148 0
-37 113 -137 0
83 133 -178 0
7 37 -150 0
-2 -123 165 0
92 -127 -137 0
-15 -62 -138 0
-44 -63 -134 0
-34 87 -158 0
-99 104 110 0
-5 21 143 0
-28 -46 -182 0
-9 -35 -182 0
20 -27 64 0
-39 112 117 0
-16 -18 -147 0
43 -64 75 0
-147 -168 -169 0
-8 -170 171 0
46 -98 -104 0
-65 67 -142 0
-10 -11 -44 0
-132 -146 -192 0
-8 131 156 0
-19 -158 -161 0
55 90 -185 0
-39 -85 -118 0
-82 -88 179 0
-25 81 132 0
29 -58 -119 0
-19 -68 -200 0
72 -127 -149 0
34 64 130 0
-30 -74 -112 0
-11 -107 124 0
97 99 108 0
-106 171 187 0
-69 -86 -122 0
-63 -83 -161 0
-21 -69 104 0
35 -76 138 0
55 -123 187 0
55 -73 86 0
5 -18 -75 0
-29 155 174 0
64 69 76 0
-85 -117 -184 0
15 114 -154 0
-36 146 -183 0
-39 -133 -190 0
65 -122 188 0
-32 -79 189 0
-3 -38 100 0
-12 -126 -180 0
-3 -11 -20 0
90 -99 120 0
-41 48 101 0
-37 -73 191 0
27 38 177 0
-123 -141 170 0
5 -148 -159 0
2 -71 -180 0
-72 100 180 0
-141 176 196 0
-54 55 110 0
99 124 -139 0
-89 -116 153 0
13 60 -74 0
36 64 111 0
-43 123 -181 0
147 158 172 0
94 107 124 0
-50 -123 -148 0
26 -66 149 0
1 112 -134 0
-21 -91 192 0
4 52 140 0
-22 -29 -160 0
24 43 144 0
-42 -49 73 0
-13 -53 100 0
55 115 -167 0
-114 -123 192 0
42 115 -188 0
5 -21 145 0
-24 -77 158 0
-1 17 -22 0
-137 -155 -158 0
54 -125 131 0
128 -141 145 0
-58 -64 -155 0
-73 -74 -100 0
53 -155 -195 0
-86 -174 -184 0
53 122 -175 0
-3 53 -121 0
4 37 -53 0
-3 -48 173 0
-38 -39 82 0
-22 -88 -104 0
-23 99 -137 0
-93 -126 -141 0
-26 90 -149 0
21 87 198 0
-60 -132 139 0
-44 97 -106 0
139 142 -148 0
-14 87 -89 0
29 -89 -191 0
-18 31 -154 0
-60 73 -142 0
60 -73 134 0
34 -48 -158 0
-77 -90 91 0
57 -76 107 0
24 101 178 0
-57 -70 143 0
35 124 -166 0
-8 -190 -198 0
-47 74 -146 0
-105 -154 -198 0
-60 -84 -197 0
89 -194 -199 0
8 -83 -171 0
-42 -62 110 0
-18 -40 -47 0
-4 63 -175 0
115 -140 155 0
-59 161 163 0
7 66 71 0
5 180 193 0
-140 151 177 0
19 -33 -113 0
61 136 -141 0
52 90 167 0
1 -91 190 0
17 -64 -200 0
10 79 121 0
-30 113 161 0
-62 -85 -121 0
106 166 190 0
