c generated_for formulae_like_variant benchmark
c dataset formulae_like_02
c variant 2
c seed_base 20280601
c family xor_parity
c expected_status UNSAT
c notes large sparse contradictory parity system
p cnf 320 1800
47 80 102 0
47 -80 -102 0
-47 80 -102 0
-47 -80 102 0
47 80 -102 0
47 -80 102 0
-47 80 102 0
-47 -80 -102 0
73 111 272 0
73 -111 -272 0
-73 111 -272 0
-73 -111 272 0
17 63 319 0
17 -63 -319 0
-17 63 -319 0
-17 -63 319 0
39 203 285 0
39 -203 -285 0
-39 203 -285 0
-39 -203 285 0
28 159 282 0
28 -159 -282 0
-28 159 -282 0
-28 -159 282 0
41 106 -296 0
41 -106 296 0
-41 106 296 0
-41 -106 -296 0
98 101 -219 0
98 -101 219 0
-98 101 219 0
-98 -101 -219 0
63 242 286 0
63 -242 -286 0
-63 242 -286 0
-63 -242 286 0
35 76 98 0
35 -76 -98 0
-35 76 -98 0
-35 -76 98 0
13 38 -281 0
13 -38 281 0
-13 38 281 0
-13 -38 -281 0
134 150 -191 0
134 -150 191 0
-134 150 191 0
-134 -150 -191 0
39 232 -308 0
39 -232 308 0
-39 232 308 0
-39 -232 -308 0
193 295 -302 0
193 -295 302 0
-193 295 302 0
-193 -295 -302 0
215 258 -308 0
215 -258 308 0
-215 258 308 0
-215 -258 -308 0
169 251 288 0
169 -251 -288 0
-169 251 -288 0
-169 -251 288 0
85 117 193 0
85 -117 -193 0
-85 117 -193 0
-85 -117 193 0
179 180 -218 0
179 -180 218 0
-179 180 218 0
-179 -180 -218 0
2 293 -294 0
2 -293 294 0
-2 293 294 0
-2 -293 -294 0
63 143 304 0
63 -143 -304 0
-63 143 -304 0
-63 -143 304 0
67 152 280 0
67 -152 -280 0
-67 152 -280 0
-67 -152 280 0
120 224 251 0
120 -224 -251 0
-120 224 -251 0
-120 -224 251 0
195 290 -307 0
195 -290 307 0
-195 290 307 0
-195 -290 -307 0
124 205 311 0
124 -205 -311 0
-124 205 -311 0
-124 -205 311 0
120 230 302 0
120 -230 -302 0
-120 230 -302 0
-120 -230 302 0
115 161 -277 0
115 -161 277 0
-115 161 277 0
-115 -161 -277 0
95 110 127 0
95 -110 -127 0
-95 110 -127 0
-95 -110 127 0
43 169 209 0
43 -169 -209 0
-43 169 -209 0
-43 -169 209 0
32 167 -317 0
32 -167 317 0
-32 167 317 0
-32 -167 -317 0
120 173 -249 0
120 -173 249 0
-120 173 249 0
-120 -173 -249 0
22 212 -281 0
22 -212 281 0
-22 212 281 0
-22 -212 -281 0
118 184 288 0
118 -184 -288 0
-118 184 -288 0
-118 -184 288 0
42 237 -266 0
42 -237 266 0
-42 237 266 0
-42 -237 -266 0
17 34 -304 0
17 -34 304 0
-17 34 304 0
-17 -34 -304 0
244 257 280 0
244 -257 -280 0
-244 257 -280 0
-244 -257 280 0
17 212 265 0
17 -212 -265 0
-17 212 -265 0
-17 -212 265 0
183 211 248 0
183 -211 -248 0
-183 211 -248 0
-183 -211 248 0
40 59 288 0
40 -59 -288 0
-40 59 -288 0
-40 -59 288 0
35 115 -278 0
35 -115 278 0
-35 115 278 0
-35 -115 -278 0
26 59 201 0
26 -59 -201 0
-26 59 -201 0
-26 -59 201 0
44 126 231 0
44 -126 -231 0
-44 126 -231 0
-44 -126 231 0
200 213 242 0
200 -213 -242 0
-200 213 -242 0
-200 -213 242 0
18 42 173 0
18 -42 -173 0
-18 42 -173 0
-18 -42 173 0
41 123 319 0
41 -123 -319 0
-41 123 -319 0
-41 -123 319 0
141 189 270 0
141 -189 -270 0
-141 189 -270 0
-141 -189 270 0
17 309 320 0
17 -309 -320 0
-17 309 -320 0
-17 -309 320 0
12 233 241 0
12 -233 -241 0
-12 233 -241 0
-12 -233 241 0
43 156 -246 0
43 -156 246 0
-43 156 246 0
-43 -156 -246 0
121 150 160 0
121 -150 -160 0
-121 150 -160 0
-121 -150 160 0
82 129 176 0
82 -129 -176 0
-82 129 -176 0
-82 -129 176 0
75 133 159 0
75 -133 -159 0
-75 133 -159 0
-75 -133 159 0
101 128 173 0
101 -128 -173 0
-101 128 -173 0
-101 -128 173 0
133 211 -222 0
133 -211 222 0
-133 211 222 0
-133 -211 -222 0
69 265 -314 0
69 -265 314 0
-69 265 314 0
-69 -265 -314 0
74 125 -232 0
74 -125 232 0
-74 125 232 0
-74 -125 -232 0
127 206 217 0
127 -206 -217 0
-127 206 -217 0
-127 -206 217 0
33 39 -80 0
33 -39 80 0
-33 39 80 0
-33 -39 -80 0
86 129 214 0
86 -129 -214 0
-86 129 -214 0
-86 -129 214 0
9 53 -123 0
9 -53 123 0
-9 53 123 0
-9 -53 -123 0
135 159 -174 0
135 -159 174 0
-135 159 174 0
-135 -159 -174 0
58 161 298 0
58 -161 -298 0
-58 161 -298 0
-58 -161 298 0
5 33 -148 0
5 -33 148 0
-5 33 148 0
-5 -33 -148 0
81 151 305 0
81 -151 -305 0
-81 151 -305 0
-81 -151 305 0
7 20 -225 0
7 -20 225 0
-7 20 225 0
-7 -20 -225 0
40 201 238 0
40 -201 -238 0
-40 201 -238 0
-40 -201 238 0
185 265 -284 0
185 -265 284 0
-185 265 284 0
-185 -265 -284 0
84 90 169 0
84 -90 -169 0
-84 90 -169 0
-84 -90 169 0
47 114 315 0
47 -114 -315 0
-47 114 -315 0
-47 -114 315 0
67 91 308 0
67 -91 -308 0
-67 91 -308 0
-67 -91 308 0
36 87 251 0
36 -87 -251 0
-36 87 -251 0
-36 -87 251 0
3 68 -135 0
3 -68 135 0
-3 68 135 0
-3 -68 -135 0
116 183 211 0
116 -183 -211 0
-116 183 -211 0
-116 -183 211 0
89 176 -194 0
89 -176 194 0
-89 176 194 0
-89 -176 -194 0
111 258 -268 0
111 -258 268 0
-111 258 268 0
-111 -258 -268 0
27 91 285 0
27 -91 -285 0
-27 91 -285 0
-27 -91 285 0
99 234 -273 0
99 -234 273 0
-99 234 273 0
-99 -234 -273 0
126 232 236 0
126 -232 -236 0
-126 232 -236 0
-126 -232 236 0
205 240 289 0
205 -240 -289 0
-205 240 -289 0
-205 -240 289 0
49 52 -215 0
49 -52 215 0
-49 52 215 0
-49 -52 -215 0
66 75 90 0
66 -75 -90 0
-66 75 -90 0
-66 -75 90 0
9 46 51 0
9 -46 -51 0
-9 46 -51 0
-9 -46 51 0
170 209 268 0
170 -209 -268 0
-170 209 -268 0
-170 -209 268 0
62 238 257 0
62 -238 -257 0
-62 238 -257 0
-62 -238 257 0
92 190 -215 0
92 -190 215 0
-92 190 215 0
-92 -190 -215 0
106 235 -273 0
106 -235 273 0
-106 235 273 0
-106 -235 -273 0
67 105 238 0
67 -105 -238 0
-67 105 -238 0
-67 -105 238 0
23 31 -190 0
23 -31 190 0
-23 31 190 0
-23 -31 -190 0
79 100 245 0
79 -100 -245 0
-79 100 -245 0
-79 -100 245 0
91 99 125 0
91 -99 -125 0
-91 99 -125 0
-91 -99 125 0
33 221 291 0
33 -221 -291 0
-33 221 -291 0
-33 -221 291 0
12 119 185 0
12 -119 -185 0
-12 119 -185 0
-12 -119 185 0
26 169 -307 0
26 -169 307 0
-26 169 307 0
-26 -169 -307 0
192 265 -306 0
192 -265 306 0
-192 265 306 0
-192 -265 -306 0
44 79 285 0
44 -79 -285 0
-44 79 -285 0
-44 -79 285 0
5 12 207 0
5 -12 -207 0
-5 12 -207 0
-5 -12 207 0
91 107 -247 0
91 -107 247 0
-91 107 247 0
-91 -107 -247 0
40 69 161 0
40 -69 -161 0
-40 69 -161 0
-40 -69 161 0
28 71 -83 0
28 -71 83 0
-28 71 83 0
-28 -71 -83 0
40 171 247 0
40 -171 -247 0
-40 171 -247 0
-40 -171 247 0
53 104 249 0
53 -104 -249 0
-53 104 -249 0
-53 -104 249 0
151 234 262 0
151 -234 -262 0
-151 234 -262 0
-151 -234 262 0
31 44 -129 0
31 -44 129 0
-31 44 129 0
-31 -44 -129 0
66 162 307 0
66 -162 -307 0
-66 162 -307 0
-66 -162 307 0
3 117 -196 0
3 -117 196 0
-3 117 196 0
-3 -117 -196 0
111 228 312 0
111 -228 -312 0
-111 228 -312 0
-111 -228 312 0
52 262 264 0
52 -262 -264 0
-52 262 -264 0
-52 -262 264 0
72 114 317 0
72 -114 -317 0
-72 114 -317 0
-72 -114 317 0
91 245 252 0
91 -245 -252 0
-91 245 -252 0
-91 -245 252 0
112 263 -271 0
112 -263 271 0
-112 263 271 0
-112 -263 -271 0
4 78 -250 0
4 -78 250 0
-4 78 250 0
-4 -78 -250 0
128 166 211 0
128 -166 -211 0
-128 166 -211 0
-128 -166 211 0
208 237 -297 0
208 -237 297 0
-208 237 297 0
-208 -237 -297 0
24 243 -296 0
24 -243 296 0
-24 243 296 0
-24 -243 -296 0
101 107 -226 0
101 -107 226 0
-101 107 226 0
-101 -107 -226 0
172 199 -307 0
172 -199 307 0
-172 199 307 0
-172 -199 -307 0
126 217 -265 0
126 -217 265 0
-126 217 265 0
-126 -217 -265 0
162 180 -271 0
162 -180 271 0
-162 180 271 0
-162 -180 -271 0
12 173 -285 0
12 -173 285 0
-12 173 285 0
-12 -173 -285 0
164 292 308 0
164 -292 -308 0
-164 292 -308 0
-164 -292 308 0
43 57 -238 0
43 -57 238 0
-43 57 238 0
-43 -57 -238 0
83 248 291 0
83 -248 -291 0
-83 248 -291 0
-83 -248 291 0
64 152 -296 0
64 -152 296 0
-64 152 296 0
-64 -152 -296 0
89 161 249 0
89 -161 -249 0
-89 161 -249 0
-89 -161 249 0
35 111 -206 0
35 -111 206 0
-35 111 206 0
-35 -111 -206 0
113 114 172 0
113 -114 -172 0
-113 114 -172 0
-113 -114 172 0
66 153 -270 0
66 -153 270 0
-66 153 270 0
-66 -153 -270 0
7 154 -155 0
7 -154 155 0
-7 154 155 0
-7 -154 -155 0
57 172 -230 0
57 -172 230 0
-57 172 230 0
-57 -172 -230 0
36 108 -279 0
36 -108 279 0
-36 108 279 0
-36 -108 -279 0
70 154 189 0
70 -154 -189 0
-70 154 -189 0
-70 -154 189 0
116 123 124 0
116 -123 -124 0
-116 123 -124 0
-116 -123 124 0
72 115 -160 0
72 -115 160 0
-72 115 160 0
-72 -115 -160 0
61 81 -193 0
61 -81 193 0
-61 81 193 0
-61 -81 -193 0
108 164 -167 0
108 -164 167 0
-108 164 167 0
-108 -164 -167 0
16 48 68 0
16 -48 -68 0
-16 48 -68 0
-16 -48 68 0
61 153 -167 0
61 -153 167 0
-61 153 167 0
-61 -153 -167 0
4 13 -31 0
4 -13 31 0
-4 13 31 0
-4 -13 -31 0
104 167 -266 0
104 -167 266 0
-104 167 266 0
-104 -167 -266 0
117 204 -285 0
117 -204 285 0
-117 204 285 0
-117 -204 -285 0
174 218 -320 0
174 -218 320 0
-174 218 320 0
-174 -218 -320 0
113 246 -281 0
113 -246 281 0
-113 246 281 0
-113 -246 -281 0
60 178 224 0
60 -178 -224 0
-60 178 -224 0
-60 -178 224 0
9 194 238 0
9 -194 -238 0
-9 194 -238 0
-9 -194 238 0
139 291 304 0
139 -291 -304 0
-139 291 -304 0
-139 -291 304 0
74 153 209 0
74 -153 -209 0
-74 153 -209 0
-74 -153 209 0
40 99 225 0
40 -99 -225 0
-40 99 -225 0
-40 -99 225 0
30 202 -303 0
30 -202 303 0
-30 202 303 0
-30 -202 -303 0
10 76 149 0
10 -76 -149 0
-10 76 -149 0
-10 -76 149 0
53 102 222 0
53 -102 -222 0
-53 102 -222 0
-53 -102 222 0
18 161 186 0
18 -161 -186 0
-18 161 -186 0
-18 -161 186 0
65 131 158 0
65 -131 -158 0
-65 131 -158 0
-65 -131 158 0
177 192 -210 0
177 -192 210 0
-177 192 210 0
-177 -192 -210 0
31 59 -218 0
31 -59 218 0
-31 59 218 0
-31 -59 -218 0
31 157 279 0
31 -157 -279 0
-31 157 -279 0
-31 -157 279 0
100 226 250 0
100 -226 -250 0
-100 226 -250 0
-100 -226 250 0
18 38 -237 0
18 -38 237 0
-18 38 237 0
-18 -38 -237 0
29 42 279 0
29 -42 -279 0
-29 42 -279 0
-29 -42 279 0
7 84 127 0
7 -84 -127 0
-7 84 -127 0
-7 -84 127 0
119 284 314 0
119 -284 -314 0
-119 284 -314 0
-119 -284 314 0
9 56 173 0
9 -56 -173 0
-9 56 -173 0
-9 -56 173 0
111 115 217 0
111 -115 -217 0
-111 115 -217 0
-111 -115 217 0
55 69 -102 0
55 -69 102 0
-55 69 102 0
-55 -69 -102 0
54 125 147 0
54 -125 -147 0
-54 125 -147 0
-54 -125 147 0
175 207 242 0
175 -207 -242 0
-175 207 -242 0
-175 -207 242 0
46 48 161 0
46 -48 -161 0
-46 48 -161 0
-46 -48 161 0
38 292 320 0
38 -292 -320 0
-38 292 -320 0
-38 -292 320 0
145 200 278 0
145 -200 -278 0
-145 200 -278 0
-145 -200 278 0
11 147 -165 0
11 -147 165 0
-11 147 165 0
-11 -147 -165 0
16 69 -170 0
16 -69 170 0
-16 69 170 0
-16 -69 -170 0
2 36 -296 0
2 -36 296 0
-2 36 296 0
-2 -36 -296 0
36 136 291 0
36 -136 -291 0
-36 136 -291 0
-36 -136 291 0
76 236 -304 0
76 -236 304 0
-76 236 304 0
-76 -236 -304 0
24 93 202 0
24 -93 -202 0
-24 93 -202 0
-24 -93 202 0
2 306 -317 0
2 -306 317 0
-2 306 317 0
-2 -306 -317 0
158 168 -271 0
158 -168 271 0
-158 168 271 0
-158 -168 -271 0
97 122 168 0
97 -122 -168 0
-97 122 -168 0
-97 -122 168 0
147 154 215 0
147 -154 -215 0
-147 154 -215 0
-147 -154 215 0
138 222 -308 0
138 -222 308 0
-138 222 308 0
-138 -222 -308 0
152 199 -248 0
152 -199 248 0
-152 199 248 0
-152 -199 -248 0
180 219 -283 0
180 -219 283 0
-180 219 283 0
-180 -219 -283 0
19 228 298 0
19 -228 -298 0
-19 228 -298 0
-19 -228 298 0
22 30 -283 0
22 -30 283 0
-22 30 283 0
-22 -30 -283 0
3 215 277 0
3 -215 -277 0
-3 215 -277 0
-3 -215 277 0
25 79 -224 0
25 -79 224 0
-25 79 224 0
-25 -79 -224 0
35 232 274 0
35 -232 -274 0
-35 232 -274 0
-35 -232 274 0
172 265 291 0
172 -265 -291 0
-172 265 -291 0
-172 -265 291 0
107 173 260 0
107 -173 -260 0
-107 173 -260 0
-107 -173 260 0
82 91 -296 0
82 -91 296 0
-82 91 296 0
-82 -91 -296 0
14 256 -265 0
14 -256 265 0
-14 256 265 0
-14 -256 -265 0
95 192 205 0
95 -192 -205 0
-95 192 -205 0
-95 -192 205 0
7 60 234 0
7 -60 -234 0
-7 60 -234 0
-7 -60 234 0
26 39 193 0
26 -39 -193 0
-26 39 -193 0
-26 -39 193 0
1 129 299 0
1 -129 -299 0
-1 129 -299 0
-1 -129 299 0
116 215 -273 0
116 -215 273 0
-116 215 273 0
-116 -215 -273 0
47 257 274 0
47 -257 -274 0
-47 257 -274 0
-47 -257 274 0
127 222 283 0
127 -222 -283 0
-127 222 -283 0
-127 -222 283 0
30 208 -314 0
30 -208 314 0
-30 208 314 0
-30 -208 -314 0
218 234 -250 0
218 -234 250 0
-218 234 250 0
-218 -234 -250 0
11 98 238 0
11 -98 -238 0
-11 98 -238 0
-11 -98 238 0
94 225 -287 0
94 -225 287 0
-94 225 287 0
-94 -225 -287 0
157 188 -237 0
157 -188 237 0
-157 188 237 0
-157 -188 -237 0
80 179 260 0
80 -179 -260 0
-80 179 -260 0
-80 -179 260 0
137 188 -214 0
137 -188 214 0
-137 188 214 0
-137 -188 -214 0
139 299 319 0
139 -299 -319 0
-139 299 -319 0
-139 -299 319 0
2 102 151 0
2 -102 -151 0
-2 102 -151 0
-2 -102 151 0
93 138 297 0
93 -138 -297 0
-93 138 -297 0
-93 -138 297 0
33 81 -302 0
33 -81 302 0
-33 81 302 0
-33 -81 -302 0
44 166 -179 0
44 -166 179 0
-44 166 179 0
-44 -166 -179 0
136 297 304 0
136 -297 -304 0
-136 297 -304 0
-136 -297 304 0
242 255 272 0
242 -255 -272 0
-242 255 -272 0
-242 -255 272 0
185 286 289 0
185 -286 -289 0
-185 286 -289 0
-185 -286 289 0
128 138 -165 0
128 -138 165 0
-128 138 165 0
-128 -138 -165 0
4 24 85 0
4 -24 -85 0
-4 24 -85 0
-4 -24 85 0
47 58 236 0
47 -58 -236 0
-47 58 -236 0
-47 -58 236 0
27 94 99 0
27 -94 -99 0
-27 94 -99 0
-27 -94 99 0
83 117 -177 0
83 -117 177 0
-83 117 177 0
-83 -117 -177 0
47 129 195 0
47 -129 -195 0
-47 129 -195 0
-47 -129 195 0
195 211 307 0
195 -211 -307 0
-195 211 -307 0
-195 -211 307 0
67 129 -268 0
67 -129 268 0
-67 129 268 0
-67 -129 -268 0
99 180 301 0
99 -180 -301 0
-99 180 -301 0
-99 -180 301 0
21 151 -267 0
21 -151 267 0
-21 151 267 0
-21 -151 -267 0
28 86 -209 0
28 -86 209 0
-28 86 209 0
-28 -86 -209 0
230 249 279 0
230 -249 -279 0
-230 249 -279 0
-230 -249 279 0
87 107 174 0
87 -107 -174 0
-87 107 -174 0
-87 -107 174 0
35 136 -247 0
35 -136 247 0
-35 136 247 0
-35 -136 -247 0
2 42 -104 0
2 -42 104 0
-2 42 104 0
-2 -42 -104 0
195 240 -255 0
195 -240 255 0
-195 240 255 0
-195 -240 -255 0
69 172 -198 0
69 -172 198 0
-69 172 198 0
-69 -172 -198 0
96 188 197 0
96 -188 -197 0
-96 188 -197 0
-96 -188 197 0
39 49 169 0
39 -49 -169 0
-39 49 -169 0
-39 -49 169 0
39 157 -227 0
39 -157 227 0
-39 157 227 0
-39 -157 -227 0
91 241 259 0
91 -241 -259 0
-91 241 -259 0
-91 -241 259 0
20 23 266 0
20 -23 -266 0
-20 23 -266 0
-20 -23 266 0
95 180 197 0
95 -180 -197 0
-95 180 -197 0
-95 -180 197 0
134 164 -173 0
134 -164 173 0
-134 164 173 0
-134 -164 -173 0
18 29 204 0
18 -29 -204 0
-18 29 -204 0
-18 -29 204 0
123 175 212 0
123 -175 -212 0
-123 175 -212 0
-123 -175 212 0
6 140 -181 0
6 -140 181 0
-6 140 181 0
-6 -140 -181 0
173 252 -294 0
173 -252 294 0
-173 252 294 0
-173 -252 -294 0
50 61 -190 0
50 -61 190 0
-50 61 190 0
-50 -61 -190 0
215 292 -297 0
215 -292 297 0
-215 292 297 0
-215 -292 -297 0
29 182 -243 0
29 -182 243 0
-29 182 243 0
-29 -182 -243 0
7 74 94 0
7 -74 -94 0
-7 74 -94 0
-7 -74 94 0
91 171 -187 0
91 -171 187 0
-91 171 187 0
-91 -171 -187 0
6 93 105 0
6 -93 -105 0
-6 93 -105 0
-6 -93 105 0
163 167 199 0
163 -167 -199 0
-163 167 -199 0
-163 -167 199 0
64 183 -301 0
64 -183 301 0
-64 183 301 0
-64 -183 -301 0
8 221 300 0
8 -221 -300 0
-8 221 -300 0
-8 -221 300 0
171 302 -309 0
171 -302 309 0
-171 302 309 0
-171 -302 -309 0
212 230 306 0
212 -230 -306 0
-212 230 -306 0
-212 -230 306 0
105 150 199 0
105 -150 -199 0
-105 150 -199 0
-105 -150 199 0
36 112 299 0
36 -112 -299 0
-36 112 -299 0
-36 -112 299 0
42 238 -302 0
42 -238 302 0
-42 238 302 0
-42 -238 -302 0
2 136 194 0
2 -136 -194 0
-2 136 -194 0
-2 -136 194 0
153 162 167 0
153 -162 -167 0
-153 162 -167 0
-153 -162 167 0
53 257 -267 0
53 -257 267 0
-53 257 267 0
-53 -257 -267 0
55 170 -250 0
55 -170 250 0
-55 170 250 0
-55 -170 -250 0
78 161 224 0
78 -161 -224 0
-78 161 -224 0
-78 -161 224 0
58 114 -200 0
58 -114 200 0
-58 114 200 0
-58 -114 -200 0
81 185 -294 0
81 -185 294 0
-81 185 294 0
-81 -185 -294 0
60 98 -240 0
60 -98 240 0
-60 98 240 0
-60 -98 -240 0
68 165 -269 0
68 -165 269 0
-68 165 269 0
-68 -165 -269 0
90 106 -320 0
90 -106 320 0
-90 106 320 0
-90 -106 -320 0
61 64 201 0
61 -64 -201 0
-61 64 -201 0
-61 -64 201 0
52 112 -275 0
52 -112 275 0
-52 112 275 0
-52 -112 -275 0
87 203 -310 0
87 -203 310 0
-87 203 310 0
-87 -203 -310 0
159 168 182 0
159 -168 -182 0
-159 168 -182 0
-159 -168 182 0
39 118 -127 0
39 -118 127 0
-39 118 127 0
-39 -118 -127 0
18 19 -49 0
18 -19 49 0
-18 19 49 0
-18 -19 -49 0
102 137 292 0
102 -137 -292 0
-102 137 -292 0
-102 -137 292 0
134 135 -170 0
134 -135 170 0
-134 135 170 0
-134 -135 -170 0
5 22 224 0
5 -22 -224 0
-5 22 -224 0
-5 -22 224 0
3 131 297 0
3 -131 -297 0
-3 131 -297 0
-3 -131 297 0
133 174 -239 0
133 -174 239 0
-133 174 239 0
-133 -174 -239 0
140 173 215 0
140 -173 -215 0
-140 173 -215 0
-140 -173 215 0
88 181 -311 0
88 -181 311 0
-88 181 311 0
-88 -181 -311 0
100 206 -235 0
100 -206 235 0
-100 206 235 0
-100 -206 -235 0
37 49 -50 0
37 -49 50 0
-37 49 50 0
-37 -49 -50 0
16 50 99 0
16 -50 -99 0
-16 50 -99 0
-16 -50 99 0
102 191 267 0
102 -191 -267 0
-102 191 -267 0
-102 -191 267 0
59 222 280 0
59 -222 -280 0
-59 222 -280 0
-59 -222 280 0
19 181 271 0
19 -181 -271 0
-19 181 -271 0
-19 -181 271 0
52 67 261 0
52 -67 -261 0
-52 67 -261 0
-52 -67 261 0
58 111 -265 0
58 -111 265 0
-58 111 265 0
-58 -111 -265 0
17 103 177 0
17 -103 -177 0
-17 103 -177 0
-17 -103 177 0
121 179 -288 0
121 -179 288 0
-121 179 288 0
-121 -179 -288 0
80 277 -304 0
80 -277 304 0
-80 277 304 0
-80 -277 -304 0
27 31 94 0
27 -31 -94 0
-27 31 -94 0
-27 -31 94 0
82 231 -256 0
82 -231 256 0
-82 231 256 0
-82 -231 -256 0
92 168 299 0
92 -168 -299 0
-92 168 -299 0
-92 -168 299 0
15 227 -243 0
15 -227 243 0
-15 227 243 0
-15 -227 -243 0
5 6 184 0
5 -6 -184 0
-5 6 -184 0
-5 -6 184 0
44 136 -290 0
44 -136 290 0
-44 136 290 0
-44 -136 -290 0
123 146 170 0
123 -146 -170 0
-123 146 -170 0
-123 -146 170 0
19 194 209 0
19 -194 -209 0
-19 194 -209 0
-19 -194 209 0
13 202 285 0
13 -202 -285 0
-13 202 -285 0
-13 -202 285 0
32 84 196 0
32 -84 -196 0
-32 84 -196 0
-32 -84 196 0
56 130 -161 0
56 -130 161 0
-56 130 161 0
-56 -130 -161 0
116 131 -284 0
116 -131 284 0
-116 131 284 0
-116 -131 -284 0
6 240 243 0
6 -240 -243 0
-6 240 -243 0
-6 -240 243 0
178 258 -277 0
178 -258 277 0
-178 258 277 0
-178 -258 -277 0
217 248 309 0
217 -248 -309 0
-217 248 -309 0
-217 -248 309 0
59 261 -298 0
59 -261 298 0
-59 261 298 0
-59 -261 -298 0
181 287 -289 0
181 -287 289 0
-181 287 289 0
-181 -287 -289 0
63 70 212 0
63 -70 -212 0
-63 70 -212 0
-63 -70 212 0
43 93 266 0
43 -93 -266 0
-43 93 -266 0
-43 -93 266 0
129 254 -282 0
129 -254 282 0
-129 254 282 0
-129 -254 -282 0
89 130 305 0
89 -130 -305 0
-89 130 -305 0
-89 -130 305 0
76 111 -316 0
76 -111 316 0
-76 111 316 0
-76 -111 -316 0
12 205 -208 0
12 -205 208 0
-12 205 208 0
-12 -205 -208 0
110 299 -310 0
110 -299 310 0
-110 299 310 0
-110 -299 -310 0
17 235 -244 0
17 -235 244 0
-17 235 244 0
-17 -235 -244 0
52 83 95 0
52 -83 -95 0
-52 83 -95 0
-52 -83 95 0
68 170 -297 0
68 -170 297 0
-68 170 297 0
-68 -170 -297 0
107 155 197 0
107 -155 -197 0
-107 155 -197 0
-107 -155 197 0
56 126 -188 0
56 -126 188 0
-56 126 188 0
-56 -126 -188 0
138 239 -262 0
138 -239 262 0
-138 239 262 0
-138 -239 -262 0
34 246 -274 0
34 -246 274 0
-34 246 274 0
-34 -246 -274 0
75 76 194 0
75 -76 -194 0
-75 76 -194 0
-75 -76 194 0
11 70 -164 0
11 -70 164 0
-11 70 164 0
-11 -70 -164 0
19 156 -293 0
19 -156 293 0
-19 156 293 0
-19 -156 -293 0
162 261 -285 0
162 -261 285 0
-162 261 285 0
-162 -261 -285 0
188 280 302 0
188 -280 -302 0
-188 280 -302 0
-188 -280 302 0
2 127 239 0
2 -127 -239 0
-2 127 -239 0
-2 -127 239 0
45 178 -186 0
45 -178 186 0
-45 178 186 0
-45 -178 -186 0
52 86 -220 0
52 -86 220 0
-52 86 220 0
-52 -86 -220 0
111 124 176 0
111 -124 -176 0
-111 124 -176 0
-111 -124 176 0
48 294 309 0
48 -294 -309 0
-48 294 -309 0
-48 -294 309 0
99 188 299 0
99 -188 -299 0
-99 188 -299 0
-99 -188 299 0
171 227 238 0
171 -227 -238 0
-171 227 -238 0
-171 -227 238 0
113 154 271 0
113 -154 -271 0
-113 154 -271 0
-113 -154 271 0
172 181 268 0
172 -181 -268 0
-172 181 -268 0
-172 -181 268 0
20 116 248 0
20 -116 -248 0
-20 116 -248 0
-20 -116 248 0
95 97 198 0
95 -97 -198 0
-95 97 -198 0
-95 -97 198 0
48 138 -271 0
48 -138 271 0
-48 138 271 0
-48 -138 -271 0
105 176 286 0
105 -176 -286 0
-105 176 -286 0
-105 -176 286 0
34 205 296 0
34 -205 -296 0
-34 205 -296 0
-34 -205 296 0
1 92 -199 0
1 -92 199 0
-1 92 199 0
-1 -92 -199 0
151 161 -190 0
151 -161 190 0
-151 161 190 0
-151 -161 -190 0
5 56 -100 0
5 -56 100 0
-5 56 100 0
-5 -56 -100 0
25 152 -193 0
25 -152 193 0
-25 152 193 0
-25 -152 -193 0
114 189 -308 0
114 -189 308 0
-114 189 308 0
-114 -189 -308 0
217 258 -264 0
217 -258 264 0
-217 258 264 0
-217 -258 -264 0
107 135 144 0
107 -135 -144 0
-107 135 -144 0
-107 -135 144 0
28 106 201 0
28 -106 -201 0
-28 106 -201 0
-28 -106 201 0
23 91 -298 0
23 -91 298 0
-23 91 298 0
-23 -91 -298 0
25 113 -138 0
25 -113 138 0
-25 113 138 0
-25 -113 -138 0
49 97 -213 0
49 -97 213 0
-49 97 213 0
-49 -97 -213 0
82 99 -225 0
82 -99 225 0
-82 99 225 0
-82 -99 -225 0
18 86 212 0
18 -86 -212 0
-18 86 -212 0
-18 -86 212 0
59 152 -250 0
59 -152 250 0
-59 152 250 0
-59 -152 -250 0
50 261 300 0
50 -261 -300 0
-50 261 -300 0
-50 -261 300 0
174 250 286 0
174 -250 -286 0
-174 250 -286 0
-174 -250 286 0
120 196 215 0
120 -196 -215 0
-120 196 -215 0
-120 -196 215 0
135 144 195 0
135 -144 -195 0
-135 144 -195 0
-135 -144 195 0
135 148 -168 0
135 -148 168 0
-135 148 168 0
-135 -148 -168 0
198 255 -259 0
198 -255 259 0
-198 255 259 0
-198 -255 -259 0
54 93 -282 0
54 -93 282 0
-54 93 282 0
-54 -93 -282 0
50 102 -131 0
50 -102 131 0
-50 102 131 0
-50 -102 -131 0
59 111 296 0
59 -111 -296 0
-59 111 -296 0
-59 -111 296 0
44 140 169 0
44 -140 -169 0
-44 140 -169 0
-44 -140 169 0
4 5 143 0
4 -5 -143 0
-4 5 -143 0
-4 -5 143 0
112 139 -214 0
112 -139 214 0
-112 139 214 0
-112 -139 -214 0
61 97 -268 0
61 -97 268 0
-61 97 268 0
-61 -97 -268 0
54 84 -260 0
54 -84 260 0
-54 84 260 0
-54 -84 -260 0
23 75 188 0
23 -75 -188 0
-23 75 -188 0
-23 -75 188 0
73 77 194 0
73 -77 -194 0
-73 77 -194 0
-73 -77 194 0
101 134 -178 0
101 -134 178 0
-101 134 178 0
-101 -134 -178 0
132 162 -313 0
132 -162 313 0
-132 162 313 0
-132 -162 -313 0
49 120 165 0
49 -120 -165 0
-49 120 -165 0
-49 -120 165 0
37 103 133 0
37 -103 -133 0
-37 103 -133 0
-37 -103 133 0
8 198 222 0
8 -198 -222 0
-8 198 -222 0
-8 -198 222 0
126 266 269 0
126 -266 -269 0
-126 266 -269 0
-126 -266 269 0
40 90 -243 0
40 -90 243 0
-40 90 243 0
-40 -90 -243 0
64 123 -132 0
64 -123 132 0
-64 123 132 0
-64 -123 -132 0
7 222 -295 0
7 -222 295 0
-7 222 295 0
-7 -222 -295 0
96 116 -272 0
96 -116 272 0
-96 116 272 0
-96 -116 -272 0
119 159 -308 0
119 -159 308 0
-119 159 308 0
-119 -159 -308 0
5 19 210 0
5 -19 -210 0
-5 19 -210 0
-5 -19 210 0
7 92 -248 0
7 -92 248 0
-7 92 248 0
-7 -92 -248 0
146 254 -266 0
146 -254 266 0
-146 254 266 0
-146 -254 -266 0
145 148 -214 0
145 -148 214 0
-145 148 214 0
-145 -148 -214 0
54 114 -307 0
54 -114 307 0
-54 114 307 0
-54 -114 -307 0
81 146 161 0
81 -146 -161 0
-81 146 -161 0
-81 -146 161 0
86 119 131 0
86 -119 -131 0
-86 119 -131 0
-86 -119 131 0
106 137 -308 0
106 -137 308 0
-106 137 308 0
-106 -137 -308 0
109 221 294 0
109 -221 -294 0
-109 221 -294 0
-109 -221 294 0
15 115 -199 0
15 -115 199 0
-15 115 199 0
-15 -115 -199 0
23 67 -228 0
23 -67 228 0
-23 67 228 0
-23 -67 -228 0
55 124 239 0
55 -124 -239 0
-55 124 -239 0
-55 -124 239 0
4 86 -272 0
4 -86 272 0
-4 86 272 0
-4 -86 -272 0
86 262 263 0
86 -262 -263 0
-86 262 -263 0
-86 -262 263 0
21 141 164 0
21 -141 -164 0
-21 141 -164 0
-21 -141 164 0
88 135 -241 0
88 -135 241 0
-88 135 241 0
-88 -135 -241 0
154 176 -221 0
154 -176 221 0
-154 176 221 0
-154 -176 -221 0
198 219 233 0
198 -219 -233 0
-198 219 -233 0
-198 -219 233 0
113 251 254 0
113 -251 -254 0
-113 251 -254 0
-113 -251 254 0
72 99 -301 0
72 -99 301 0
-72 99 301 0
-72 -99 -301 0
70 101 -147 0
70 -101 147 0
-70 101 147 0
-70 -101 -147 0
7 270 285 0
7 -270 -285 0
-7 270 -285 0
-7 -270 285 0
151 276 -284 0
151 -276 284 0
-151 276 284 0
-151 -276 -284 0
75 104 232 0
75 -104 -232 0
-75 104 -232 0
-75 -104 232 0
37 69 -165 0
37 -69 165 0
-37 69 165 0
-37 -69 -165 0
224 249 -319 0
224 -249 319 0
-224 249 319 0
-224 -249 -319 0
42 301 311 0
42 -301 -311 0
-42 301 -311 0
-42 -301 311 0
93 251 264 0
93 -251 -264 0
-93 251 -264 0
-93 -251 264 0
142 192 -284 0
142 -192 284 0
-142 192 284 0
-142 -192 -284 0
18 39 183 0
18 -39 -183 0
-18 39 -183 0
-18 -39 183 0
159 208 250 0
159 -208 -250 0
-159 208 -250 0
-159 -208 250 0
182 201 267 0
182 -201 -267 0
-182 201 -267 0
-182 -201 267 0
179 191 230 0
179 -191 -230 0
-179 191 -230 0
-179 -191 230 0
51 145 166 0
51 -145 -166 0
-51 145 -166 0
-51 -145 166 0
147 155 -242 0
147 -155 242 0
-147 155 242 0
-147 -155 -242 0
73 240 299 0
73 -240 -299 0
-73 240 -299 0
-73 -240 299 0
98 146 -254 0
98 -146 254 0
-98 146 254 0
-98 -146 -254 0
79 311 -312 0
79 -311 312 0
-79 311 312 0
-79 -311 -312 0
203 219 280 0
203 -219 -280 0
-203 219 -280 0
-203 -219 280 0
4 159 318 0
4 -159 -318 0
-4 159 -318 0
-4 -159 318 0
32 116 240 0
32 -116 -240 0
-32 116 -240 0
-32 -116 240 0
160 164 243 0
160 -164 -243 0
-160 164 -243 0
-160 -164 243 0
4 132 -316 0
4 -132 316 0
-4 132 316 0
-4 -132 -316 0
25 181 252 0
25 -181 -252 0
-25 181 -252 0
-25 -181 252 0
33 195 282 0
33 -195 -282 0
-33 195 -282 0
-33 -195 282 0
71 123 -191 0
71 -123 191 0
-71 123 191 0
-71 -123 -191 0
129 170 193 0
129 -170 -193 0
-129 170 -193 0
-129 -170 193 0
113 165 285 0
113 -165 -285 0
-113 165 -285 0
-113 -165 285 0
104 110 -225 0
104 -110 225 0
-104 110 225 0
-104 -110 -225 0
170 211 -292 0
170 -211 292 0
-170 211 292 0
-170 -211 -292 0
49 143 232 0
49 -143 -232 0
-49 143 -232 0
-49 -143 232 0
62 111 -141 0
62 -111 141 0
-62 111 141 0
-62 -111 -141 0
156 177 -215 0
156 -177 215 0
-156 177 215 0
-156 -177 -215 0
8 200 283 0
8 -200 -283 0
-8 200 -283 0
-8 -200 283 0
5 151 228 0
5 -151 -228 0
-5 151 -228 0
-5 -151 228 0
22 93 -283 0
22 -93 283 0
-22 93 283 0
-22 -93 -283 0
71 177 277 0
71 -177 -277 0
-71 177 -277 0
-71 -177 277 0
1 200 204 0
1 -200 -204 0
-1 200 -204 0
-1 -200 204 0
68 92 -142 0
68 -92 142 0
-68 92 142 0
-68 -92 -142 0
120 158 312 0
120 -158 -312 0
-120 158 -312 0
-120 -158 312 0
77 111 -185 0
77 -111 185 0
-77 111 185 0
-77 -111 -185 0
28 45 110 0
28 -45 -110 0
-28 45 -110 0
-28 -45 110 0
160 270 272 0
160 -270 -272 0
-160 270 -272 0
-160 -270 272 0
44 193 293 0
44 -193 -293 0
-44 193 -293 0
-44 -193 293 0
127 175 289 0
127 -175 -289 0
-127 175 -289 0
-127 -175 289 0
103 119 280 0
103 -119 -280 0
-103 119 -280 0
-103 -119 280 0
47 106 279 0
47 -106 -279 0
-47 106 -279 0
-47 -106 279 0
17 25 204 0
17 -25 -204 0
-17 25 -204 0
-17 -25 204 0
18 163 272 0
18 -163 -272 0
-18 163 -272 0
-18 -163 272 0
85 103 120 0
85 -103 -120 0
-85 103 -120 0
-85 -103 120 0
7 147 -196 0
7 -147 196 0
-7 147 196 0
-7 -147 -196 0
181 190 -204 0
181 -190 204 0
-181 190 204 0
-181 -190 -204 0
