c description: Tseitin formula on Random 4-regular graph of 20 vertices, with odd charge
c generator: CNFgen (0.9.5)
c copyright: (C) 2012-2026 Massimo Lauria <massimo.lauria@uniroma1.it>
c url: https://massimolauria.net/cnfgen
c command line: cnfgen tseitin 20
c
p cnf 40 160
1 2 3 -4 0
1 2 -3 4 0
1 -2 3 4 0
1 -2 -3 -4 0
-1 2 3 4 0
-1 2 -3 -4 0
-1 -2 3 -4 0
-1 -2 -3 4 0
5 6 7 -8 0
5 6 -7 8 0
5 -6 7 8 0
5 -6 -7 -8 0
-5 6 7 8 0
-5 6 -7 -8 0
-5 -6 7 -8 0
-5 -6 -7 8 0
9 10 11 12 0
9 10 -11 -12 0
9 -10 11 -12 0
9 -10 -11 12 0
-9 10 11 -12 0
-9 10 -11 12 0
-9 -10 11 12 0
-9 -10 -11 -12 0
13 14 15 -16 0
13 14 -15 16 0
13 -14 15 16 0
13 -14 -15 -16 0
-13 14 15 16 0
-13 14 -15 -16 0
-13 -14 15 -16 0
-13 -14 -15 16 0
9 17 18 -19 0
9 17 -18 19 0
9 -17 18 19 0
9 -17 -18 -19 0
-9 17 18 19 0
-9 17 -18 -19 0
-9 -17 18 -19 0
-9 -17 -18 19 0
1 13 20 21 0
1 13 -20 -21 0
1 -13 20 -21 0
1 -13 -20 21 0
-1 13 20 -21 0
-1 13 -20 21 0
-1 -13 20 21 0
-1 -13 -20 -21 0
22 23 24 25 0
22 23 -24 -25 0
22 -23 24 -25 0
22 -23 -24 25 0
-22 23 24 -25 0
-22 23 -24 25 0
-22 -23 24 25 0
-22 -23 -24 -25 0
17 20 26 -27 0
17 20 -26 27 0
17 -20 26 27 0
17 -20 -26 -27 0
-17 20 26 27 0
-17 20 -26 -27 0
-17 -20 26 -27 0
-17 -20 -26 27 0
14 18 28 29 0
14 18 -28 -29 0
14 -18 28 -29 0
14 -18 -28 29 0
-14 18 28 -29 0
-14 18 -28 29 0
-14 -18 28 29 0
-14 -18 -28 -29 0
2 10 15 30 0
2 10 -15 -30 0
2 -10 15 -30 0
2 -10 -15 30 0
-2 10 15 -30 0
-2 10 -15 30 0
-2 -10 15 30 0
-2 -10 -15 -30 0
22 26 31 -32 0
22 26 -31 32 0
22 -26 31 32 0
22 -26 -31 -32 0
-22 26 31 32 0
-22 26 -31 -32 0
-22 -26 31 -32 0
-22 -26 -31 32 0
5 28 33 34 0
5 28 -33 -34 0
5 -28 33 -34 0
5 -28 -33 34 0
-5 28 33 -34 0
-5 28 -33 34 0
-5 -28 33 34 0
-5 -28 -33 -34 0
11 35 36 37 0
11 35 -36 -37 0
11 -35 36 -37 0
11 -35 -36 37 0
-11 35 36 -37 0
-11 35 -36 37 0
-11 -35 36 37 0
-11 -35 -36 -37 0
6 19 29 38 0
6 19 -29 -38 0
6 -19 29 -38 0
6 -19 -29 38 0
-6 19 29 -38 0
-6 19 -29 38 0
-6 -19 29 38 0
-6 -19 -29 -38 0
23 27 30 -35 0
23 27 -30 35 0
23 -27 30 35 0
23 -27 -30 -35 0
-23 27 30 35 0
-23 27 -30 -35 0
-23 -27 30 -35 0
-23 -27 -30 35 0
24 33 36 -38 0
24 33 -36 38 0
24 -33 36 38 0
24 -33 -36 -38 0
-24 33 36 38 0
-24 33 -36 -38 0
-24 -33 36 -38 0
-24 -33 -36 38 0
3 7 31 -39 0
3 7 -31 39 0
3 -7 31 39 0
3 -7 -31 -39 0
-3 7 31 39 0
-3 7 -31 -39 0
-3 -7 31 -39 0
-3 -7 -31 39 0
8 12 25 -40 0
8 12 -25 40 0
8 -12 25 40 0
8 -12 -25 -40 0
-8 12 25 40 0
-8 12 -25 -40 0
-8 -12 25 -40 0
-8 -12 -25 40 0
16 34 39 -40 0
16 34 -39 40 0
16 -34 39 40 0
16 -34 -39 -40 0
-16 34 39 40 0
-16 34 -39 -40 0
-16 -34 39 -40 0
-16 -34 -39 40 0
4 21 32 37 0
4 21 -32 -37 0
4 -21 32 -37 0
4 -21 -32 37 0
-4 21 32 -37 0
-4 21 -32 37 0
-4 -21 32 37 0
-4 -21 -32 -37 0
