c family: Tseitin parity on 3-regular graph
c known_status: SAT
c difficulty_level: moderate
c description: edge-variable parity constraints on a regular graph
c generated: deterministic complex CNF training pack
p cnf 90 240
1 2 -3 0
1 -2 3 0
-1 2 3 0
-1 -2 -3 0
4 5 -6 0
4 -5 6 0
-4 5 6 0
-4 -5 -6 0
7 8 -9 0
7 -8 9 0
-7 8 9 0
-7 -8 -9 0
10 11 12 0
10 -11 -12 0
-10 11 -12 0
-10 -11 12 0
13 14 -15 0
13 -14 15 0
-13 14 15 0
-13 -14 -15 0
10 16 17 0
10 -16 -17 0
-10 16 -17 0
-10 -16 17 0
18 19 -20 0
18 -19 20 0
-18 19 20 0
-18 -19 -20 0
21 22 23 0
21 -22 -23 0
-21 22 -23 0
-21 -22 23 0
7 24 -25 0
7 -24 25 0
-7 24 25 0
-7 -24 -25 0
26 27 -28 0
26 -27 28 0
-26 27 28 0
-26 -27 -28 0
29 30 31 0
29 -30 -31 0
-29 30 -31 0
-29 -30 31 0
32 33 34 0
32 -33 -34 0
-32 33 -34 0
-32 -33 34 0
1 35 36 0
1 -35 -36 0
-1 35 -36 0
-1 -35 36 0
4 37 38 0
4 -37 -38 0
-4 37 -38 0
-4 -37 38 0
13 39 -40 0
13 -39 40 0
-13 39 40 0
-13 -39 -40 0
41 42 -43 0
41 -42 43 0
-41 42 43 0
-41 -42 -43 0
44 45 -46 0
44 -45 46 0
-44 45 46 0
-44 -45 -46 0
11 47 -48 0
11 -47 48 0
-11 47 48 0
-11 -47 -48 0
8 49 -50 0
8 -49 50 0
-8 49 50 0
-8 -49 -50 0
16 32 -51 0
16 -32 51 0
-16 32 51 0
-16 -32 -51 0
52 53 -54 0
52 -53 54 0
-52 53 54 0
-52 -53 -54 0
55 56 57 0
55 -56 -57 0
-55 56 -57 0
-55 -56 57 0
5 58 -59 0
5 -58 59 0
-5 58 59 0
-5 -58 -59 0
6 60 -61 0
6 -60 61 0
-6 60 61 0
-6 -60 -61 0
17 62 63 0
17 -62 -63 0
-17 62 -63 0
-17 -62 63 0
51 62 64 0
51 -62 -64 0
-51 62 -64 0
-51 -62 64 0
14 24 -49 0
14 -24 49 0
-14 24 49 0
-14 -24 -49 0
55 58 65 0
55 -58 -65 0
-55 58 -65 0
-55 -58 65 0
9 66 -67 0
9 -66 67 0
-9 66 67 0
-9 -66 -67 0
65 68 69 0
65 -68 -69 0
-65 68 -69 0
-65 -68 69 0
2 70 -71 0
2 -70 71 0
-2 70 71 0
-2 -70 -71 0
72 73 -74 0
72 -73 74 0
-72 73 74 0
-72 -73 -74 0
59 60 68 0
59 -60 -68 0
-59 60 -68 0
-59 -60 68 0
39 70 75 0
39 -70 -75 0
-39 70 -75 0
-39 -70 75 0
21 25 66 0
21 -25 -66 0
-21 25 -66 0
-21 -25 66 0
37 61 76 0
37 -61 -76 0
-37 61 -76 0
-37 -61 76 0
18 56 -69 0
18 -56 69 0
-18 56 69 0
-18 -56 -69 0
12 63 77 0
12 -63 -77 0
-12 63 -77 0
-12 -63 77 0
26 78 -79 0
26 -78 79 0
-26 78 79 0
-26 -78 -79 0
22 27 -80 0
22 -27 80 0
-22 27 80 0
-22 -27 -80 0
3 81 82 0
3 -81 -82 0
-3 81 -82 0
-3 -81 82 0
29 41 -83 0
29 -41 83 0
-29 41 83 0
-29 -41 -83 0
44 52 72 0
44 -52 -72 0
-44 52 -72 0
-44 -52 72 0
73 78 80 0
73 -78 -80 0
-73 78 -80 0
-73 -78 80 0
15 50 -75 0
15 -50 75 0
-15 50 75 0
-15 -50 -75 0
47 77 -81 0
47 -77 81 0
-47 77 81 0
-47 -77 -81 0
38 45 -84 0
38 -45 84 0
-38 45 84 0
-38 -45 -84 0
85 86 87 0
85 -86 -87 0
-85 86 -87 0
-85 -86 87 0
33 42 64 0
33 -42 -64 0
-33 42 -64 0
-33 -42 64 0
30 34 43 0
30 -34 -43 0
-30 34 -43 0
-30 -34 43 0
23 28 -67 0
23 -28 67 0
-23 28 67 0
-23 -28 -67 0
83 85 -88 0
83 -85 88 0
-83 85 88 0
-83 -85 -88 0
53 74 -79 0
53 -74 79 0
-53 74 79 0
-53 -74 -79 0
35 40 -71 0
35 -40 71 0
-35 40 71 0
-35 -40 -71 0
36 48 82 0
36 -48 -82 0
-36 48 -82 0
-36 -48 82 0
19 86 -89 0
19 -86 89 0
-19 86 89 0
-19 -86 -89 0
20 57 -87 0
20 -57 87 0
-20 57 87 0
-20 -57 -87 0
76 84 -90 0
76 -84 90 0
-76 84 90 0
-76 -84 -90 0
46 54 90 0
46 -54 -90 0
-46 54 -90 0
-46 -54 90 0
31 88 89 0
31 -88 -89 0
-31 88 -89 0
-31 -88 89 0
