c family: Tseitin parity on 3-regular graph
c known_status: SAT
c difficulty_level: moderate
c description: edge-variable parity constraints on a regular graph
c generated: deterministic complex CNF training pack
p cnf 120 320
1 2 3 0
1 -2 -3 0
-1 2 -3 0
-1 -2 3 0
4 5 6 0
4 -5 -6 0
-4 5 -6 0
-4 -5 6 0
7 8 -9 0
7 -8 9 0
-7 8 9 0
-7 -8 -9 0
10 11 -12 0
10 -11 12 0
-10 11 12 0
-10 -11 -12 0
13 14 15 0
13 -14 -15 0
-13 14 -15 0
-13 -14 15 0
16 17 -18 0
16 -17 18 0
-16 17 18 0
-16 -17 -18 0
7 19 -20 0
7 -19 20 0
-7 19 20 0
-7 -19 -20 0
21 22 23 0
21 -22 -23 0
-21 22 -23 0
-21 -22 23 0
24 25 26 0
24 -25 -26 0
-24 25 -26 0
-24 -25 26 0
27 28 -29 0
27 -28 29 0
-27 28 29 0
-27 -28 -29 0
4 30 31 0
4 -30 -31 0
-4 30 -31 0
-4 -30 31 0
19 32 33 0
19 -32 -33 0
-19 32 -33 0
-19 -32 33 0
34 35 36 0
34 -35 -36 0
-34 35 -36 0
-34 -35 36 0
37 38 39 0
37 -38 -39 0
-37 38 -39 0
-37 -38 39 0
40 41 -42 0
40 -41 42 0
-40 41 42 0
-40 -41 -42 0
43 44 45 0
43 -44 -45 0
-43 44 -45 0
-43 -44 45 0
43 46 -47 0
43 -46 47 0
-43 46 47 0
-43 -46 -47 0
48 49 50 0
48 -49 -50 0
-48 49 -50 0
-48 -49 50 0
51 52 53 0
51 -52 -53 0
-51 52 -53 0
-51 -52 53 0
1 54 -55 0
1 -54 55 0
-1 54 55 0
-1 -54 -55 0
51 56 -57 0
51 -56 57 0
-51 56 57 0
-51 -56 -57 0
24 58 -59 0
24 -58 59 0
-24 58 59 0
-24 -58 -59 0
5 48 -60 0
5 -48 60 0
-5 48 60 0
-5 -48 -60 0
52 61 -62 0
52 -61 62 0
-52 61 62 0
-52 -61 -62 0
56 63 -64 0
56 -63 64 0
-56 63 64 0
-56 -63 -64 0
21 65 -66 0
21 -65 66 0
-21 65 66 0
-21 -65 -66 0
67 68 -69 0
67 -68 69 0
-67 68 69 0
-67 -68 -69 0
46 70 -71 0
46 -70 71 0
-46 70 71 0
-46 -70 -71 0
10 58 72 0
10 -58 -72 0
-10 58 -72 0
-10 -58 72 0
34 73 74 0
34 -73 -74 0
-34 73 -74 0
-34 -73 74 0
53 75 -76 0
53 -75 76 0
-53 75 76 0
-53 -75 -76 0
49 65 -77 0
49 -65 77 0
-49 65 77 0
-49 -65 -77 0
11 35 -78 0
11 -35 78 0
-11 35 78 0
-11 -35 -78 0
25 72 79 0
25 -72 -79 0
-25 72 -79 0
-25 -72 79 0
37 80 81 0
37 -80 -81 0
-37 80 -81 0
-37 -80 81 0
73 82 83 0
73 -82 -83 0
-73 82 -83 0
-73 -82 83 0
79 84 85 0
79 -84 -85 0
-79 84 -85 0
-79 -84 85 0
86 87 -88 0
86 -87 88 0
-86 87 88 0
-86 -87 -88 0
40 67 86 0
40 -67 -86 0
-40 67 -86 0
-40 -67 86 0
80 89 -90 0
80 -89 90 0
-80 89 90 0
-80 -89 -90 0
91 92 93 0
91 -92 -93 0
-91 92 -93 0
-91 -92 93 0
2 44 -94 0
2 -44 94 0
-2 44 94 0
-2 -44 -94 0
27 95 96 0
27 -95 -96 0
-27 95 -96 0
-27 -95 96 0
63 89 97 0
63 -89 -97 0
-63 89 -97 0
-63 -89 97 0
50 66 -98 0
50 -66 98 0
-50 66 98 0
-50 -66 -98 0
13 38 -99 0
13 -38 99 0
-13 38 99 0
-13 -38 -99 0
8 22 -32 0
8 -22 32 0
-8 22 32 0
-8 -22 -32 0
16 61 100 0
16 -61 -100 0
-16 61 -100 0
-16 -61 100 0
57 75 97 0
57 -75 -97 0
-57 75 -97 0
-57 -75 97 0
17 91 101 0
17 -91 -101 0
-17 91 -101 0
-17 -91 101 0
54 94 -102 0
54 -94 102 0
-54 94 102 0
-54 -94 -102 0
9 95 -103 0
9 -95 103 0
-9 95 103 0
-9 -95 -103 0
18 92 -104 0
18 -92 104 0
-18 92 104 0
-18 -92 -104 0
62 76 105 0
62 -76 -105 0
-62 76 -105 0
-62 -76 105 0
3 104 106 0
3 -104 -106 0
-3 104 -106 0
-3 -104 106 0
12 59 -107 0
12 -59 107 0
-12 59 107 0
-12 -59 -107 0
30 60 -98 0
30 -60 98 0
-30 60 98 0
-30 -60 -98 0
6 108 -109 0
6 -108 109 0
-6 108 109 0
-6 -108 -109 0
47 110 111 0
47 -110 -111 0
-47 110 -111 0
-47 -110 111 0
36 112 113 0
36 -112 -113 0
-36 112 -113 0
-36 -112 113 0
20 28 -103 0
20 -28 103 0
-20 28 103 0
-20 -28 -103 0
82 114 115 0
82 -114 -115 0
-82 114 -115 0
-82 -114 115 0
68 116 -117 0
68 -116 117 0
-68 116 117 0
-68 -116 -117 0
74 112 114 0
74 -112 -114 0
-74 112 -114 0
-74 -112 114 0
70 84 -110 0
70 -84 110 0
-70 84 110 0
-70 -84 -110 0
23 33 77 0
23 -33 -77 0
-23 33 -77 0
-23 -33 77 0
64 90 -118 0
64 -90 118 0
-64 90 118 0
-64 -90 -118 0
96 115 -119 0
96 -115 119 0
-96 115 119 0
-96 -115 -119 0
100 101 105 0
100 -101 -105 0
-100 101 -105 0
-100 -101 105 0
55 93 106 0
55 -93 -106 0
-55 93 -106 0
-55 -93 106 0
81 99 118 0
81 -99 -118 0
-81 99 -118 0
-81 -99 118 0
26 71 85 0
26 -71 -85 0
-26 71 -85 0
-26 -71 85 0
14 39 -41 0
14 -39 41 0
-14 39 41 0
-14 -39 -41 0
69 87 120 0
69 -87 -120 0
-69 87 -120 0
-69 -87 120 0
29 83 -119 0
29 -83 119 0
-29 83 119 0
-29 -83 -119 0
15 42 -88 0
15 -42 88 0
-15 42 88 0
-15 -42 -88 0
45 102 111 0
45 -102 -111 0
-45 102 -111 0
-45 -102 111 0
31 108 116 0
31 -108 -116 0
-31 108 -116 0
-31 -108 116 0
109 117 120 0
109 -117 -120 0
-109 117 -120 0
-109 -117 120 0
78 107 -113 0
78 -107 113 0
-78 107 113 0
-78 -107 -113 0
