c family: Tseitin parity on 3-regular graph
c known_status: SAT
c difficulty_level: moderate
c description: edge-variable parity constraints on a regular graph
c generated: deterministic complex CNF training pack
p cnf 60 160
1 2 3 0
1 -2 -3 0
-1 2 -3 0
-1 -2 3 0
4 5 6 0
4 -5 -6 0
-4 5 -6 0
-4 -5 6 0
7 8 -9 0
7 -8 9 0
-7 8 9 0
-7 -8 -9 0
10 11 -12 0
10 -11 12 0
-10 11 12 0
-10 -11 -12 0
13 14 15 0
13 -14 -15 0
-13 14 -15 0
-13 -14 15 0
16 17 18 0
16 -17 -18 0
-16 17 -18 0
-16 -17 18 0
10 19 20 0
10 -19 -20 0
-10 19 -20 0
-10 -19 20 0
4 21 -22 0
4 -21 22 0
-4 21 22 0
-4 -21 -22 0
23 24 -25 0
23 -24 25 0
-23 24 25 0
-23 -24 -25 0
19 26 27 0
19 -26 -27 0
-19 26 -27 0
-19 -26 27 0
26 28 29 0
26 -28 -29 0
-26 28 -29 0
-26 -28 29 0
30 31 -32 0
30 -31 32 0
-30 31 32 0
-30 -31 -32 0
7 16 33 0
7 -16 -33 0
-7 16 -33 0
-7 -16 33 0
34 35 36 0
34 -35 -36 0
-34 35 -36 0
-34 -35 36 0
21 37 -38 0
21 -37 38 0
-21 37 38 0
-21 -37 -38 0
11 39 -40 0
11 -39 40 0
-11 39 40 0
-11 -39 -40 0
1 41 -42 0
1 -41 42 0
-1 41 42 0
-1 -41 -42 0
34 43 44 0
34 -43 -44 0
-34 43 -44 0
-34 -43 44 0
30 45 -46 0
30 -45 46 0
-30 45 46 0
-30 -45 -46 0
5 37 41 0
5 -37 -41 0
-5 37 -41 0
-5 -37 41 0
47 48 -49 0
47 -48 49 0
-47 48 49 0
-47 -48 -49 0
8 17 43 0
8 -17 -43 0
-8 17 -43 0
-8 -17 43 0
6 42 -50 0
6 -42 50 0
-6 42 50 0
-6 -42 -50 0
22 51 -52 0
22 -51 52 0
-22 51 52 0
-22 -51 -52 0
18 44 53 0
18 -44 -53 0
-18 44 -53 0
-18 -44 53 0
39 54 55 0
39 -54 -55 0
-39 54 -55 0
-39 -54 55 0
45 51 -56 0
45 -51 56 0
-45 51 56 0
-45 -51 -56 0
13 23 -57 0
13 -23 57 0
-13 23 57 0
-13 -23 -57 0
14 24 -47 0
14 -24 47 0
-14 24 47 0
-14 -24 -47 0
20 28 35 0
20 -28 -35 0
-20 28 -35 0
-20 -28 35 0
12 27 58 0
12 -27 -58 0
-12 27 -58 0
-12 -27 58 0
9 57 -59 0
9 -57 59 0
-9 57 59 0
-9 -57 -59 0
38 46 52 0
38 -46 -52 0
-38 46 -52 0
-38 -46 52 0
31 54 60 0
31 -54 -60 0
-31 54 -60 0
-31 -54 60 0
29 36 -53 0
29 -36 53 0
-29 36 53 0
-29 -36 -53 0
2 48 50 0
2 -48 -50 0
-2 48 -50 0
-2 -48 50 0
32 55 -56 0
32 -55 56 0
-32 55 56 0
-32 -55 -56 0
40 58 -60 0
40 -58 60 0
-40 58 60 0
-40 -58 -60 0
15 33 59 0
15 -33 -59 0
-15 33 -59 0
-15 -33 59 0
3 25 -49 0
3 -25 49 0
-3 25 49 0
-3 -25 -49 0
