c family: Van der Waerden AP coloring
c known_status: UNSAT
c difficulty_level: moderate
c description: avoid monochromatic arithmetic progression of length 3
c generated: deterministic complex CNF training pack
p cnf 9 32
-1 -2 -3 0
1 2 3 0
-1 -3 -5 0
1 3 5 0
-1 -4 -7 0
1 4 7 0
-1 -5 -9 0
1 5 9 0
-2 -3 -4 0
2 3 4 0
-2 -4 -6 0
2 4 6 0
-2 -5 -8 0
2 5 8 0
-3 -4 -5 0
3 4 5 0
-3 -5 -7 0
3 5 7 0
-3 -6 -9 0
3 6 9 0
-4 -5 -6 0
4 5 6 0
-4 -6 -8 0
4 6 8 0
-5 -6 -7 0
5 6 7 0
-5 -7 -9 0
5 7 9 0
-6 -7 -8 0
6 7 8 0
-7 -8 -9 0
7 8 9 0
