c family: sparse XOR system encoded as CNF
c known_status: SAT
c difficulty_level: moderate
c description: parity constraints encoded to CNF
c generated: deterministic complex CNF training pack
p cnf 128 1000
7 18 45 -117 0
7 18 -45 117 0
7 -18 45 117 0
7 -18 -45 -117 0
-7 18 45 117 0
-7 18 -45 -117 0
-7 -18 45 -117 0
-7 -18 -45 117 0
71 106 -118 0
71 -106 118 0
-71 106 118 0
-71 -106 -118 0
52 67 -91 0
52 -67 91 0
-52 67 91 0
-52 -67 -91 0
12 26 97 0
12 -26 -97 0
-12 26 -97 0
-12 -26 97 0
34 103 -126 0
34 -103 126 0
-34 103 126 0
-34 -103 -126 0
52 53 61 -99 0
52 53 -61 99 0
52 -53 61 99 0
52 -53 -61 -99 0
-52 53 61 99 0
-52 53 -61 -99 0
-52 -53 61 -99 0
-52 -53 -61 99 0
13 44 124 0
13 -44 -124 0
-13 44 -124 0
-13 -44 124 0
12 61 -125 0
12 -61 125 0
-12 61 125 0
-12 -61 -125 0
12 38 77 0
12 -38 -77 0
-12 38 -77 0
-12 -38 77 0
5 34 58 89 0
5 34 -58 -89 0
5 -34 58 -89 0
5 -34 -58 89 0
-5 34 58 -89 0
-5 34 -58 89 0
-5 -34 58 89 0
-5 -34 -58 -89 0
44 53 55 77 0
44 53 -55 -77 0
44 -53 55 -77 0
44 -53 -55 77 0
-44 53 55 -77 0
-44 53 -55 77 0
-44 -53 55 77 0
-44 -53 -55 -77 0
8 21 23 109 0
8 21 -23 -109 0
8 -21 23 -109 0
8 -21 -23 109 0
-8 21 23 -109 0
-8 21 -23 109 0
-8 -21 23 109 0
-8 -21 -23 -109 0
30 76 -122 0
30 -76 122 0
-30 76 122 0
-30 -76 -122 0
9 84 -86 0
9 -84 86 0
-9 84 86 0
-9 -84 -86 0
47 64 -86 0
47 -64 86 0
-47 64 86 0
-47 -64 -86 0
25 49 -75 0
25 -49 75 0
-25 49 75 0
-25 -49 -75 0
65 97 -102 0
65 -97 102 0
-65 97 102 0
-65 -97 -102 0
44 61 70 80 0
44 61 -70 -80 0
44 -61 70 -80 0
44 -61 -70 80 0
-44 61 70 -80 0
-44 61 -70 80 0
-44 -61 70 80 0
-44 -61 -70 -80 0
75 86 -102 0
75 -86 102 0
-75 86 102 0
-75 -86 -102 0
2 72 115 0
2 -72 -115 0
-2 72 -115 0
-2 -72 115 0
30 41 -101 0
30 -41 101 0
-30 41 101 0
-30 -41 -101 0
30 75 113 -117 0
30 75 -113 117 0
30 -75 113 117 0
30 -75 -113 -117 0
-30 75 113 117 0
-30 75 -113 -117 0
-30 -75 113 -117 0
-30 -75 -113 117 0
77 110 112 0
77 -110 -112 0
-77 110 -112 0
-77 -110 112 0
33 107 119 0
33 -107 -119 0
-33 107 -119 0
-33 -107 119 0
19 46 111 117 0
19 46 -111 -117 0
19 -46 111 -117 0
19 -46 -111 117 0
-19 46 111 -117 0
-19 46 -111 117 0
-19 -46 111 117 0
-19 -46 -111 -117 0
55 83 -97 0
55 -83 97 0
-55 83 97 0
-55 -83 -97 0
35 54 110 128 0
35 54 -110 -128 0
35 -54 110 -128 0
35 -54 -110 128 0
-35 54 110 -128 0
-35 54 -110 128 0
-35 -54 110 128 0
-35 -54 -110 -128 0
37 58 98 -125 0
37 58 -98 125 0
37 -58 98 125 0
37 -58 -98 -125 0
-37 58 98 125 0
-37 58 -98 -125 0
-37 -58 98 -125 0
-37 -58 -98 125 0
48 53 71 122 0
48 53 -71 -122 0
48 -53 71 -122 0
48 -53 -71 122 0
-48 53 71 -122 0
-48 53 -71 122 0
-48 -53 71 122 0
-48 -53 -71 -122 0
53 98 -121 0
53 -98 121 0
-53 98 121 0
-53 -98 -121 0
59 87 -107 0
59 -87 107 0
-59 87 107 0
-59 -87 -107 0
17 21 22 124 0
17 21 -22 -124 0
17 -21 22 -124 0
17 -21 -22 124 0
-17 21 22 -124 0
-17 21 -22 124 0
-17 -21 22 124 0
-17 -21 -22 -124 0
25 87 -126 0
25 -87 126 0
-25 87 126 0
-25 -87 -126 0
50 107 120 0
50 -107 -120 0
-50 107 -120 0
-50 -107 120 0
31 62 113 119 0
31 62 -113 -119 0
31 -62 113 -119 0
31 -62 -113 119 0
-31 62 113 -119 0
-31 62 -113 119 0
-31 -62 113 119 0
-31 -62 -113 -119 0
19 41 63 110 0
19 41 -63 -110 0
19 -41 63 -110 0
19 -41 -63 110 0
-19 41 63 -110 0
-19 41 -63 110 0
-19 -41 63 110 0
-19 -41 -63 -110 0
9 51 63 89 0
9 51 -63 -89 0
9 -51 63 -89 0
9 -51 -63 89 0
-9 51 63 -89 0
-9 51 -63 89 0
-9 -51 63 89 0
-9 -51 -63 -89 0
6 31 36 108 0
6 31 -36 -108 0
6 -31 36 -108 0
6 -31 -36 108 0
-6 31 36 -108 0
-6 31 -36 108 0
-6 -31 36 108 0
-6 -31 -36 -108 0
24 118 120 0
24 -118 -120 0
-24 118 -120 0
-24 -118 120 0
75 109 -121 0
75 -109 121 0
-75 109 121 0
-75 -109 -121 0
46 80 -81 0
46 -80 81 0
-46 80 81 0
-46 -80 -81 0
40 90 101 113 0
40 90 -101 -113 0
40 -90 101 -113 0
40 -90 -101 113 0
-40 90 101 -113 0
-40 90 -101 113 0
-40 -90 101 113 0
-40 -90 -101 -113 0
10 63 96 0
10 -63 -96 0
-10 63 -96 0
-10 -63 96 0
13 65 91 124 0
13 65 -91 -124 0
13 -65 91 -124 0
13 -65 -91 124 0
-13 65 91 -124 0
-13 65 -91 124 0
-13 -65 91 124 0
-13 -65 -91 -124 0
22 74 -116 0
22 -74 116 0
-22 74 116 0
-22 -74 -116 0
59 105 115 -123 0
59 105 -115 123 0
59 -105 115 123 0
59 -105 -115 -123 0
-59 105 115 123 0
-59 105 -115 -123 0
-59 -105 115 -123 0
-59 -105 -115 123 0
3 65 -93 0
3 -65 93 0
-3 65 93 0
-3 -65 -93 0
6 58 59 -109 0
6 58 -59 109 0
6 -58 59 109 0
6 -58 -59 -109 0
-6 58 59 109 0
-6 58 -59 -109 0
-6 -58 59 -109 0
-6 -58 -59 109 0
8 65 -85 0
8 -65 85 0
-8 65 85 0
-8 -65 -85 0
42 89 109 0
42 -89 -109 0
-42 89 -109 0
-42 -89 109 0
30 87 94 0
30 -87 -94 0
-30 87 -94 0
-30 -87 94 0
24 31 -114 0
24 -31 114 0
-24 31 114 0
-24 -31 -114 0
23 29 100 0
23 -29 -100 0
-23 29 -100 0
-23 -29 100 0
12 33 -86 0
12 -33 86 0
-12 33 86 0
-12 -33 -86 0
21 51 57 73 0
21 51 -57 -73 0
21 -51 57 -73 0
21 -51 -57 73 0
-21 51 57 -73 0
-21 51 -57 73 0
-21 -51 57 73 0
-21 -51 -57 -73 0
1 47 -91 0
1 -47 91 0
-1 47 91 0
-1 -47 -91 0
13 19 -95 0
13 -19 95 0
-13 19 95 0
-13 -19 -95 0
16 36 44 75 0
16 36 -44 -75 0
16 -36 44 -75 0
16 -36 -44 75 0
-16 36 44 -75 0
-16 36 -44 75 0
-16 -36 44 75 0
-16 -36 -44 -75 0
34 61 103 104 0
34 61 -103 -104 0
34 -61 103 -104 0
34 -61 -103 104 0
-34 61 103 -104 0
-34 61 -103 104 0
-34 -61 103 104 0
-34 -61 -103 -104 0
11 20 42 -101 0
11 20 -42 101 0
11 -20 42 101 0
11 -20 -42 -101 0
-11 20 42 101 0
-11 20 -42 -101 0
-11 -20 42 -101 0
-11 -20 -42 101 0
8 26 40 123 0
8 26 -40 -123 0
8 -26 40 -123 0
8 -26 -40 123 0
-8 26 40 -123 0
-8 26 -40 123 0
-8 -26 40 123 0
-8 -26 -40 -123 0
10 73 96 -126 0
10 73 -96 126 0
10 -73 96 126 0
10 -73 -96 -126 0
-10 73 96 126 0
-10 73 -96 -126 0
-10 -73 96 -126 0
-10 -73 -96 126 0
55 57 98 -103 0
55 57 -98 103 0
55 -57 98 103 0
55 -57 -98 -103 0
-55 57 98 103 0
-55 57 -98 -103 0
-55 -57 98 -103 0
-55 -57 -98 103 0
4 51 69 -114 0
4 51 -69 114 0
4 -51 69 114 0
4 -51 -69 -114 0
-4 51 69 114 0
-4 51 -69 -114 0
-4 -51 69 -114 0
-4 -51 -69 114 0
39 43 96 115 0
39 43 -96 -115 0
39 -43 96 -115 0
39 -43 -96 115 0
-39 43 96 -115 0
-39 43 -96 115 0
-39 -43 96 115 0
-39 -43 -96 -115 0
64 82 -116 0
64 -82 116 0
-64 82 116 0
-64 -82 -116 0
18 34 -49 0
18 -34 49 0
-18 34 49 0
-18 -34 -49 0
87 93 110 123 0
87 93 -110 -123 0
87 -93 110 -123 0
87 -93 -110 123 0
-87 93 110 -123 0
-87 93 -110 123 0
-87 -93 110 123 0
-87 -93 -110 -123 0
24 81 120 0
24 -81 -120 0
-24 81 -120 0
-24 -81 120 0
20 49 -58 0
20 -49 58 0
-20 49 58 0
-20 -49 -58 0
41 72 77 -82 0
41 72 -77 82 0
41 -72 77 82 0
41 -72 -77 -82 0
-41 72 77 82 0
-41 72 -77 -82 0
-41 -72 77 -82 0
-41 -72 -77 82 0
17 50 64 -78 0
17 50 -64 78 0
17 -50 64 78 0
17 -50 -64 -78 0
-17 50 64 78 0
-17 50 -64 -78 0
-17 -50 64 -78 0
-17 -50 -64 78 0
4 59 -83 0
4 -59 83 0
-4 59 83 0
-4 -59 -83 0
56 76 100 116 0
56 76 -100 -116 0
56 -76 100 -116 0
56 -76 -100 116 0
-56 76 100 -116 0
-56 76 -100 116 0
-56 -76 100 116 0
-56 -76 -100 -116 0
48 77 -89 0
48 -77 89 0
-48 77 89 0
-48 -77 -89 0
3 7 65 -90 0
3 7 -65 90 0
3 -7 65 90 0
3 -7 -65 -90 0
-3 7 65 90 0
-3 7 -65 -90 0
-3 -7 65 -90 0
-3 -7 -65 90 0
58 62 77 -100 0
58 62 -77 100 0
58 -62 77 100 0
58 -62 -77 -100 0
-58 62 77 100 0
-58 62 -77 -100 0
-58 -62 77 -100 0
-58 -62 -77 100 0
46 78 112 -116 0
46 78 -112 116 0
46 -78 112 116 0
46 -78 -112 -116 0
-46 78 112 116 0
-46 78 -112 -116 0
-46 -78 112 -116 0
-46 -78 -112 116 0
88 89 107 116 0
88 89 -107 -116 0
88 -89 107 -116 0
88 -89 -107 116 0
-88 89 107 -116 0
-88 89 -107 116 0
-88 -89 107 116 0
-88 -89 -107 -116 0
79 93 105 0
79 -93 -105 0
-79 93 -105 0
-79 -93 105 0
3 12 34 93 0
3 12 -34 -93 0
3 -12 34 -93 0
3 -12 -34 93 0
-3 12 34 -93 0
-3 12 -34 93 0
-3 -12 34 93 0
-3 -12 -34 -93 0
37 113 126 0
37 -113 -126 0
-37 113 -126 0
-37 -113 126 0
28 37 41 0
28 -37 -41 0
-28 37 -41 0
-28 -37 41 0
4 11 22 0
4 -11 -22 0
-4 11 -22 0
-4 -11 22 0
18 61 73 108 0
18 61 -73 -108 0
18 -61 73 -108 0
18 -61 -73 108 0
-18 61 73 -108 0
-18 61 -73 108 0
-18 -61 73 108 0
-18 -61 -73 -108 0
2 76 88 -113 0
2 76 -88 113 0
2 -76 88 113 0
2 -76 -88 -113 0
-2 76 88 113 0
-2 76 -88 -113 0
-2 -76 88 -113 0
-2 -76 -88 113 0
3 80 101 -116 0
3 80 -101 116 0
3 -80 101 116 0
3 -80 -101 -116 0
-3 80 101 116 0
-3 80 -101 -116 0
-3 -80 101 -116 0
-3 -80 -101 116 0
30 57 99 0
30 -57 -99 0
-30 57 -99 0
-30 -57 99 0
64 83 124 0
64 -83 -124 0
-64 83 -124 0
-64 -83 124 0
34 67 -100 0
34 -67 100 0
-34 67 100 0
-34 -67 -100 0
27 72 91 98 0
27 72 -91 -98 0
27 -72 91 -98 0
27 -72 -91 98 0
-27 72 91 -98 0
-27 72 -91 98 0
-27 -72 91 98 0
-27 -72 -91 -98 0
18 52 115 0
18 -52 -115 0
-18 52 -115 0
-18 -52 115 0
7 87 92 0
7 -87 -92 0
-7 87 -92 0
-7 -87 92 0
74 91 116 -127 0
74 91 -116 127 0
74 -91 116 127 0
74 -91 -116 -127 0
-74 91 116 127 0
-74 91 -116 -127 0
-74 -91 116 -127 0
-74 -91 -116 127 0
36 85 96 0
36 -85 -96 0
-36 85 -96 0
-36 -85 96 0
2 29 -121 0
2 -29 121 0
-2 29 121 0
-2 -29 -121 0
61 81 119 -123 0
61 81 -119 123 0
61 -81 119 123 0
61 -81 -119 -123 0
-61 81 119 123 0
-61 81 -119 -123 0
-61 -81 119 -123 0
-61 -81 -119 123 0
73 81 103 108 0
73 81 -103 -108 0
73 -81 103 -108 0
73 -81 -103 108 0
-73 81 103 -108 0
-73 81 -103 108 0
-73 -81 103 108 0
-73 -81 -103 -108 0
8 49 92 119 0
8 49 -92 -119 0
8 -49 92 -119 0
8 -49 -92 119 0
-8 49 92 -119 0
-8 49 -92 119 0
-8 -49 92 119 0
-8 -49 -92 -119 0
2 104 107 -112 0
2 104 -107 112 0
2 -104 107 112 0
2 -104 -107 -112 0
-2 104 107 112 0
-2 104 -107 -112 0
-2 -104 107 -112 0
-2 -104 -107 112 0
27 74 82 -95 0
27 74 -82 95 0
27 -74 82 95 0
27 -74 -82 -95 0
-27 74 82 95 0
-27 74 -82 -95 0
-27 -74 82 -95 0
-27 -74 -82 95 0
6 32 -69 0
6 -32 69 0
-6 32 69 0
-6 -32 -69 0
9 35 40 83 0
9 35 -40 -83 0
9 -35 40 -83 0
9 -35 -40 83 0
-9 35 40 -83 0
-9 35 -40 83 0
-9 -35 40 83 0
-9 -35 -40 -83 0
97 107 113 0
97 -107 -113 0
-97 107 -113 0
-97 -107 113 0
1 45 66 0
1 -45 -66 0
-1 45 -66 0
-1 -45 66 0
7 25 96 0
7 -25 -96 0
-7 25 -96 0
-7 -25 96 0
18 54 80 0
18 -54 -80 0
-18 54 -80 0
-18 -54 80 0
9 11 81 93 0
9 11 -81 -93 0
9 -11 81 -93 0
9 -11 -81 93 0
-9 11 81 -93 0
-9 11 -81 93 0
-9 -11 81 93 0
-9 -11 -81 -93 0
37 41 61 0
37 -41 -61 0
-37 41 -61 0
-37 -41 61 0
8 32 82 -98 0
8 32 -82 98 0
8 -32 82 98 0
8 -32 -82 -98 0
-8 32 82 98 0
-8 32 -82 -98 0
-8 -32 82 -98 0
-8 -32 -82 98 0
30 45 75 -98 0
30 45 -75 98 0
30 -45 75 98 0
30 -45 -75 -98 0
-30 45 75 98 0
-30 45 -75 -98 0
-30 -45 75 -98 0
-30 -45 -75 98 0
13 34 54 97 0
13 34 -54 -97 0
13 -34 54 -97 0
13 -34 -54 97 0
-13 34 54 -97 0
-13 34 -54 97 0
-13 -34 54 97 0
-13 -34 -54 -97 0
5 21 45 91 0
5 21 -45 -91 0
5 -21 45 -91 0
5 -21 -45 91 0
-5 21 45 -91 0
-5 21 -45 91 0
-5 -21 45 91 0
-5 -21 -45 -91 0
30 41 48 -104 0
30 41 -48 104 0
30 -41 48 104 0
30 -41 -48 -104 0
-30 41 48 104 0
-30 41 -48 -104 0
-30 -41 48 -104 0
-30 -41 -48 104 0
51 83 -96 0
51 -83 96 0
-51 83 96 0
-51 -83 -96 0
21 77 -128 0
21 -77 128 0
-21 77 128 0
-21 -77 -128 0
82 90 111 115 0
82 90 -111 -115 0
82 -90 111 -115 0
82 -90 -111 115 0
-82 90 111 -115 0
-82 90 -111 115 0
-82 -90 111 115 0
-82 -90 -111 -115 0
24 63 65 -100 0
24 63 -65 100 0
24 -63 65 100 0
24 -63 -65 -100 0
-24 63 65 100 0
-24 63 -65 -100 0
-24 -63 65 -100 0
-24 -63 -65 100 0
31 34 89 0
31 -34 -89 0
-31 34 -89 0
-31 -34 89 0
15 42 63 0
15 -42 -63 0
-15 42 -63 0
-15 -42 63 0
3 20 45 -78 0
3 20 -45 78 0
3 -20 45 78 0
3 -20 -45 -78 0
-3 20 45 78 0
-3 20 -45 -78 0
-3 -20 45 -78 0
-3 -20 -45 78 0
44 47 99 114 0
44 47 -99 -114 0
44 -47 99 -114 0
44 -47 -99 114 0
-44 47 99 -114 0
-44 47 -99 114 0
-44 -47 99 114 0
-44 -47 -99 -114 0
86 99 125 0
86 -99 -125 0
-86 99 -125 0
-86 -99 125 0
1 48 82 -107 0
1 48 -82 107 0
1 -48 82 107 0
1 -48 -82 -107 0
-1 48 82 107 0
-1 48 -82 -107 0
-1 -48 82 -107 0
-1 -48 -82 107 0
13 52 101 114 0
13 52 -101 -114 0
13 -52 101 -114 0
13 -52 -101 114 0
-13 52 101 -114 0
-13 52 -101 114 0
-13 -52 101 114 0
-13 -52 -101 -114 0
20 41 74 109 0
20 41 -74 -109 0
20 -41 74 -109 0
20 -41 -74 109 0
-20 41 74 -109 0
-20 41 -74 109 0
-20 -41 74 109 0
-20 -41 -74 -109 0
27 52 -60 0
27 -52 60 0
-27 52 60 0
-27 -52 -60 0
2 89 112 118 0
2 89 -112 -118 0
2 -89 112 -118 0
2 -89 -112 118 0
-2 89 112 -118 0
-2 89 -112 118 0
-2 -89 112 118 0
-2 -89 -112 -118 0
36 39 -51 0
36 -39 51 0
-36 39 51 0
-36 -39 -51 0
21 36 51 125 0
21 36 -51 -125 0
21 -36 51 -125 0
21 -36 -51 125 0
-21 36 51 -125 0
-21 36 -51 125 0
-21 -36 51 125 0
-21 -36 -51 -125 0
32 37 113 0
32 -37 -113 0
-32 37 -113 0
-32 -37 113 0
2 71 -76 0
2 -71 76 0
-2 71 76 0
-2 -71 -76 0
11 59 -70 0
11 -59 70 0
-11 59 70 0
-11 -59 -70 0
29 49 75 94 0
29 49 -75 -94 0
29 -49 75 -94 0
29 -49 -75 94 0
-29 49 75 -94 0
-29 49 -75 94 0
-29 -49 75 94 0
-29 -49 -75 -94 0
11 60 76 97 0
11 60 -76 -97 0
11 -60 76 -97 0
11 -60 -76 97 0
-11 60 76 -97 0
-11 60 -76 97 0
-11 -60 76 97 0
-11 -60 -76 -97 0
11 33 108 111 0
11 33 -108 -111 0
11 -33 108 -111 0
11 -33 -108 111 0
-11 33 108 -111 0
-11 33 -108 111 0
-11 -33 108 111 0
-11 -33 -108 -111 0
5 58 126 0
5 -58 -126 0
-5 58 -126 0
-5 -58 126 0
21 83 108 -123 0
21 83 -108 123 0
21 -83 108 123 0
21 -83 -108 -123 0
-21 83 108 123 0
-21 83 -108 -123 0
-21 -83 108 -123 0
-21 -83 -108 123 0
45 59 88 -94 0
45 59 -88 94 0
45 -59 88 94 0
45 -59 -88 -94 0
-45 59 88 94 0
-45 59 -88 -94 0
-45 -59 88 -94 0
-45 -59 -88 94 0
13 28 118 0
13 -28 -118 0
-13 28 -118 0
-13 -28 118 0
1 10 15 -78 0
1 10 -15 78 0
1 -10 15 78 0
1 -10 -15 -78 0
-1 10 15 78 0
-1 10 -15 -78 0
-1 -10 15 -78 0
-1 -10 -15 78 0
12 18 42 -80 0
12 18 -42 80 0
12 -18 42 80 0
12 -18 -42 -80 0
-12 18 42 80 0
-12 18 -42 -80 0
-12 -18 42 -80 0
-12 -18 -42 80 0
14 42 -45 0
14 -42 45 0
-14 42 45 0
-14 -42 -45 0
13 44 51 -68 0
13 44 -51 68 0
13 -44 51 68 0
13 -44 -51 -68 0
-13 44 51 68 0
-13 44 -51 -68 0
-13 -44 51 -68 0
-13 -44 -51 68 0
31 37 45 -50 0
31 37 -45 50 0
31 -37 45 50 0
31 -37 -45 -50 0
-31 37 45 50 0
-31 37 -45 -50 0
-31 -37 45 -50 0
-31 -37 -45 50 0
20 30 45 79 0
20 30 -45 -79 0
20 -30 45 -79 0
20 -30 -45 79 0
-20 30 45 -79 0
-20 30 -45 79 0
-20 -30 45 79 0
-20 -30 -45 -79 0
1 27 55 0
1 -27 -55 0
-1 27 -55 0
-1 -27 55 0
66 73 88 127 0
66 73 -88 -127 0
66 -73 88 -127 0
66 -73 -88 127 0
-66 73 88 -127 0
-66 73 -88 127 0
-66 -73 88 127 0
-66 -73 -88 -127 0
6 13 16 90 0
6 13 -16 -90 0
6 -13 16 -90 0
6 -13 -16 90 0
-6 13 16 -90 0
-6 13 -16 90 0
-6 -13 16 90 0
-6 -13 -16 -90 0
25 72 121 0
25 -72 -121 0
-25 72 -121 0
-25 -72 121 0
16 42 99 0
16 -42 -99 0
-16 42 -99 0
-16 -42 99 0
13 20 21 -23 0
13 20 -21 23 0
13 -20 21 23 0
13 -20 -21 -23 0
-13 20 21 23 0
-13 20 -21 -23 0
-13 -20 21 -23 0
-13 -20 -21 23 0
23 26 46 55 0
23 26 -46 -55 0
23 -26 46 -55 0
23 -26 -46 55 0
-23 26 46 -55 0
-23 26 -46 55 0
-23 -26 46 55 0
-23 -26 -46 -55 0
4 68 -79 0
4 -68 79 0
-4 68 79 0
-4 -68 -79 0
46 51 113 0
46 -51 -113 0
-46 51 -113 0
-46 -51 113 0
23 33 -110 0
23 -33 110 0
-23 33 110 0
-23 -33 -110 0
31 33 60 -88 0
31 33 -60 88 0
31 -33 60 88 0
31 -33 -60 -88 0
-31 33 60 88 0
-31 33 -60 -88 0
-31 -33 60 -88 0
-31 -33 -60 88 0
36 52 105 -110 0
36 52 -105 110 0
36 -52 105 110 0
36 -52 -105 -110 0
-36 52 105 110 0
-36 52 -105 -110 0
-36 -52 105 -110 0
-36 -52 -105 110 0
32 60 -67 0
32 -60 67 0
-32 60 67 0
-32 -60 -67 0
77 84 88 110 0
77 84 -88 -110 0
77 -84 88 -110 0
77 -84 -88 110 0
-77 84 88 -110 0
-77 84 -88 110 0
-77 -84 88 110 0
-77 -84 -88 -110 0
1 27 72 -85 0
1 27 -72 85 0
1 -27 72 85 0
1 -27 -72 -85 0
-1 27 72 85 0
-1 27 -72 -85 0
-1 -27 72 -85 0
-1 -27 -72 85 0
42 78 90 -116 0
42 78 -90 116 0
42 -78 90 116 0
42 -78 -90 -116 0
-42 78 90 116 0
-42 78 -90 -116 0
-42 -78 90 -116 0
-42 -78 -90 116 0
10 15 128 0
10 -15 -128 0
-10 15 -128 0
-10 -15 128 0
42 53 63 -69 0
42 53 -63 69 0
42 -53 63 69 0
42 -53 -63 -69 0
-42 53 63 69 0
-42 53 -63 -69 0
-42 -53 63 -69 0
-42 -53 -63 69 0
15 17 95 122 0
15 17 -95 -122 0
15 -17 95 -122 0
15 -17 -95 122 0
-15 17 95 -122 0
-15 17 -95 122 0
-15 -17 95 122 0
-15 -17 -95 -122 0
