c description: Random 3-CNF over 200 variables and 850 clauses
c generator: CNFgen (0.9.5)
c copyright: (C) 2012-2026 Massimo Lauria <massimo.lauria@uniroma1.it>
c url: https://massimolauria.net/cnfgen
c random seed: 1002
c command line: cnfgen -S 1002 randkcnf 3 200 850
c
p cnf 200 850
108 134 153 0
33 -72 124 0
-11 58 62 0
-42 -150 -194 0
-21 -135 149 0
26 110 -184 0
-40 81 -156 0
22 135 141 0
22 -110 196 0
7 69 127 0
29 183 193 0
3 -13 -61 0
102 -121 163 0
-7 101 137 0
-23 -71 148 0
86 97 -142 0
-22 109 132 0
-151 166 168 0
-50 -98 -148 0
-78 164 181 0
-5 -36 67 0
-164 -172 -185 0
115 -175 -198 0
-21 58 122 0
27 -44 -156 0
44 -67 69 0
55 76 172 0
-34 -61 -189 0
-63 -107 148 0
-88 148 175 0
87 123 -156 0
18 105 -119 0
33 -118 -182 0
-44 146 188 0
-1 -38 -152 0
10 114 -124 0
-18 65 -94 0
22 -79 -167 0
16 99 116 0
33 -125 -131 0
54 -70 153 0
21 -47 -153 0
8 170 196 0
65 109 157 0
-8 89 115 0
10 182 189 0
-1 16 121 0
84 -191 200 0
11 40 -129 0
52 -126 -185 0
-138 -149 -157 0
99 132 172 0
1 20 -195 0
-42 -120 -140 0
-39 134 -198 0
20 -22 -168 0
130 133 149 0
12 -68 77 0
-4 56 -94 0
-59 -118 121 0
-39 -160 -162 0
-2 -9 33 0
70 -133 169 0
-9 53 -135 0
9 65 141 0
-35 -121 127 0
-72 -106 110 0
6 -140 -151 0
34 -168 181 0
-20 31 158 0
80 125 -198 0
-8 -151 -152 0
68 -82 96 0
-15 -73 -153 0
-37 74 153 0
-87 115 -177 0
-30 98 -194 0
-87 -88 -131 0
-174 -182 -198 0
79 -98 -131 0
38 -50 -116 0
40 -120 171 0
28 48 75 0
83 -106 -158 0
-96 -157 194 0
96 -121 140 0
7 -38 56 0
46 -62 -196 0
-27 81 102 0
-151 174 -183 0
-175 -185 -194 0
-5 45 73 0
-42 82 -94 0
69 137 -173 0
17 -36 -138 0
-68 -81 175 0
65 159 -174 0
19 157 195 0
-72 -158 -166 0
-8 -121 -189 0
-83 119 -127 0
57 -111 -198 0
48 -53 166 0
-1 -6 -87 0
-18 -97 -189 0
-41 66 186 0
-136 141 -152 0
18 -160 161 0
-78 127 161 0
-71 -75 -188 0
102 169 -178 0
37 50 -64 0
-95 107 151 0
70 -94 130 0
22 59 182 0
92 -93 -138 0
30 150 158 0
45 91 -196 0
75 -126 181 0
83 149 -155 0
-16 65 136 0
-3 54 56 0
-23 -67 -169 0
-102 185 197 0
23 -125 -163 0
69 -149 193 0
-30 -89 -142 0
14 -131 182 0
86 94 126 0
-60 -83 187 0
-1 -7 78 0
-29 -152 -199 0
-136 -148 154 0
68 -102 -197 0
-33 183 -200 0
-1 -96 166 0
73 -184 -196 0
-27 71 123 0
119 -141 184 0
-9 12 102 0
-64 150 157 0
36 122 132 0
-16 40 57 0
-28 -87 150 0
54 -131 -157 0
-46 -72 -158 0
-105 -136 153 0
-23 60 -156 0
-26 117 118 0
48 -117 180 0
27 -107 115 0
-115 133 188 0
-103 -165 181 0
-26 -100 -106 0
-86 -90 -171 0
-20 -137 -177 0
22 -64 67 0
40 -98 -125 0
61 78 -180 0
-13 153 184 0
-71 -107 -184 0
21 94 -200 0
49 -90 112 0
-76 -91 172 0
24 66 187 0
6 45 165 0
-69 76 -107 0
-6 77 -174 0
-105 -134 164 0
89 -130 186 0
56 72 -134 0
-9 -40 -142 0
-61 129 189 0
-102 -172 -184 0
-32 66 -86 0
-11 19 184 0
-75 -171 -180 0
-26 66 -99 0
31 -44 -180 0
-35 -53 -149 0
-122 -162 -177 0
34 -52 -151 0
84 -120 154 0
-67 166 -190 0
43 68 -131 0
-2 145 198 0
92 -169 177 0
63 -93 -138 0
30 54 179 0
-2 56 138 0
66 67 -163 0
-78 -110 140 0
-89 -145 183 0
-128 -181 -182 0
-30 -109 -193 0
105 118 -141 0
-53 -54 196 0
4 124 198 0
38 -67 -114 0
48 110 -195 0
9 -84 199 0
5 -129 -172 0
-135 -172 193 0
37 -112 163 0
77 -138 -178 0
-20 -56 175 0
-86 103 175 0
1 -27 -160 0
-20 -138 200 0
-53 -68 112 0
119 -146 165 0
-43 -152 -197 0
-11 98 -200 0
21 56 -63 0
-4 176 -191 0
-5 58 -125 0
-26 51 174 0
-17 -131 -193 0
22 -35 96 0
-11 -33 40 0
26 55 -174 0
16 63 -140 0
-78 116 -175 0
-11 79 196 0
97 100 191 0
-96 -196 -197 0
64 -68 -159 0
21 -105 158 0
-81 108 -190 0
-10 -145 -167 0
-4 15 78 0
-58 93 161 0
-30 -145 -161 0
-56 126 136 0
4 -101 135 0
-19 -122 162 0
147 174 181 0
-135 -136 172 0
-68 101 149 0
-111 -119 171 0
-100 102 -106 0
12 -32 199 0
-62 -87 -134 0
-59 -164 -169 0
67 -89 -180 0
113 -140 196 0
50 -97 167 0
77 -141 -161 0
-4 -59 -111 0
41 52 -104 0
50 -186 -192 0
70 85 -194 0
-6 36 180 0
76 -96 116 0
-79 82 -193 0
-9 99 -176 0
-26 62 -193 0
53 82 159 0
-46 59 171 0
145 -162 187 0
13 -88 150 0
89 143 182 0
30 41 91 0
-28 57 -121 0
-56 114 151 0
10 -60 150 0
67 -140 -174 0
-2 110 -118 0
5 -95 -144 0
-3 113 -119 0
75 -91 -168 0
44 149 174 0
94 -116 189 0
48 -117 -173 0
142 143 -159 0
6 18 87 0
-5 36 -143 0
23 155 198 0
5 -38 77 0
49 170 175 0
41 169 -185 0
-94 -113 -146 0
87 -121 148 0
-83 -101 175 0
-57 -76 -128 0
13 44 193 0
26 163 177 0
63 -97 -176 0
-61 -137 -153 0
-18 190 197 0
106 170 181 0
-33 189 -191 0
58 -119 140 0
73 -101 119 0
-15 -97 -188 0
10 -107 128 0
131 175 200 0
13 24 -38 0
-15 170 -179 0
-34 -91 163 0
-6 -19 -58 0
14 55 60 0
8 -187 188 0
-62 111 -134 0
104 163 -179 0
64 141 146 0
58 -135 157 0
-3 -5 -44 0
-106 -126 185 0
17 -141 -145 0
-11 27 178 0
11 87 193 0
92 131 -168 0
-166 -192 198 0
53 -58 -90 0
9 -13 -22 0
152 -160 186 0
-53 -168 179 0
121 -129 -158 0
-10 -78 -148 0
52 153 -178 0
19 -79 136 0
-79 129 166 0
-15 -43 53 0
-9 -166 -200 0
-46 -120 141 0
-14 137 172 0
-98 103 -132 0
-77 147 -181 0
20 156 -166 0
-2 67 175 0
71 106 -113 0
19 59 -108 0
23 106 117 0
23 121 -133 0
84 119 -175 0
-31 -122 176 0
13 -24 68 0
57 123 -140 0
-1 22 -56 0
129 190 191 0
68 -106 -184 0
46 -66 -67 0
28 29 123 0
-112 -118 -199 0
48 88 111 0
-18 73 -111 0
-62 -171 192 0
37 -175 -194 0
-25 -29 -197 0
13 15 -116 0
-6 57 64 0
-175 -176 185 0
-52 -59 113 0
-38 114 -142 0
82 149 150 0
-18 -55 -82 0
-111 -181 -194 0
18 27 -71 0
47 63 136 0
64 80 176 0
-9 48 -139 0
-37 -107 -196 0
-43 -143 197 0
65 -66 190 0
-58 -131 200 0
4 -130 -170 0
24 -106 129 0
-4 -76 -184 0
-30 -33 166 0
-109 -157 164 0
-12 114 -141 0
-14 -63 158 0
-7 47 157 0
-83 153 180 0
-68 -117 -130 0
55 109 -170 0
-14 -121 197 0
-6 52 -158 0
-5 -41 170 0
-11 36 -128 0
51 -150 189 0
66 158 -190 0
32 83 -117 0
-31 -85 197 0
-40 -57 139 0
-28 33 -117 0
28 -78 -85 0
58 102 -125 0
-48 148 191 0
115 129 -178 0
127 -195 199 0
47 68 -188 0
41 -135 -190 0
6 44 -187 0
-47 66 137 0
137 -151 196 0
38 -71 -192 0
-11 46 155 0
-12 -71 -109 0
24 -77 175 0
32 -57 -132 0
-70 79 90 0
10 44 -91 0
-127 141 154 0
-25 57 162 0
68 -107 132 0
-141 194 197 0
14 163 170 0
-146 155 -178 0
45 100 172 0
18 -116 194 0
16 -113 194 0
-63 148 -168 0
24 -194 198 0
-30 31 76 0
114 170 -192 0
-12 42 -129 0
-53 74 -155 0
62 137 183 0
78 89 126 0
-17 -137 159 0
-98 -120 -181 0
-34 103 -180 0
6 -168 184 0
-124 -130 -177 0
-36 -39 -114 0
-134 -140 176 0
67 72 133 0
-48 120 -148 0
5 -62 86 0
-1 -89 159 0
43 86 160 0
37 122 156 0
52 -81 -175 0
-13 39 -89 0
-21 67 -152 0
-39 -124 177 0
-21 -107 -174 0
-73 -97 98 0
-33 47 -168 0
-85 160 -178 0
-144 168 -170 0
3 61 73 0
-39 139 -161 0
83 132 139 0
-23 -42 -189 0
-82 112 -174 0
34 -58 114 0
-67 -137 180 0
-2 -6 157 0
-154 -175 -185 0
4 -152 175 0
-43 -56 -105 0
-2 111 -130 0
23 -97 -146 0
20 73 147 0
-118 144 -163 0
-3 -146 -197 0
35 42 98 0
-12 148 184 0
-111 -125 -179 0
-1 22 -183 0
9 -132 -187 0
19 139 -163 0
41 125 -153 0
-16 25 85 0
-11 73 -106 0
-118 120 189 0
-140 156 163 0
-31 77 109 0
-101 -106 178 0
-11 -31 61 0
55 -125 136 0
19 37 -114 0
-30 -51 -138 0
4 59 142 0
18 22 -146 0
20 141 -170 0
1 29 -148 0
43 -76 -164 0
63 -69 -177 0
9 41 -48 0
-15 126 -200 0
-91 -149 187 0
-26 -52 101 0
24 -68 -93 0
45 122 -145 0
-26 46 65 0
88 109 128 0
-47 164 -191 0
24 75 100 0
-13 160 164 0
-9 -104 132 0
68 91 175 0
33 36 165 0
-49 185 -199 0
-15 58 90 0
136 138 182 0
50 92 164 0
-91 -119 -152 0
-32 39 114 0
98 142 -182 0
9 88 135 0
-122 -138 157 0
-25 43 -78 0
78 -93 -120 0
-48 109 -189 0
118 174 199 0
9 78 134 0
93 153 -180 0
-14 99 -172 0
93 110 134 0
51 -109 -153 0
-138 -146 -180 0
66 -69 -103 0
-91 160 194 0
-74 -144 -198 0
14 -123 -190 0
-84 -127 -186 0
-114 119 -121 0
6 -34 60 0
81 -162 164 0
32 -163 168 0
123 -132 -196 0
-26 90 -187 0
-49 60 -116 0
59 104 122 0
-67 95 105 0
-6 -129 149 0
-25 30 92 0
5 47 196 0
-4 -17 149 0
36 108 198 0
-74 -113 151 0
48 -137 180 0
31 -54 -58 0
64 91 94 0
-12 148 -190 0
-10 -68 -162 0
91 155 -180 0
-22 -47 192 0
14 -129 153 0
-4 -45 -185 0
-34 -85 156 0
55 59 -113 0
27 -47 -136 0
86 185 -192 0
15 -86 200 0
-36 -138 176 0
-133 -137 -193 0
91 130 134 0
-124 162 -186 0
5 -116 -188 0
39 -128 197 0
104 174 -181 0
91 -179 199 0
-20 -41 93 0
-13 35 149 0
50 145 185 0
-9 15 -174 0
81 -105 108 0
2 101 -186 0
52 -121 -146 0
46 -73 -141 0
108 154 -161 0
3 49 199 0
137 -150 -198 0
53 -62 117 0
-78 86 -145 0
9 17 -178 0
58 -103 -191 0
11 -162 -181 0
34 91 125 0
50 -70 143 0
-27 -62 -79 0
108 -110 -123 0
24 85 -160 0
-44 183 -199 0
-24 183 200 0
63 70 -141 0
54 126 -152 0
-84 -87 186 0
-37 45 -46 0
-55 -85 -132 0
81 148 -182 0
65 128 -141 0
53 -78 105 0
69 -96 158 0
25 -132 135 0
9 -24 -140 0
-24 168 -181 0
-5 76 140 0
45 -158 -196 0
-154 -162 -165 0
21 69 129 0
102 125 133 0
-28 -147 190 0
92 -104 131 0
8 -177 -193 0
67 102 169 0
57 -112 163 0
148 -171 -189 0
5 -36 -134 0
-124 183 194 0
35 57 173 0
1 108 166 0
1 54 113 0
-30 -36 120 0
-58 60 124 0
-51 53 -117 0
11 -88 138 0
-32 79 -160 0
-104 -149 -150 0
-41 -75 -151 0
-42 78 131 0
56 69 -192 0
-39 67 165 0
-120 158 -168 0
-28 35 142 0
-3 126 144 0
-49 127 -188 0
47 -86 -104 0
46 78 102 0
9 -113 -149 0
-41 -134 190 0
-6 77 -93 0
-94 127 150 0
-84 -138 188 0
18 79 -178 0
48 -56 63 0
58 -89 -95 0
53 145 -170 0
34 53 -141 0
-37 -162 -186 0
26 75 95 0
-20 127 -134 0
113 -129 -197 0
-148 -194 196 0
125 138 177 0
-46 165 -199 0
-61 64 -130 0
32 109 136 0
18 30 -36 0
41 105 184 0
7 53 77 0
3 -27 -142 0
83 -84 -140 0
-39 -47 54 0
-5 -19 -146 0
-14 124 166 0
44 142 163 0
32 -92 168 0
92 -109 -143 0
-27 71 -198 0
67 103 -182 0
158 -170 198 0
-18 101 137 0
-122 -128 -168 0
-1 107 -164 0
12 15 -20 0
3 135 -174 0
-147 -181 187 0
13 40 -120 0
53 89 -110 0
104 105 -143 0
-51 -147 -170 0
-33 68 188 0
4 -134 -196 0
47 -86 -121 0
78 121 123 0
15 26 -33 0
23 153 187 0
31 -161 -167 0
-38 -193 199 0
73 -79 -110 0
19 31 108 0
-133 162 183 0
35 69 -123 0
86 129 -147 0
-11 13 85 0
57 -161 -179 0
39 78 -175 0
-26 38 120 0
65 -117 -182 0
77 -162 187 0
40 -55 -61 0
37 -41 76 0
22 46 66 0
-24 81 -128 0
18 51 -178 0
91 178 196 0
-29 -120 -134 0
41 81 172 0
-42 63 -116 0
-5 42 -188 0
-7 61 175 0
-83 -84 195 0
-42 50 -92 0
47 129 141 0
-72 -108 -154 0
43 50 -141 0
31 114 -200 0
-45 68 -200 0
-44 62 63 0
11 147 -160 0
-35 44 -153 0
-47 -66 -115 0
59 -80 94 0
12 166 -180 0
-135 -138 -188 0
-34 -76 -156 0
59 152 198 0
-26 -39 52 0
-59 112 139 0
-70 -72 -179 0
22 -129 -144 0
50 152 -173 0
-30 -88 98 0
3 169 -186 0
-13 -113 -120 0
-49 126 -188 0
60 93 -126 0
-95 -137 196 0
60 64 -181 0
-65 70 -153 0
25 53 -178 0
29 90 -164 0
-76 -81 -114 0
7 36 171 0
50 130 194 0
51 -142 165 0
-92 111 -128 0
-4 35 180 0
-25 45 103 0
-49 -51 82 0
39 109 153 0
-51 -96 -200 0
-52 -118 135 0
28 -153 -180 0
-87 -144 161 0
20 -136 158 0
36 -38 -198 0
1 -38 195 0
17 -133 -173 0
-21 -83 -94 0
-59 -62 157 0
-90 147 -178 0
88 128 174 0
-9 110 119 0
96 -137 200 0
-15 -129 -182 0
-11 75 106 0
-34 138 -182 0
-41 -95 113 0
3 -125 187 0
-2 142 -181 0
57 -119 184 0
-34 74 -200 0
-70 122 155 0
-90 -127 -169 0
124 140 177 0
37 53 60 0
79 98 -173 0
97 -136 165 0
-29 -53 -95 0
-49 101 -167 0
91 -147 167 0
-23 -116 156 0
-151 -156 -177 0
-66 105 149 0
-13 141 197 0
66 -117 -154 0
-47 50 -68 0
-115 167 170 0
29 109 164 0
3 -76 -115 0
50 71 135 0
-40 -55 -133 0
65 -67 -133 0
-32 -155 -156 0
-92 124 -185 0
-69 106 173 0
5 35 -106 0
-57 -147 158 0
74 -85 -91 0
-64 -162 -193 0
30 -49 188 0
-46 -157 169 0
-80 -139 155 0
23 -61 -194 0
32 95 163 0
17 -68 183 0
-120 128 179 0
27 -53 -141 0
32 109 121 0
-29 -70 96 0
5 -16 18 0
38 111 -200 0
-39 131 -158 0
1 -147 161 0
16 37 41 0
8 14 -144 0
143 147 -189 0
-92 -122 -191 0
-80 -118 133 0
-59 -92 183 0
-86 106 149 0
21 -152 -161 0
-54 -93 194 0
-26 80 114 0
-58 84 -92 0
-10 97 183 0
-33 -151 178 0
-51 76 -96 0
-144 -157 171 0
129 -145 -166 0
25 -121 183 0
-64 -67 -174 0
-24 31 124 0
-17 82 -90 0
-18 77 132 0
43 -137 183 0
-47 -175 194 0
102 -115 126 0
93 132 -135 0
-10 -117 169 0
-110 -128 185 0
12 -80 -136 0
46 56 -79 0
28 -54 -161 0
-73 -125 175 0
-13 -35 -132 0
26 -50 -102 0
74 149 -197 0
-98 -114 -138 0
30 155 -182 0
-53 64 200 0
5 -90 98 0
-4 149 -154 0
-87 -146 163 0
43 90 -166 0
77 -171 179 0
-35 -126 140 0
-3 171 -177 0
-21 62 -184 0
-1 -2 -88 0
93 153 193 0
87 187 -190 0
-28 -112 -120 0
