c family: ordering principle
c known_status: UNSAT
c difficulty_level: stress
c description: stress ordering-principle formula
c generated: deterministic complex CNF training pack
p cnf 190 6860
-1 -2 -3 -4 -5 -6 -7 -8 -9 -10 -11 -12 -13 -14 -15 -16 -17 -18 -19 0
1 -20 -21 -22 -23 -24 -25 -26 -27 -28 -29 -30 -31 -32 -33 -34 -35 -36 -37 0
2 20 -38 -39 -40 -41 -42 -43 -44 -45 -46 -47 -48 -49 -50 -51 -52 -53 -54 0
3 21 38 -55 -56 -57 -58 -59 -60 -61 -62 -63 -64 -65 -66 -67 -68 -69 -70 0
4 22 39 55 -71 -72 -73 -74 -75 -76 -77 -78 -79 -80 -81 -82 -83 -84 -85 0
5 23 40 56 71 -86 -87 -88 -89 -90 -91 -92 -93 -94 -95 -96 -97 -98 -99 0
6 24 41 57 72 86 -100 -101 -102 -103 -104 -105 -106 -107 -108 -109 -110 -111 -112 0
7 25 42 58 73 87 100 -113 -114 -115 -116 -117 -118 -119 -120 -121 -122 -123 -124 0
8 26 43 59 74 88 101 113 -125 -126 -127 -128 -129 -130 -131 -132 -133 -134 -135 0
9 27 44 60 75 89 102 114 125 -136 -137 -138 -139 -140 -141 -142 -143 -144 -145 0
10 28 45 61 76 90 103 115 126 136 -146 -147 -148 -149 -150 -151 -152 -153 -154 0
11 29 46 62 77 91 104 116 127 137 146 -155 -156 -157 -158 -159 -160 -161 -162 0
12 30 47 63 78 92 105 117 128 138 147 155 -163 -164 -165 -166 -167 -168 -169 0
13 31 48 64 79 93 106 118 129 139 148 156 163 -170 -171 -172 -173 -174 -175 0
14 32 49 65 80 94 107 119 130 140 149 157 164 170 -176 -177 -178 -179 -180 0
15 33 50 66 81 95 108 120 131 141 150 158 165 171 176 -181 -182 -183 -184 0
16 34 51 67 82 96 109 121 132 142 151 159 166 172 177 181 -185 -186 -187 0
17 35 52 68 83 97 110 122 133 143 152 160 167 173 178 182 185 -188 -189 0
18 36 53 69 84 98 111 123 134 144 153 161 168 174 179 183 186 188 -190 0
19 37 54 70 85 99 112 124 135 145 154 162 169 175 180 184 187 189 190 0
-1 -20 2 0
-1 -21 3 0
-1 -22 4 0
-1 -23 5 0
-1 -24 6 0
-1 -25 7 0
-1 -26 8 0
-1 -27 9 0
-1 -28 10 0
-1 -29 11 0
-1 -30 12 0
-1 -31 13 0
-1 -32 14 0
-1 -33 15 0
-1 -34 16 0
-1 -35 17 0
-1 -36 18 0
-1 -37 19 0
-2 20 1 0
-2 -38 3 0
-2 -39 4 0
-2 -40 5 0
-2 -41 6 0
-2 -42 7 0
-2 -43 8 0
-2 -44 9 0
-2 -45 10 0
-2 -46 11 0
-2 -47 12 0
-2 -48 13 0
-2 -49 14 0
-2 -50 15 0
-2 -51 16 0
-2 -52 17 0
-2 -53 18 0
-2 -54 19 0
-3 21 1 0
-3 38 2 0
-3 -55 4 0
-3 -56 5 0
-3 -57 6 0
-3 -58 7 0
-3 -59 8 0
-3 -60 9 0
-3 -61 10 0
-3 -62 11 0
-3 -63 12 0
-3 -64 13 0
-3 -65 14 0
-3 -66 15 0
-3 -67 16 0
-3 -68 17 0
-3 -69 18 0
-3 -70 19 0
-4 22 1 0
-4 39 2 0
-4 55 3 0
-4 -71 5 0
-4 -72 6 0
-4 -73 7 0
-4 -74 8 0
-4 -75 9 0
-4 -76 10 0
-4 -77 11 0
-4 -78 12 0
-4 -79 13 0
-4 -80 14 0
-4 -81 15 0
-4 -82 16 0
-4 -83 17 0
-4 -84 18 0
-4 -85 19 0
-5 23 1 0
-5 40 2 0
-5 56 3 0
-5 71 4 0
-5 -86 6 0
-5 -87 7 0
-5 -88 8 0
-5 -89 9 0
-5 -90 10 0
-5 -91 11 0
-5 -92 12 0
-5 -93 13 0
-5 -94 14 0
-5 -95 15 0
-5 -96 16 0
-5 -97 17 0
-5 -98 18 0
-5 -99 19 0
-6 24 1 0
-6 41 2 0
-6 57 3 0
-6 72 4 0
-6 86 5 0
-6 -100 7 0
-6 -101 8 0
-6 -102 9 0
-6 -103 10 0
-6 -104 11 0
-6 -105 12 0
-6 -106 13 0
-6 -107 14 0
-6 -108 15 0
-6 -109 16 0
-6 -110 17 0
-6 -111 18 0
-6 -112 19 0
-7 25 1 0
-7 42 2 0
-7 58 3 0
-7 73 4 0
-7 87 5 0
-7 100 6 0
-7 -113 8 0
-7 -114 9 0
-7 -115 10 0
-7 -116 11 0
-7 -117 12 0
-7 -118 13 0
-7 -119 14 0
-7 -120 15 0
-7 -121 16 0
-7 -122 17 0
-7 -123 18 0
-7 -124 19 0
-8 26 1 0
-8 43 2 0
-8 59 3 0
-8 74 4 0
-8 88 5 0
-8 101 6 0
-8 113 7 0
-8 -125 9 0
-8 -126 10 0
-8 -127 11 0
-8 -128 12 0
-8 -129 13 0
-8 -130 14 0
-8 -131 15 0
-8 -132 16 0
-8 -133 17 0
-8 -134 18 0
-8 -135 19 0
-9 27 1 0
-9 44 2 0
-9 60 3 0
-9 75 4 0
-9 89 5 0
-9 102 6 0
-9 114 7 0
-9 125 8 0
-9 -136 10 0
-9 -137 11 0
-9 -138 12 0
-9 -139 13 0
-9 -140 14 0
-9 -141 15 0
-9 -142 16 0
-9 -143 17 0
-9 -144 18 0
-9 -145 19 0
-10 28 1 0
-10 45 2 0
-10 61 3 0
-10 76 4 0
-10 90 5 0
-10 103 6 0
-10 115 7 0
-10 126 8 0
-10 136 9 0
-10 -146 11 0
-10 -147 12 0
-10 -148 13 0
-10 -149 14 0
-10 -150 15 0
-10 -151 16 0
-10 -152 17 0
-10 -153 18 0
-10 -154 19 0
-11 29 1 0
-11 46 2 0
-11 62 3 0
-11 77 4 0
-11 91 5 0
-11 104 6 0
-11 116 7 0
-11 127 8 0
-11 137 9 0
-11 146 10 0
-11 -155 12 0
-11 -156 13 0
-11 -157 14 0
-11 -158 15 0
-11 -159 16 0
-11 -160 17 0
-11 -161 18 0
-11 -162 19 0
-12 30 1 0
-12 47 2 0
-12 63 3 0
-12 78 4 0
-12 92 5 0
-12 105 6 0
-12 117 7 0
-12 128 8 0
-12 138 9 0
-12 147 10 0
-12 155 11 0
-12 -163 13 0
-12 -164 14 0
-12 -165 15 0
-12 -166 16 0
-12 -167 17 0
-12 -168 18 0
-12 -169 19 0
-13 31 1 0
-13 48 2 0
-13 64 3 0
-13 79 4 0
-13 93 5 0
-13 106 6 0
-13 118 7 0
-13 129 8 0
-13 139 9 0
-13 148 10 0
-13 156 11 0
-13 163 12 0
-13 -170 14 0
-13 -171 15 0
-13 -172 16 0
-13 -173 17 0
-13 -174 18 0
-13 -175 19 0
-14 32 1 0
-14 49 2 0
-14 65 3 0
-14 80 4 0
-14 94 5 0
-14 107 6 0
-14 119 7 0
-14 130 8 0
-14 140 9 0
-14 149 10 0
-14 157 11 0
-14 164 12 0
-14 170 13 0
-14 -176 15 0
-14 -177 16 0
-14 -178 17 0
-14 -179 18 0
-14 -180 19 0
-15 33 1 0
-15 50 2 0
-15 66 3 0
-15 81 4 0
-15 95 5 0
-15 108 6 0
-15 120 7 0
-15 131 8 0
-15 141 9 0
-15 150 10 0
-15 158 11 0
-15 165 12 0
-15 171 13 0
-15 176 14 0
-15 -181 16 0
-15 -182 17 0
-15 -183 18 0
-15 -184 19 0
-16 34 1 0
-16 51 2 0
-16 67 3 0
-16 82 4 0
-16 96 5 0
-16 109 6 0
-16 121 7 0
-16 132 8 0
-16 142 9 0
-16 151 10 0
-16 159 11 0
-16 166 12 0
-16 172 13 0
-16 177 14 0
-16 181 15 0
-16 -185 17 0
-16 -186 18 0
-16 -187 19 0
-17 35 1 0
-17 52 2 0
-17 68 3 0
-17 83 4 0
-17 97 5 0
-17 110 6 0
-17 122 7 0
-17 133 8 0
-17 143 9 0
-17 152 10 0
-17 160 11 0
-17 167 12 0
-17 173 13 0
-17 178 14 0
-17 182 15 0
-17 185 16 0
-17 -188 18 0
-17 -189 19 0
-18 36 1 0
-18 53 2 0
-18 69 3 0
-18 84 4 0
-18 98 5 0
-18 111 6 0
-18 123 7 0
-18 134 8 0
-18 144 9 0
-18 153 10 0
-18 161 11 0
-18 168 12 0
-18 174 13 0
-18 179 14 0
-18 183 15 0
-18 186 16 0
-18 188 17 0
-18 -190 19 0
-19 37 1 0
-19 54 2 0
-19 70 3 0
-19 85 4 0
-19 99 5 0
-19 112 6 0
-19 124 7 0
-19 135 8 0
-19 145 9 0
-19 154 10 0
-19 162 11 0
-19 169 12 0
-19 175 13 0
-19 180 14 0
-19 184 15 0
-19 187 16 0
-19 189 17 0
-19 190 18 0
1 -2 20 0
1 -3 21 0
1 -4 22 0
1 -5 23 0
1 -6 24 0
1 -7 25 0
1 -8 26 0
1 -9 27 0
1 -10 28 0
1 -11 29 0
1 -12 30 0
1 -13 31 0
1 -14 32 0
1 -15 33 0
1 -16 34 0
1 -17 35 0
1 -18 36 0
1 -19 37 0
-20 2 -1 0
-20 -38 21 0
-20 -39 22 0
-20 -40 23 0
-20 -41 24 0
-20 -42 25 0
-20 -43 26 0
-20 -44 27 0
-20 -45 28 0
-20 -46 29 0
-20 -47 30 0
-20 -48 31 0
-20 -49 32 0
-20 -50 33 0
-20 -51 34 0
-20 -52 35 0
-20 -53 36 0
-20 -54 37 0
-21 3 -1 0
-21 38 20 0
-21 -55 22 0
-21 -56 23 0
-21 -57 24 0
-21 -58 25 0
-21 -59 26 0
-21 -60 27 0
-21 -61 28 0
-21 -62 29 0
-21 -63 30 0
-21 -64 31 0
-21 -65 32 0
-21 -66 33 0
-21 -67 34 0
-21 -68 35 0
-21 -69 36 0
-21 -70 37 0
-22 4 -1 0
-22 39 20 0
-22 55 21 0
-22 -71 23 0
-22 -72 24 0
-22 -73 25 0
-22 -74 26 0
-22 -75 27 0
-22 -76 28 0
-22 -77 29 0
-22 -78 30 0
-22 -79 31 0
-22 -80 32 0
-22 -81 33 0
-22 -82 34 0
-22 -83 35 0
-22 -84 36 0
-22 -85 37 0
-23 5 -1 0
-23 40 20 0
-23 56 21 0
-23 71 22 0
-23 -86 24 0
-23 -87 25 0
-23 -88 26 0
-23 -89 27 0
-23 -90 28 0
-23 -91 29 0
-23 -92 30 0
-23 -93 31 0
-23 -94 32 0
-23 -95 33 0
-23 -96 34 0
-23 -97 35 0
-23 -98 36 0
-23 -99 37 0
-24 6 -1 0
-24 41 20 0
-24 57 21 0
-24 72 22 0
-24 86 23 0
-24 -100 25 0
-24 -101 26 0
-24 -102 27 0
-24 -103 28 0
-24 -104 29 0
-24 -105 30 0
-24 -106 31 0
-24 -107 32 0
-24 -108 33 0
-24 -109 34 0
-24 -110 35 0
-24 -111 36 0
-24 -112 37 0
-25 7 -1 0
-25 42 20 0
-25 58 21 0
-25 73 22 0
-25 87 23 0
-25 100 24 0
-25 -113 26 0
-25 -114 27 0
-25 -115 28 0
-25 -116 29 0
-25 -117 30 0
-25 -118 31 0
-25 -119 32 0
-25 -120 33 0
-25 -121 34 0
-25 -122 35 0
-25 -123 36 0
-25 -124 37 0
-26 8 -1 0
-26 43 20 0
-26 59 21 0
-26 74 22 0
-26 88 23 0
-26 101 24 0
-26 113 25 0
-26 -125 27 0
-26 -126 28 0
-26 -127 29 0
-26 -128 30 0
-26 -129 31 0
-26 -130 32 0
-26 -131 33 0
-26 -132 34 0
-26 -133 35 0
-26 -134 36 0
-26 -135 37 0
-27 9 -1 0
-27 44 20 0
-27 60 21 0
-27 75 22 0
-27 89 23 0
-27 102 24 0
-27 114 25 0
-27 125 26 0
-27 -136 28 0
-27 -137 29 0
-27 -138 30 0
-27 -139 31 0
-27 -140 32 0
-27 -141 33 0
-27 -142 34 0
-27 -143 35 0
-27 -144 36 0
-27 -145 37 0
-28 10 -1 0
-28 45 20 0
-28 61 21 0
-28 76 22 0
-28 90 23 0
-28 103 24 0
-28 115 25 0
-28 126 26 0
-28 136 27 0
-28 -146 29 0
-28 -147 30 0
-28 -148 31 0
-28 -149 32 0
-28 -150 33 0
-28 -151 34 0
-28 -152 35 0
-28 -153 36 0
-28 -154 37 0
-29 11 -1 0
-29 46 20 0
-29 62 21 0
-29 77 22 0
-29 91 23 0
-29 104 24 0
-29 116 25 0
-29 127 26 0
-29 137 27 0
-29 146 28 0
-29 -155 30 0
-29 -156 31 0
-29 -157 32 0
-29 -158 33 0
-29 -159 34 0
-29 -160 35 0
-29 -161 36 0
-29 -162 37 0
-30 12 -1 0
-30 47 20 0
-30 63 21 0
-30 78 22 0
-30 92 23 0
-30 105 24 0
-30 117 25 0
-30 128 26 0
-30 138 27 0
-30 147 28 0
-30 155 29 0
-30 -163 31 0
-30 -164 32 0
-30 -165 33 0
-30 -166 34 0
-30 -167 35 0
-30 -168 36 0
-30 -169 37 0
-31 13 -1 0
-31 48 20 0
-31 64 21 0
-31 79 22 0
-31 93 23 0
-31 106 24 0
-31 118 25 0
-31 129 26 0
-31 139 27 0
-31 148 28 0
-31 156 29 0
-31 163 30 0
-31 -170 32 0
-31 -171 33 0
-31 -172 34 0
-31 -173 35 0
-31 -174 36 0
-31 -175 37 0
-32 14 -1 0
-32 49 20 0
-32 65 21 0
-32 80 22 0
-32 94 23 0
-32 107 24 0
-32 119 25 0
-32 130 26 0
-32 140 27 0
-32 149 28 0
-32 157 29 0
-32 164 30 0
-32 170 31 0
-32 -176 33 0
-32 -177 34 0
-32 -178 35 0
-32 -179 36 0
-32 -180 37 0
-33 15 -1 0
-33 50 20 0
-33 66 21 0
-33 81 22 0
-33 95 23 0
-33 108 24 0
-33 120 25 0
-33 131 26 0
-33 141 27 0
-33 150 28 0
-33 158 29 0
-33 165 30 0
-33 171 31 0
-33 176 32 0
-33 -181 34 0
-33 -182 35 0
-33 -183 36 0
-33 -184 37 0
-34 16 -1 0
-34 51 20 0
-34 67 21 0
-34 82 22 0
-34 96 23 0
-34 109 24 0
-34 121 25 0
-34 132 26 0
-34 142 27 0
-34 151 28 0
-34 159 29 0
-34 166 30 0
-34 172 31 0
-34 177 32 0
-34 181 33 0
-34 -185 35 0
-34 -186 36 0
-34 -187 37 0
-35 17 -1 0
-35 52 20 0
-35 68 21 0
-35 83 22 0
-35 97 23 0
-35 110 24 0
-35 122 25 0
-35 133 26 0
-35 143 27 0
-35 152 28 0
-35 160 29 0
-35 167 30 0
-35 173 31 0
-35 178 32 0
-35 182 33 0
-35 185 34 0
-35 -188 36 0
-35 -189 37 0
-36 18 -1 0
-36 53 20 0
-36 69 21 0
-36 84 22 0
-36 98 23 0
-36 111 24 0
-36 123 25 0
-36 134 26 0
-36 144 27 0
-36 153 28 0
-36 161 29 0
-36 168 30 0
-36 174 31 0
-36 179 32 0
-36 183 33 0
-36 186 34 0
-36 188 35 0
-36 -190 37 0
-37 19 -1 0
-37 54 20 0
-37 70 21 0
-37 85 22 0
-37 99 23 0
-37 112 24 0
-37 124 25 0
-37 135 26 0
-37 145 27 0
-37 154 28 0
-37 162 29 0
-37 169 30 0
-37 175 31 0
-37 180 32 0
-37 184 33 0
-37 187 34 0
-37 189 35 0
-37 190 36 0
2 -1 -20 0
2 -3 38 0
2 -4 39 0
2 -5 40 0
2 -6 41 0
2 -7 42 0
2 -8 43 0
2 -9 44 0
2 -10 45 0
2 -11 46 0
2 -12 47 0
2 -13 48 0
2 -14 49 0
2 -15 50 0
2 -16 51 0
2 -17 52 0
2 -18 53 0
2 -19 54 0
20 1 -2 0
20 -21 38 0
20 -22 39 0
20 -23 40 0
20 -24 41 0
20 -25 42 0
20 -26 43 0
20 -27 44 0
20 -28 45 0
20 -29 46 0
20 -30 47 0
20 -31 48 0
20 -32 49 0
20 -33 50 0
20 -34 51 0
20 -35 52 0
20 -36 53 0
20 -37 54 0
-38 3 -2 0
-38 21 -20 0
-38 -55 39 0
-38 -56 40 0
-38 -57 41 0
-38 -58 42 0
-38 -59 43 0
-38 -60 44 0
-38 -61 45 0
-38 -62 46 0
-38 -63 47 0
-38 -64 48 0
-38 -65 49 0
-38 -66 50 0
-38 -67 51 0
-38 -68 52 0
-38 -69 53 0
-38 -70 54 0
-39 4 -2 0
-39 22 -20 0
-39 55 38 0
-39 -71 40 0
-39 -72 41 0
-39 -73 42 0
-39 -74 43 0
-39 -75 44 0
-39 -76 45 0
-39 -77 46 0
-39 -78 47 0
-39 -79 48 0
-39 -80 49 0
-39 -81 50 0
-39 -82 51 0
-39 -83 52 0
-39 -84 53 0
-39 -85 54 0
-40 5 -2 0
-40 23 -20 0
-40 56 38 0
-40 71 39 0
-40 -86 41 0
-40 -87 42 0
-40 -88 43 0
-40 -89 44 0
-40 -90 45 0
-40 -91 46 0
-40 -92 47 0
-40 -93 48 0
-40 -94 49 0
-40 -95 50 0
-40 -96 51 0
-40 -97 52 0
-40 -98 53 0
-40 -99 54 0
-41 6 -2 0
-41 24 -20 0
-41 57 38 0
-41 72 39 0
-41 86 40 0
-41 -100 42 0
-41 -101 43 0
-41 -102 44 0
-41 -103 45 0
-41 -104 46 0
-41 -105 47 0
-41 -106 48 0
-41 -107 49 0
-41 -108 50 0
-41 -109 51 0
-41 -110 52 0
-41 -111 53 0
-41 -112 54 0
-42 7 -2 0
-42 25 -20 0
-42 58 38 0
-42 73 39 0
-42 87 40 0
-42 100 41 0
-42 -113 43 0
-42 -114 44 0
-42 -115 45 0
-42 -116 46 0
-42 -117 47 0
-42 -118 48 0
-42 -119 49 0
-42 -120 50 0
-42 -121 51 0
-42 -122 52 0
-42 -123 53 0
-42 -124 54 0
-43 8 -2 0
-43 26 -20 0
-43 59 38 0
-43 74 39 0
-43 88 40 0
-43 101 41 0
-43 113 42 0
-43 -125 44 0
-43 -126 45 0
-43 -127 46 0
-43 -128 47 0
-43 -129 48 0
-43 -130 49 0
-43 -131 50 0
-43 -132 51 0
-43 -133 52 0
-43 -134 53 0
-43 -135 54 0
-44 9 -2 0
-44 27 -20 0
-44 60 38 0
-44 75 39 0
-44 89 40 0
-44 102 41 0
-44 114 42 0
-44 125 43 0
-44 -136 45 0
-44 -137 46 0
-44 -138 47 0
-44 -139 48 0
-44 -140 49 0
-44 -141 50 0
-44 -142 51 0
-44 -143 52 0
-44 -144 53 0
-44 -145 54 0
-45 10 -2 0
-45 28 -20 0
-45 61 38 0
-45 76 39 0
-45 90 40 0
-45 103 41 0
-45 115 42 0
-45 126 43 0
-45 136 44 0
-45 -146 46 0
-45 -147 47 0
-45 -148 48 0
-45 -149 49 0
-45 -150 50 0
-45 -151 51 0
-45 -152 52 0
-45 -153 53 0
-45 -154 54 0
-46 11 -2 0
-46 29 -20 0
-46 62 38 0
-46 77 39 0
-46 91 40 0
-46 104 41 0
-46 116 42 0
-46 127 43 0
-46 137 44 0
-46 146 45 0
-46 -155 47 0
-46 -156 48 0
-46 -157 49 0
-46 -158 50 0
-46 -159 51 0
-46 -160 52 0
-46 -161 53 0
-46 -162 54 0
-47 12 -2 0
-47 30 -20 0
-47 63 38 0
-47 78 39 0
-47 92 40 0
-47 105 41 0
-47 117 42 0
-47 128 43 0
-47 138 44 0
-47 147 45 0
-47 155 46 0
-47 -163 48 0
-47 -164 49 0
-47 -165 50 0
-47 -166 51 0
-47 -167 52 0
-47 -168 53 0
-47 -169 54 0
-48 13 -2 0
-48 31 -20 0
-48 64 38 0
-48 79 39 0
-48 93 40 0
-48 106 41 0
-48 118 42 0
-48 129 43 0
-48 139 44 0
-48 148 45 0
-48 156 46 0
-48 163 47 0
-48 -170 49 0
-48 -171 50 0
-48 -172 51 0
-48 -173 52 0
-48 -174 53 0
-48 -175 54 0
-49 14 -2 0
-49 32 -20 0
-49 65 38 0
-49 80 39 0
-49 94 40 0
-49 107 41 0
-49 119 42 0
-49 130 43 0
-49 140 44 0
-49 149 45 0
-49 157 46 0
-49 164 47 0
-49 170 48 0
-49 -176 50 0
-49 -177 51 0
-49 -178 52 0
-49 -179 53 0
-49 -180 54 0
-50 15 -2 0
-50 33 -20 0
-50 66 38 0
-50 81 39 0
-50 95 40 0
-50 108 41 0
-50 120 42 0
-50 131 43 0
-50 141 44 0
-50 150 45 0
-50 158 46 0
-50 165 47 0
-50 171 48 0
-50 176 49 0
-50 -181 51 0
-50 -182 52 0
-50 -183 53 0
-50 -184 54 0
-51 16 -2 0
-51 34 -20 0
-51 67 38 0
-51 82 39 0
-51 96 40 0
-51 109 41 0
-51 121 42 0
-51 132 43 0
-51 142 44 0
-51 151 45 0
-51 159 46 0
-51 166 47 0
-51 172 48 0
-51 177 49 0
-51 181 50 0
-51 -185 52 0
-51 -186 53 0
-51 -187 54 0
-52 17 -2 0
-52 35 -20 0
-52 68 38 0
-52 83 39 0
-52 97 40 0
-52 110 41 0
-52 122 42 0
-52 133 43 0
-52 143 44 0
-52 152 45 0
-52 160 46 0
-52 167 47 0
-52 173 48 0
-52 178 49 0
-52 182 50 0
-52 185 51 0
-52 -188 53 0
-52 -189 54 0
-53 18 -2 0
-53 36 -20 0
-53 69 38 0
-53 84 39 0
-53 98 40 0
-53 111 41 0
-53 123 42 0
-53 134 43 0
-53 144 44 0
-53 153 45 0
-53 161 46 0
-53 168 47 0
-53 174 48 0
-53 179 49 0
-53 183 50 0
-53 186 51 0
-53 188 52 0
-53 -190 54 0
-54 19 -2 0
-54 37 -20 0
-54 70 38 0
-54 85 39 0
-54 99 40 0
-54 112 41 0
-54 124 42 0
-54 135 43 0
-54 145 44 0
-54 154 45 0
-54 162 46 0
-54 169 47 0
-54 175 48 0
-54 180 49 0
-54 184 50 0
-54 187 51 0
-54 189 52 0
-54 190 53 0
3 -1 -21 0
3 -2 -38 0
3 -4 55 0
3 -5 56 0
3 -6 57 0
3 -7 58 0
3 -8 59 0
3 -9 60 0
3 -10 61 0
3 -11 62 0
3 -12 63 0
3 -13 64 0
3 -14 65 0
3 -15 66 0
3 -16 67 0
3 -17 68 0
3 -18 69 0
3 -19 70 0
21 1 -3 0
21 -20 -38 0
21 -22 55 0
21 -23 56 0
21 -24 57 0
21 -25 58 0
21 -26 59 0
21 -27 60 0
21 -28 61 0
21 -29 62 0
21 -30 63 0
21 -31 64 0
21 -32 65 0
21 -33 66 0
21 -34 67 0
21 -35 68 0
21 -36 69 0
21 -37 70 0
38 2 -3 0
38 20 -21 0
38 -39 55 0
38 -40 56 0
38 -41 57 0
38 -42 58 0
38 -43 59 0
38 -44 60 0
38 -45 61 0
38 -46 62 0
38 -47 63 0
38 -48 64 0
38 -49 65 0
38 -50 66 0
38 -51 67 0
38 -52 68 0
38 -53 69 0
38 -54 70 0
-55 4 -3 0
-55 22 -21 0
-55 39 -38 0
-55 -71 56 0
-55 -72 57 0
-55 -73 58 0
-55 -74 59 0
-55 -75 60 0
-55 -76 61 0
-55 -77 62 0
-55 -78 63 0
-55 -79 64 0
-55 -80 65 0
-55 -81 66 0
-55 -82 67 0
-55 -83 68 0
-55 -84 69 0
-55 -85 70 0
-56 5 -3 0
-56 23 -21 0
-56 40 -38 0
-56 71 55 0
-56 -86 57 0
-56 -87 58 0
-56 -88 59 0
-56 -89 60 0
-56 -90 61 0
-56 -91 62 0
-56 -92 63 0
-56 -93 64 0
-56 -94 65 0
-56 -95 66 0
-56 -96 67 0
-56 -97 68 0
-56 -98 69 0
-56 -99 70 0
-57 6 -3 0
-57 24 -21 0
-57 41 -38 0
-57 72 55 0
-57 86 56 0
-57 -100 58 0
-57 -101 59 0
-57 -102 60 0
-57 -103 61 0
-57 -104 62 0
-57 -105 63 0
-57 -106 64 0
-57 -107 65 0
-57 -108 66 0
-57 -109 67 0
-57 -110 68 0
-57 -111 69 0
-57 -112 70 0
-58 7 -3 0
-58 25 -21 0
-58 42 -38 0
-58 73 55 0
-58 87 56 0
-58 100 57 0
-58 -113 59 0
-58 -114 60 0
-58 -115 61 0
-58 -116 62 0
-58 -117 63 0
-58 -118 64 0
-58 -119 65 0
-58 -120 66 0
-58 -121 67 0
-58 -122 68 0
-58 -123 69 0
-58 -124 70 0
-59 8 -3 0
-59 26 -21 0
-59 43 -38 0
-59 74 55 0
-59 88 56 0
-59 101 57 0
-59 113 58 0
-59 -125 60 0
-59 -126 61 0
-59 -127 62 0
-59 -128 63 0
-59 -129 64 0
-59 -130 65 0
-59 -131 66 0
-59 -132 67 0
-59 -133 68 0
-59 -134 69 0
-59 -135 70 0
-60 9 -3 0
-60 27 -21 0
-60 44 -38 0
-60 75 55 0
-60 89 56 0
-60 102 57 0
-60 114 58 0
-60 125 59 0
-60 -136 61 0
-60 -137 62 0
-60 -138 63 0
-60 -139 64 0
-60 -140 65 0
-60 -141 66 0
-60 -142 67 0
-60 -143 68 0
-60 -144 69 0
-60 -145 70 0
-61 10 -3 0
-61 28 -21 0
-61 45 -38 0
-61 76 55 0
-61 90 56 0
-61 103 57 0
-61 115 58 0
-61 126 59 0
-61 136 60 0
-61 -146 62 0
-61 -147 63 0
-61 -148 64 0
-61 -149 65 0
-61 -150 66 0
-61 -151 67 0
-61 -152 68 0
-61 -153 69 0
-61 -154 70 0
-62 11 -3 0
-62 29 -21 0
-62 46 -38 0
-62 77 55 0
-62 91 56 0
-62 104 57 0
-62 116 58 0
-62 127 59 0
-62 137 60 0
-62 146 61 0
-62 -155 63 0
-62 -156 64 0
-62 -157 65 0
-62 -158 66 0
-62 -159 67 0
-62 -160 68 0
-62 -161 69 0
-62 -162 70 0
-63 12 -3 0
-63 30 -21 0
-63 47 -38 0
-63 78 55 0
-63 92 56 0
-63 105 57 0
-63 117 58 0
-63 128 59 0
-63 138 60 0
-63 147 61 0
-63 155 62 0
-63 -163 64 0
-63 -164 65 0
-63 -165 66 0
-63 -166 67 0
-63 -167 68 0
-63 -168 69 0
-63 -169 70 0
-64 13 -3 0
-64 31 -21 0
-64 48 -38 0
-64 79 55 0
-64 93 56 0
-64 106 57 0
-64 118 58 0
-64 129 59 0
-64 139 60 0
-64 148 61 0
-64 156 62 0
-64 163 63 0
-64 -170 65 0
-64 -171 66 0
-64 -172 67 0
-64 -173 68 0
-64 -174 69 0
-64 -175 70 0
-65 14 -3 0
-65 32 -21 0
-65 49 -38 0
-65 80 55 0
-65 94 56 0
-65 107 57 0
-65 119 58 0
-65 130 59 0
-65 140 60 0
-65 149 61 0
-65 157 62 0
-65 164 63 0
-65 170 64 0
-65 -176 66 0
-65 -177 67 0
-65 -178 68 0
-65 -179 69 0
-65 -180 70 0
-66 15 -3 0
-66 33 -21 0
-66 50 -38 0
-66 81 55 0
-66 95 56 0
-66 108 57 0
-66 120 58 0
-66 131 59 0
-66 141 60 0
-66 150 61 0
-66 158 62 0
-66 165 63 0
-66 171 64 0
-66 176 65 0
-66 -181 67 0
-66 -182 68 0
-66 -183 69 0
-66 -184 70 0
-67 16 -3 0
-67 34 -21 0
-67 51 -38 0
-67 82 55 0
-67 96 56 0
-67 109 57 0
-67 121 58 0
-67 132 59 0
-67 142 60 0
-67 151 61 0
-67 159 62 0
-67 166 63 0
-67 172 64 0
-67 177 65 0
-67 181 66 0
-67 -185 68 0
-67 -186 69 0
-67 -187 70 0
-68 17 -3 0
-68 35 -21 0
-68 52 -38 0
-68 83 55 0
-68 97 56 0
-68 110 57 0
-68 122 58 0
-68 133 59 0
-68 143 60 0
-68 152 61 0
-68 160 62 0
-68 167 63 0
-68 173 64 0
-68 178 65 0
-68 182 66 0
-68 185 67 0
-68 -188 69 0
-68 -189 70 0
-69 18 -3 0
-69 36 -21 0
-69 53 -38 0
-69 84 55 0
-69 98 56 0
-69 111 57 0
-69 123 58 0
-69 134 59 0
-69 144 60 0
-69 153 61 0
-69 161 62 0
-69 168 63 0
-69 174 64 0
-69 179 65 0
-69 183 66 0
-69 186 67 0
-69 188 68 0
-69 -190 70 0
-70 19 -3 0
-70 37 -21 0
-70 54 -38 0
-70 85 55 0
-70 99 56 0
-70 112 57 0
-70 124 58 0
-70 135 59 0
-70 145 60 0
-70 154 61 0
-70 162 62 0
-70 169 63 0
-70 175 64 0
-70 180 65 0
-70 184 66 0
-70 187 67 0
-70 189 68 0
-70 190 69 0
4 -1 -22 0
4 -2 -39 0
4 -3 -55 0
4 -5 71 0
4 -6 72 0
4 -7 73 0
4 -8 74 0
4 -9 75 0
4 -10 76 0
4 -11 77 0
4 -12 78 0
4 -13 79 0
4 -14 80 0
4 -15 81 0
4 -16 82 0
4 -17 83 0
4 -18 84 0
4 -19 85 0
22 1 -4 0
22 -20 -39 0
22 -21 -55 0
22 -23 71 0
22 -24 72 0
22 -25 73 0
22 -26 74 0
22 -27 75 0
22 -28 76 0
22 -29 77 0
22 -30 78 0
22 -31 79 0
22 -32 80 0
22 -33 81 0
22 -34 82 0
22 -35 83 0
22 -36 84 0
22 -37 85 0
39 2 -4 0
39 20 -22 0
39 -38 -55 0
39 -40 71 0
39 -41 72 0
39 -42 73 0
39 -43 74 0
39 -44 75 0
39 -45 76 0
39 -46 77 0
39 -47 78 0
39 -48 79 0
39 -49 80 0
39 -50 81 0
39 -51 82 0
39 -52 83 0
39 -53 84 0
39 -54 85 0
55 3 -4 0
55 21 -22 0
55 38 -39 0
55 -56 71 0
55 -57 72 0
55 -58 73 0
55 -59 74 0
55 -60 75 0
55 -61 76 0
55 -62 77 0
55 -63 78 0
55 -64 79 0
55 -65 80 0
55 -66 81 0
55 -67 82 0
55 -68 83 0
55 -69 84 0
55 -70 85 0
-71 5 -4 0
-71 23 -22 0
-71 40 -39 0
-71 56 -55 0
-71 -86 72 0
-71 -87 73 0
-71 -88 74 0
-71 -89 75 0
-71 -90 76 0
-71 -91 77 0
-71 -92 78 0
-71 -93 79 0
-71 -94 80 0
-71 -95 81 0
-71 -96 82 0
-71 -97 83 0
-71 -98 84 0
-71 -99 85 0
-72 6 -4 0
-72 24 -22 0
-72 41 -39 0
-72 57 -55 0
-72 86 71 0
-72 -100 73 0
-72 -101 74 0
-72 -102 75 0
-72 -103 76 0
-72 -104 77 0
-72 -105 78 0
-72 -106 79 0
-72 -107 80 0
-72 -108 81 0
-72 -109 82 0
-72 -110 83 0
-72 -111 84 0
-72 -112 85 0
-73 7 -4 0
-73 25 -22 0
-73 42 -39 0
-73 58 -55 0
-73 87 71 0
-73 100 72 0
-73 -113 74 0
-73 -114 75 0
-73 -115 76 0
-73 -116 77 0
-73 -117 78 0
-73 -118 79 0
-73 -119 80 0
-73 -120 81 0
-73 -121 82 0
-73 -122 83 0
-73 -123 84 0
-73 -124 85 0
-74 8 -4 0
-74 26 -22 0
-74 43 -39 0
-74 59 -55 0
-74 88 71 0
-74 101 72 0
-74 113 73 0
-74 -125 75 0
-74 -126 76 0
-74 -127 77 0
-74 -128 78 0
-74 -129 79 0
-74 -130 80 0
-74 -131 81 0
-74 -132 82 0
-74 -133 83 0
-74 -134 84 0
-74 -135 85 0
-75 9 -4 0
-75 27 -22 0
-75 44 -39 0
-75 60 -55 0
-75 89 71 0
-75 102 72 0
-75 114 73 0
-75 125 74 0
-75 -136 76 0
-75 -137 77 0
-75 -138 78 0
-75 -139 79 0
-75 -140 80 0
-75 -141 81 0
-75 -142 82 0
-75 -143 83 0
-75 -144 84 0
-75 -145 85 0
-76 10 -4 0
-76 28 -22 0
-76 45 -39 0
-76 61 -55 0
-76 90 71 0
-76 103 72 0
-76 115 73 0
-76 126 74 0
-76 136 75 0
-76 -146 77 0
-76 -147 78 0
-76 -148 79 0
-76 -149 80 0
-76 -150 81 0
-76 -151 82 0
-76 -152 83 0
-76 -153 84 0
-76 -154 85 0
-77 11 -4 0
-77 29 -22 0
-77 46 -39 0
-77 62 -55 0
-77 91 71 0
-77 104 72 0
-77 116 73 0
-77 127 74 0
-77 137 75 0
-77 146 76 0
-77 -155 78 0
-77 -156 79 0
-77 -157 80 0
-77 -158 81 0
-77 -159 82 0
-77 -160 83 0
-77 -161 84 0
-77 -162 85 0
-78 12 -4 0
-78 30 -22 0
-78 47 -39 0
-78 63 -55 0
-78 92 71 0
-78 105 72 0
-78 117 73 0
-78 128 74 0
-78 138 75 0
-78 147 76 0
-78 155 77 0
-78 -163 79 0
-78 -164 80 0
-78 -165 81 0
-78 -166 82 0
-78 -167 83 0
-78 -168 84 0
-78 -169 85 0
-79 13 -4 0
-79 31 -22 0
-79 48 -39 0
-79 64 -55 0
-79 93 71 0
-79 106 72 0
-79 118 73 0
-79 129 74 0
-79 139 75 0
-79 148 76 0
-79 156 77 0
-79 163 78 0
-79 -170 80 0
-79 -171 81 0
-79 -172 82 0
-79 -173 83 0
-79 -174 84 0
-79 -175 85 0
-80 14 -4 0
-80 32 -22 0
-80 49 -39 0
-80 65 -55 0
-80 94 71 0
-80 107 72 0
-80 119 73 0
-80 130 74 0
-80 140 75 0
-80 149 76 0
-80 157 77 0
-80 164 78 0
-80 170 79 0
-80 -176 81 0
-80 -177 82 0
-80 -178 83 0
-80 -179 84 0
-80 -180 85 0
-81 15 -4 0
-81 33 -22 0
-81 50 -39 0
-81 66 -55 0
-81 95 71 0
-81 108 72 0
-81 120 73 0
-81 131 74 0
-81 141 75 0
-81 150 76 0
-81 158 77 0
-81 165 78 0
-81 171 79 0
-81 176 80 0
-81 -181 82 0
-81 -182 83 0
-81 -183 84 0
-81 -184 85 0
-82 16 -4 0
-82 34 -22 0
-82 51 -39 0
-82 67 -55 0
-82 96 71 0
-82 109 72 0
-82 121 73 0
-82 132 74 0
-82 142 75 0
-82 151 76 0
-82 159 77 0
-82 166 78 0
-82 172 79 0
-82 177 80 0
-82 181 81 0
-82 -185 83 0
-82 -186 84 0
-82 -187 85 0
-83 17 -4 0
-83 35 -22 0
-83 52 -39 0
-83 68 -55 0
-83 97 71 0
-83 110 72 0
-83 122 73 0
-83 133 74 0
-83 143 75 0
-83 152 76 0
-83 160 77 0
-83 167 78 0
-83 173 79 0
-83 178 80 0
-83 182 81 0
-83 185 82 0
-83 -188 84 0
-83 -189 85 0
-84 18 -4 0
-84 36 -22 0
-84 53 -39 0
-84 69 -55 0
-84 98 71 0
-84 111 72 0
-84 123 73 0
-84 134 74 0
-84 144 75 0
-84 153 76 0
-84 161 77 0
-84 168 78 0
-84 174 79 0
-84 179 80 0
-84 183 81 0
-84 186 82 0
-84 188 83 0
-84 -190 85 0
-85 19 -4 0
-85 37 -22 0
-85 54 -39 0
-85 70 -55 0
-85 99 71 0
-85 112 72 0
-85 124 73 0
-85 135 74 0
-85 145 75 0
-85 154 76 0
-85 162 77 0
-85 169 78 0
-85 175 79 0
-85 180 80 0
-85 184 81 0
-85 187 82 0
-85 189 83 0
-85 190 84 0
5 -1 -23 0
5 -2 -40 0
5 -3 -56 0
5 -4 -71 0
5 -6 86 0
5 -7 87 0
5 -8 88 0
5 -9 89 0
5 -10 90 0
5 -11 91 0
5 -12 92 0
5 -13 93 0
5 -14 94 0
5 -15 95 0
5 -16 96 0
5 -17 97 0
5 -18 98 0
5 -19 99 0
23 1 -5 0
23 -20 -40 0
23 -21 -56 0
23 -22 -71 0
23 -24 86 0
23 -25 87 0
23 -26 88 0
23 -27 89 0
23 -28 90 0
23 -29 91 0
23 -30 92 0
23 -31 93 0
23 -32 94 0
23 -33 95 0
23 -34 96 0
23 -35 97 0
23 -36 98 0
23 -37 99 0
40 2 -5 0
40 20 -23 0
40 -38 -56 0
40 -39 -71 0
40 -41 86 0
40 -42 87 0
40 -43 88 0
40 -44 89 0
40 -45 90 0
40 -46 91 0
40 -47 92 0
40 -48 93 0
40 -49 94 0
40 -50 95 0
40 -51 96 0
40 -52 97 0
40 -53 98 0
40 -54 99 0
56 3 -5 0
56 21 -23 0
56 38 -40 0
56 -55 -71 0
56 -57 86 0
56 -58 87 0
56 -59 88 0
56 -60 89 0
56 -61 90 0
56 -62 91 0
56 -63 92 0
56 -64 93 0
56 -65 94 0
56 -66 95 0
56 -67 96 0
56 -68 97 0
56 -69 98 0
56 -70 99 0
71 4 -5 0
71 22 -23 0
71 39 -40 0
71 55 -56 0
71 -72 86 0
71 -73 87 0
71 -74 88 0
71 -75 89 0
71 -76 90 0
71 -77 91 0
71 -78 92 0
71 -79 93 0
71 -80 94 0
71 -81 95 0
71 -82 96 0
71 -83 97 0
71 -84 98 0
71 -85 99 0
-86 6 -5 0
-86 24 -23 0
-86 41 -40 0
-86 57 -56 0
-86 72 -71 0
-86 -100 87 0
-86 -101 88 0
-86 -102 89 0
-86 -103 90 0
-86 -104 91 0
-86 -105 92 0
-86 -106 93 0
-86 -107 94 0
-86 -108 95 0
-86 -109 96 0
-86 -110 97 0
-86 -111 98 0
-86 -112 99 0
-87 7 -5 0
-87 25 -23 0
-87 42 -40 0
-87 58 -56 0
-87 73 -71 0
-87 100 86 0
-87 -113 88 0
-87 -114 89 0
-87 -115 90 0
-87 -116 91 0
-87 -117 92 0
-87 -118 93 0
-87 -119 94 0
-87 -120 95 0
-87 -121 96 0
-87 -122 97 0
-87 -123 98 0
-87 -124 99 0
-88 8 -5 0
-88 26 -23 0
-88 43 -40 0
-88 59 -56 0
-88 74 -71 0
-88 101 86 0
-88 113 87 0
-88 -125 89 0
-88 -126 90 0
-88 -127 91 0
-88 -128 92 0
-88 -129 93 0
-88 -130 94 0
-88 -131 95 0
-88 -132 96 0
-88 -133 97 0
-88 -134 98 0
-88 -135 99 0
-89 9 -5 0
-89 27 -23 0
-89 44 -40 0
-89 60 -56 0
-89 75 -71 0
-89 102 86 0
-89 114 87 0
-89 125 88 0
-89 -136 90 0
-89 -137 91 0
-89 -138 92 0
-89 -139 93 0
-89 -140 94 0
-89 -141 95 0
-89 -142 96 0
-89 -143 97 0
-89 -144 98 0
-89 -145 99 0
-90 10 -5 0
-90 28 -23 0
-90 45 -40 0
-90 61 -56 0
-90 76 -71 0
-90 103 86 0
-90 115 87 0
-90 126 88 0
-90 136 89 0
-90 -146 91 0
-90 -147 92 0
-90 -148 93 0
-90 -149 94 0
-90 -150 95 0
-90 -151 96 0
-90 -152 97 0
-90 -153 98 0
-90 -154 99 0
-91 11 -5 0
-91 29 -23 0
-91 46 -40 0
-91 62 -56 0
-91 77 -71 0
-91 104 86 0
-91 116 87 0
-91 127 88 0
-91 137 89 0
-91 146 90 0
-91 -155 92 0
-91 -156 93 0
-91 -157 94 0
-91 -158 95 0
-91 -159 96 0
-91 -160 97 0
-91 -161 98 0
-91 -162 99 0
-92 12 -5 0
-92 30 -23 0
-92 47 -40 0
-92 63 -56 0
-92 78 -71 0
-92 105 86 0
-92 117 87 0
-92 128 88 0
-92 138 89 0
-92 147 90 0
-92 155 91 0
-92 -163 93 0
-92 -164 94 0
-92 -165 95 0
-92 -166 96 0
-92 -167 97 0
-92 -168 98 0
-92 -169 99 0
-93 13 -5 0
-93 31 -23 0
-93 48 -40 0
-93 64 -56 0
-93 79 -71 0
-93 106 86 0
-93 118 87 0
-93 129 88 0
-93 139 89 0
-93 148 90 0
-93 156 91 0
-93 163 92 0
-93 -170 94 0
-93 -171 95 0
-93 -172 96 0
-93 -173 97 0
-93 -174 98 0
-93 -175 99 0
-94 14 -5 0
-94 32 -23 0
-94 49 -40 0
-94 65 -56 0
-94 80 -71 0
-94 107 86 0
-94 119 87 0
-94 130 88 0
-94 140 89 0
-94 149 90 0
-94 157 91 0
-94 164 92 0
-94 170 93 0
-94 -176 95 0
-94 -177 96 0
-94 -178 97 0
-94 -179 98 0
-94 -180 99 0
-95 15 -5 0
-95 33 -23 0
-95 50 -40 0
-95 66 -56 0
-95 81 -71 0
-95 108 86 0
-95 120 87 0
-95 131 88 0
-95 141 89 0
-95 150 90 0
-95 158 91 0
-95 165 92 0
-95 171 93 0
-95 176 94 0
-95 -181 96 0
-95 -182 97 0
-95 -183 98 0
-95 -184 99 0
-96 16 -5 0
-96 34 -23 0
-96 51 -40 0
-96 67 -56 0
-96 82 -71 0
-96 109 86 0
-96 121 87 0
-96 132 88 0
-96 142 89 0
-96 151 90 0
-96 159 91 0
-96 166 92 0
-96 172 93 0
-96 177 94 0
-96 181 95 0
-96 -185 97 0
-96 -186 98 0
-96 -187 99 0
-97 17 -5 0
-97 35 -23 0
-97 52 -40 0
-97 68 -56 0
-97 83 -71 0
-97 110 86 0
-97 122 87 0
-97 133 88 0
-97 143 89 0
-97 152 90 0
-97 160 91 0
-97 167 92 0
-97 173 93 0
-97 178 94 0
-97 182 95 0
-97 185 96 0
-97 -188 98 0
-97 -189 99 0
-98 18 -5 0
-98 36 -23 0
-98 53 -40 0
-98 69 -56 0
-98 84 -71 0
-98 111 86 0
-98 123 87 0
-98 134 88 0
-98 144 89 0
-98 153 90 0
-98 161 91 0
-98 168 92 0
-98 174 93 0
-98 179 94 0
-98 183 95 0
-98 186 96 0
-98 188 97 0
-98 -190 99 0
-99 19 -5 0
-99 37 -23 0
-99 54 -40 0
-99 70 -56 0
-99 85 -71 0
-99 112 86 0
-99 124 87 0
-99 135 88 0
-99 145 89 0
-99 154 90 0
-99 162 91 0
-99 169 92 0
-99 175 93 0
-99 180 94 0
-99 184 95 0
-99 187 96 0
-99 189 97 0
-99 190 98 0
6 -1 -24 0
6 -2 -41 0
6 -3 -57 0
6 -4 -72 0
6 -5 -86 0
6 -7 100 0
6 -8 101 0
6 -9 102 0
6 -10 103 0
6 -11 104 0
6 -12 105 0
6 -13 106 0
6 -14 107 0
6 -15 108 0
6 -16 109 0
6 -17 110 0
6 -18 111 0
6 -19 112 0
24 1 -6 0
24 -20 -41 0
24 -21 -57 0
24 -22 -72 0
24 -23 -86 0
24 -25 100 0
24 -26 101 0
24 -27 102 0
24 -28 103 0
24 -29 104 0
24 -30 105 0
24 -31 106 0
24 -32 107 0
24 -33 108 0
24 -34 109 0
24 -35 110 0
24 -36 111 0
24 -37 112 0
41 2 -6 0
41 20 -24 0
41 -38 -57 0
41 -39 -72 0
41 -40 -86 0
41 -42 100 0
41 -43 101 0
41 -44 102 0
41 -45 103 0
41 -46 104 0
41 -47 105 0
41 -48 106 0
41 -49 107 0
41 -50 108 0
41 -51 109 0
41 -52 110 0
41 -53 111 0
41 -54 112 0
57 3 -6 0
57 21 -24 0
57 38 -41 0
57 -55 -72 0
57 -56 -86 0
57 -58 100 0
57 -59 101 0
57 -60 102 0
57 -61 103 0
57 -62 104 0
57 -63 105 0
57 -64 106 0
57 -65 107 0
57 -66 108 0
57 -67 109 0
57 -68 110 0
57 -69 111 0
57 -70 112 0
72 4 -6 0
72 22 -24 0
72 39 -41 0
72 55 -57 0
72 -71 -86 0
72 -73 100 0
72 -74 101 0
72 -75 102 0
72 -76 103 0
72 -77 104 0
72 -78 105 0
72 -79 106 0
72 -80 107 0
72 -81 108 0
72 -82 109 0
72 -83 110 0
72 -84 111 0
72 -85 112 0
86 5 -6 0
86 23 -24 0
86 40 -41 0
86 56 -57 0
86 71 -72 0
86 -87 100 0
86 -88 101 0
86 -89 102 0
86 -90 103 0
86 -91 104 0
86 -92 105 0
86 -93 106 0
86 -94 107 0
86 -95 108 0
86 -96 109 0
86 -97 110 0
86 -98 111 0
86 -99 112 0
-100 7 -6 0
-100 25 -24 0
-100 42 -41 0
-100 58 -57 0
-100 73 -72 0
-100 87 -86 0
-100 -113 101 0
-100 -114 102 0
-100 -115 103 0
-100 -116 104 0
-100 -117 105 0
-100 -118 106 0
-100 -119 107 0
-100 -120 108 0
-100 -121 109 0
-100 -122 110 0
-100 -123 111 0
-100 -124 112 0
-101 8 -6 0
-101 26 -24 0
-101 43 -41 0
-101 59 -57 0
-101 74 -72 0
-101 88 -86 0
-101 113 100 0
-101 -125 102 0
-101 -126 103 0
-101 -127 104 0
-101 -128 105 0
-101 -129 106 0
-101 -130 107 0
-101 -131 108 0
-101 -132 109 0
-101 -133 110 0
-101 -134 111 0
-101 -135 112 0
-102 9 -6 0
-102 27 -24 0
-102 44 -41 0
-102 60 -57 0
-102 75 -72 0
-102 89 -86 0
-102 114 100 0
-102 125 101 0
-102 -136 103 0
-102 -137 104 0
-102 -138 105 0
-102 -139 106 0
-102 -140 107 0
-102 -141 108 0
-102 -142 109 0
-102 -143 110 0
-102 -144 111 0
-102 -145 112 0
-103 10 -6 0
-103 28 -24 0
-103 45 -41 0
-103 61 -57 0
-103 76 -72 0
-103 90 -86 0
-103 115 100 0
-103 126 101 0
-103 136 102 0
-103 -146 104 0
-103 -147 105 0
-103 -148 106 0
-103 -149 107 0
-103 -150 108 0
-103 -151 109 0
-103 -152 110 0
-103 -153 111 0
-103 -154 112 0
-104 11 -6 0
-104 29 -24 0
-104 46 -41 0
-104 62 -57 0
-104 77 -72 0
-104 91 -86 0
-104 116 100 0
-104 127 101 0
-104 137 102 0
-104 146 103 0
-104 -155 105 0
-104 -156 106 0
-104 -157 107 0
-104 -158 108 0
-104 -159 109 0
-104 -160 110 0
-104 -161 111 0
-104 -162 112 0
-105 12 -6 0
-105 30 -24 0
-105 47 -41 0
-105 63 -57 0
-105 78 -72 0
-105 92 -86 0
-105 117 100 0
-105 128 101 0
-105 138 102 0
-105 147 103 0
-105 155 104 0
-105 -163 106 0
-105 -164 107 0
-105 -165 108 0
-105 -166 109 0
-105 -167 110 0
-105 -168 111 0
-105 -169 112 0
-106 13 -6 0
-106 31 -24 0
-106 48 -41 0
-106 64 -57 0
-106 79 -72 0
-106 93 -86 0
-106 118 100 0
-106 129 101 0
-106 139 102 0
-106 148 103 0
-106 156 104 0
-106 163 105 0
-106 -170 107 0
-106 -171 108 0
-106 -172 109 0
-106 -173 110 0
-106 -174 111 0
-106 -175 112 0
-107 14 -6 0
-107 32 -24 0
-107 49 -41 0
-107 65 -57 0
-107 80 -72 0
-107 94 -86 0
-107 119 100 0
-107 130 101 0
-107 140 102 0
-107 149 103 0
-107 157 104 0
-107 164 105 0
-107 170 106 0
-107 -176 108 0
-107 -177 109 0
-107 -178 110 0
-107 -179 111 0
-107 -180 112 0
-108 15 -6 0
-108 33 -24 0
-108 50 -41 0
-108 66 -57 0
-108 81 -72 0
-108 95 -86 0
-108 120 100 0
-108 131 101 0
-108 141 102 0
-108 150 103 0
-108 158 104 0
-108 165 105 0
-108 171 106 0
-108 176 107 0
-108 -181 109 0
-108 -182 110 0
-108 -183 111 0
-108 -184 112 0
-109 16 -6 0
-109 34 -24 0
-109 51 -41 0
-109 67 -57 0
-109 82 -72 0
-109 96 -86 0
-109 121 100 0
-109 132 101 0
-109 142 102 0
-109 151 103 0
-109 159 104 0
-109 166 105 0
-109 172 106 0
-109 177 107 0
-109 181 108 0
-109 -185 110 0
-109 -186 111 0
-109 -187 112 0
-110 17 -6 0
-110 35 -24 0
-110 52 -41 0
-110 68 -57 0
-110 83 -72 0
-110 97 -86 0
-110 122 100 0
-110 133 101 0
-110 143 102 0
-110 152 103 0
-110 160 104 0
-110 167 105 0
-110 173 106 0
-110 178 107 0
-110 182 108 0
-110 185 109 0
-110 -188 111 0
-110 -189 112 0
-111 18 -6 0
-111 36 -24 0
-111 53 -41 0
-111 69 -57 0
-111 84 -72 0
-111 98 -86 0
-111 123 100 0
-111 134 101 0
-111 144 102 0
-111 153 103 0
-111 161 104 0
-111 168 105 0
-111 174 106 0
-111 179 107 0
-111 183 108 0
-111 186 109 0
-111 188 110 0
-111 -190 112 0
-112 19 -6 0
-112 37 -24 0
-112 54 -41 0
-112 70 -57 0
-112 85 -72 0
-112 99 -86 0
-112 124 100 0
-112 135 101 0
-112 145 102 0
-112 154 103 0
-112 162 104 0
-112 169 105 0
-112 175 106 0
-112 180 107 0
-112 184 108 0
-112 187 109 0
-112 189 110 0
-112 190 111 0
7 -1 -25 0
7 -2 -42 0
7 -3 -58 0
7 -4 -73 0
7 -5 -87 0
7 -6 -100 0
7 -8 113 0
7 -9 114 0
7 -10 115 0
7 -11 116 0
7 -12 117 0
7 -13 118 0
7 -14 119 0
7 -15 120 0
7 -16 121 0
7 -17 122 0
7 -18 123 0
7 -19 124 0
25 1 -7 0
25 -20 -42 0
25 -21 -58 0
25 -22 -73 0
25 -23 -87 0
25 -24 -100 0
25 -26 113 0
25 -27 114 0
25 -28 115 0
25 -29 116 0
25 -30 117 0
25 -31 118 0
25 -32 119 0
25 -33 120 0
25 -34 121 0
25 -35 122 0
25 -36 123 0
25 -37 124 0
42 2 -7 0
42 20 -25 0
42 -38 -58 0
42 -39 -73 0
42 -40 -87 0
42 -41 -100 0
42 -43 113 0
42 -44 114 0
42 -45 115 0
42 -46 116 0
42 -47 117 0
42 -48 118 0
42 -49 119 0
42 -50 120 0
42 -51 121 0
42 -52 122 0
42 -53 123 0
42 -54 124 0
58 3 -7 0
58 21 -25 0
58 38 -42 0
58 -55 -73 0
58 -56 -87 0
58 -57 -100 0
58 -59 113 0
58 -60 114 0
58 -61 115 0
58 -62 116 0
58 -63 117 0
58 -64 118 0
58 -65 119 0
58 -66 120 0
58 -67 121 0
58 -68 122 0
58 -69 123 0
58 -70 124 0
73 4 -7 0
73 22 -25 0
73 39 -42 0
73 55 -58 0
73 -71 -87 0
73 -72 -100 0
73 -74 113 0
73 -75 114 0
73 -76 115 0
73 -77 116 0
73 -78 117 0
73 -79 118 0
73 -80 119 0
73 -81 120 0
73 -82 121 0
73 -83 122 0
73 -84 123 0
73 -85 124 0
87 5 -7 0
87 23 -25 0
87 40 -42 0
87 56 -58 0
87 71 -73 0
87 -86 -100 0
87 -88 113 0
87 -89 114 0
87 -90 115 0
87 -91 116 0
87 -92 117 0
87 -93 118 0
87 -94 119 0
87 -95 120 0
87 -96 121 0
87 -97 122 0
87 -98 123 0
87 -99 124 0
100 6 -7 0
100 24 -25 0
100 41 -42 0
100 57 -58 0
100 72 -73 0
100 86 -87 0
100 -101 113 0
100 -102 114 0
100 -103 115 0
100 -104 116 0
100 -105 117 0
100 -106 118 0
100 -107 119 0
100 -108 120 0
100 -109 121 0
100 -110 122 0
100 -111 123 0
100 -112 124 0
-113 8 -7 0
-113 26 -25 0
-113 43 -42 0
-113 59 -58 0
-113 74 -73 0
-113 88 -87 0
-113 101 -100 0
-113 -125 114 0
-113 -126 115 0
-113 -127 116 0
-113 -128 117 0
-113 -129 118 0
-113 -130 119 0
-113 -131 120 0
-113 -132 121 0
-113 -133 122 0
-113 -134 123 0
-113 -135 124 0
-114 9 -7 0
-114 27 -25 0
-114 44 -42 0
-114 60 -58 0
-114 75 -73 0
-114 89 -87 0
-114 102 -100 0
-114 125 113 0
-114 -136 115 0
-114 -137 116 0
-114 -138 117 0
-114 -139 118 0
-114 -140 119 0
-114 -141 120 0
-114 -142 121 0
-114 -143 122 0
-114 -144 123 0
-114 -145 124 0
-115 10 -7 0
-115 28 -25 0
-115 45 -42 0
-115 61 -58 0
-115 76 -73 0
-115 90 -87 0
-115 103 -100 0
-115 126 113 0
-115 136 114 0
-115 -146 116 0
-115 -147 117 0
-115 -148 118 0
-115 -149 119 0
-115 -150 120 0
-115 -151 121 0
-115 -152 122 0
-115 -153 123 0
-115 -154 124 0
-116 11 -7 0
-116 29 -25 0
-116 46 -42 0
-116 62 -58 0
-116 77 -73 0
-116 91 -87 0
-116 104 -100 0
-116 127 113 0
-116 137 114 0
-116 146 115 0
-116 -155 117 0
-116 -156 118 0
-116 -157 119 0
-116 -158 120 0
-116 -159 121 0
-116 -160 122 0
-116 -161 123 0
-116 -162 124 0
-117 12 -7 0
-117 30 -25 0
-117 47 -42 0
-117 63 -58 0
-117 78 -73 0
-117 92 -87 0
-117 105 -100 0
-117 128 113 0
-117 138 114 0
-117 147 115 0
-117 155 116 0
-117 -163 118 0
-117 -164 119 0
-117 -165 120 0
-117 -166 121 0
-117 -167 122 0
-117 -168 123 0
-117 -169 124 0
-118 13 -7 0
-118 31 -25 0
-118 48 -42 0
-118 64 -58 0
-118 79 -73 0
-118 93 -87 0
-118 106 -100 0
-118 129 113 0
-118 139 114 0
-118 148 115 0
-118 156 116 0
-118 163 117 0
-118 -170 119 0
-118 -171 120 0
-118 -172 121 0
-118 -173 122 0
-118 -174 123 0
-118 -175 124 0
-119 14 -7 0
-119 32 -25 0
-119 49 -42 0
-119 65 -58 0
-119 80 -73 0
-119 94 -87 0
-119 107 -100 0
-119 130 113 0
-119 140 114 0
-119 149 115 0
-119 157 116 0
-119 164 117 0
-119 170 118 0
-119 -176 120 0
-119 -177 121 0
-119 -178 122 0
-119 -179 123 0
-119 -180 124 0
-120 15 -7 0
-120 33 -25 0
-120 50 -42 0
-120 66 -58 0
-120 81 -73 0
-120 95 -87 0
-120 108 -100 0
-120 131 113 0
-120 141 114 0
-120 150 115 0
-120 158 116 0
-120 165 117 0
-120 171 118 0
-120 176 119 0
-120 -181 121 0
-120 -182 122 0
-120 -183 123 0
-120 -184 124 0
-121 16 -7 0
-121 34 -25 0
-121 51 -42 0
-121 67 -58 0
-121 82 -73 0
-121 96 -87 0
-121 109 -100 0
-121 132 113 0
-121 142 114 0
-121 151 115 0
-121 159 116 0
-121 166 117 0
-121 172 118 0
-121 177 119 0
-121 181 120 0
-121 -185 122 0
-121 -186 123 0
-121 -187 124 0
-122 17 -7 0
-122 35 -25 0
-122 52 -42 0
-122 68 -58 0
-122 83 -73 0
-122 97 -87 0
-122 110 -100 0
-122 133 113 0
-122 143 114 0
-122 152 115 0
-122 160 116 0
-122 167 117 0
-122 173 118 0
-122 178 119 0
-122 182 120 0
-122 185 121 0
-122 -188 123 0
-122 -189 124 0
-123 18 -7 0
-123 36 -25 0
-123 53 -42 0
-123 69 -58 0
-123 84 -73 0
-123 98 -87 0
-123 111 -100 0
-123 134 113 0
-123 144 114 0
-123 153 115 0
-123 161 116 0
-123 168 117 0
-123 174 118 0
-123 179 119 0
-123 183 120 0
-123 186 121 0
-123 188 122 0
-123 -190 124 0
-124 19 -7 0
-124 37 -25 0
-124 54 -42 0
-124 70 -58 0
-124 85 -73 0
-124 99 -87 0
-124 112 -100 0
-124 135 113 0
-124 145 114 0
-124 154 115 0
-124 162 116 0
-124 169 117 0
-124 175 118 0
-124 180 119 0
-124 184 120 0
-124 187 121 0
-124 189 122 0
-124 190 123 0
8 -1 -26 0
8 -2 -43 0
8 -3 -59 0
8 -4 -74 0
8 -5 -88 0
8 -6 -101 0
8 -7 -113 0
8 -9 125 0
8 -10 126 0
8 -11 127 0
8 -12 128 0
8 -13 129 0
8 -14 130 0
8 -15 131 0
8 -16 132 0
8 -17 133 0
8 -18 134 0
8 -19 135 0
26 1 -8 0
26 -20 -43 0
26 -21 -59 0
26 -22 -74 0
26 -23 -88 0
26 -24 -101 0
26 -25 -113 0
26 -27 125 0
26 -28 126 0
26 -29 127 0
26 -30 128 0
26 -31 129 0
26 -32 130 0
26 -33 131 0
26 -34 132 0
26 -35 133 0
26 -36 134 0
26 -37 135 0
43 2 -8 0
43 20 -26 0
43 -38 -59 0
43 -39 -74 0
43 -40 -88 0
43 -41 -101 0
43 -42 -113 0
43 -44 125 0
43 -45 126 0
43 -46 127 0
43 -47 128 0
43 -48 129 0
43 -49 130 0
43 -50 131 0
43 -51 132 0
43 -52 133 0
43 -53 134 0
43 -54 135 0
59 3 -8 0
59 21 -26 0
59 38 -43 0
59 -55 -74 0
59 -56 -88 0
59 -57 -101 0
59 -58 -113 0
59 -60 125 0
59 -61 126 0
59 -62 127 0
59 -63 128 0
59 -64 129 0
59 -65 130 0
59 -66 131 0
59 -67 132 0
59 -68 133 0
59 -69 134 0
59 -70 135 0
74 4 -8 0
74 22 -26 0
74 39 -43 0
74 55 -59 0
74 -71 -88 0
74 -72 -101 0
74 -73 -113 0
74 -75 125 0
74 -76 126 0
74 -77 127 0
74 -78 128 0
74 -79 129 0
74 -80 130 0
74 -81 131 0
74 -82 132 0
74 -83 133 0
74 -84 134 0
74 -85 135 0
88 5 -8 0
88 23 -26 0
88 40 -43 0
88 56 -59 0
88 71 -74 0
88 -86 -101 0
88 -87 -113 0
88 -89 125 0
88 -90 126 0
88 -91 127 0
88 -92 128 0
88 -93 129 0
88 -94 130 0
88 -95 131 0
88 -96 132 0
88 -97 133 0
88 -98 134 0
88 -99 135 0
101 6 -8 0
101 24 -26 0
101 41 -43 0
101 57 -59 0
101 72 -74 0
101 86 -88 0
101 -100 -113 0
101 -102 125 0
101 -103 126 0
101 -104 127 0
101 -105 128 0
101 -106 129 0
101 -107 130 0
101 -108 131 0
101 -109 132 0
101 -110 133 0
101 -111 134 0
101 -112 135 0
113 7 -8 0
113 25 -26 0
113 42 -43 0
113 58 -59 0
113 73 -74 0
113 87 -88 0
113 100 -101 0
113 -114 125 0
113 -115 126 0
113 -116 127 0
113 -117 128 0
113 -118 129 0
113 -119 130 0
113 -120 131 0
113 -121 132 0
113 -122 133 0
113 -123 134 0
113 -124 135 0
-125 9 -8 0
-125 27 -26 0
-125 44 -43 0
-125 60 -59 0
-125 75 -74 0
-125 89 -88 0
-125 102 -101 0
-125 114 -113 0
-125 -136 126 0
-125 -137 127 0
-125 -138 128 0
-125 -139 129 0
-125 -140 130 0
-125 -141 131 0
-125 -142 132 0
-125 -143 133 0
-125 -144 134 0
-125 -145 135 0
-126 10 -8 0
-126 28 -26 0
-126 45 -43 0
-126 61 -59 0
-126 76 -74 0
-126 90 -88 0
-126 103 -101 0
-126 115 -113 0
-126 136 125 0
-126 -146 127 0
-126 -147 128 0
-126 -148 129 0
-126 -149 130 0
-126 -150 131 0
-126 -151 132 0
-126 -152 133 0
-126 -153 134 0
-126 -154 135 0
-127 11 -8 0
-127 29 -26 0
-127 46 -43 0
-127 62 -59 0
-127 77 -74 0
-127 91 -88 0
-127 104 -101 0
-127 116 -113 0
-127 137 125 0
-127 146 126 0
-127 -155 128 0
-127 -156 129 0
-127 -157 130 0
-127 -158 131 0
-127 -159 132 0
-127 -160 133 0
-127 -161 134 0
-127 -162 135 0
-128 12 -8 0
-128 30 -26 0
-128 47 -43 0
-128 63 -59 0
-128 78 -74 0
-128 92 -88 0
-128 105 -101 0
-128 117 -113 0
-128 138 125 0
-128 147 126 0
-128 155 127 0
-128 -163 129 0
-128 -164 130 0
-128 -165 131 0
-128 -166 132 0
-128 -167 133 0
-128 -168 134 0
-128 -169 135 0
-129 13 -8 0
-129 31 -26 0
-129 48 -43 0
-129 64 -59 0
-129 79 -74 0
-129 93 -88 0
-129 106 -101 0
-129 118 -113 0
-129 139 125 0
-129 148 126 0
-129 156 127 0
-129 163 128 0
-129 -170 130 0
-129 -171 131 0
-129 -172 132 0
-129 -173 133 0
-129 -174 134 0
-129 -175 135 0
-130 14 -8 0
-130 32 -26 0
-130 49 -43 0
-130 65 -59 0
-130 80 -74 0
-130 94 -88 0
-130 107 -101 0
-130 119 -113 0
-130 140 125 0
-130 149 126 0
-130 157 127 0
-130 164 128 0
-130 170 129 0
-130 -176 131 0
-130 -177 132 0
-130 -178 133 0
-130 -179 134 0
-130 -180 135 0
-131 15 -8 0
-131 33 -26 0
-131 50 -43 0
-131 66 -59 0
-131 81 -74 0
-131 95 -88 0
-131 108 -101 0
-131 120 -113 0
-131 141 125 0
-131 150 126 0
-131 158 127 0
-131 165 128 0
-131 171 129 0
-131 176 130 0
-131 -181 132 0
-131 -182 133 0
-131 -183 134 0
-131 -184 135 0
-132 16 -8 0
-132 34 -26 0
-132 51 -43 0
-132 67 -59 0
-132 82 -74 0
-132 96 -88 0
-132 109 -101 0
-132 121 -113 0
-132 142 125 0
-132 151 126 0
-132 159 127 0
-132 166 128 0
-132 172 129 0
-132 177 130 0
-132 181 131 0
-132 -185 133 0
-132 -186 134 0
-132 -187 135 0
-133 17 -8 0
-133 35 -26 0
-133 52 -43 0
-133 68 -59 0
-133 83 -74 0
-133 97 -88 0
-133 110 -101 0
-133 122 -113 0
-133 143 125 0
-133 152 126 0
-133 160 127 0
-133 167 128 0
-133 173 129 0
-133 178 130 0
-133 182 131 0
-133 185 132 0
-133 -188 134 0
-133 -189 135 0
-134 18 -8 0
-134 36 -26 0
-134 53 -43 0
-134 69 -59 0
-134 84 -74 0
-134 98 -88 0
-134 111 -101 0
-134 123 -113 0
-134 144 125 0
-134 153 126 0
-134 161 127 0
-134 168 128 0
-134 174 129 0
-134 179 130 0
-134 183 131 0
-134 186 132 0
-134 188 133 0
-134 -190 135 0
-135 19 -8 0
-135 37 -26 0
-135 54 -43 0
-135 70 -59 0
-135 85 -74 0
-135 99 -88 0
-135 112 -101 0
-135 124 -113 0
-135 145 125 0
-135 154 126 0
-135 162 127 0
-135 169 128 0
-135 175 129 0
-135 180 130 0
-135 184 131 0
-135 187 132 0
-135 189 133 0
-135 190 134 0
9 -1 -27 0
9 -2 -44 0
9 -3 -60 0
9 -4 -75 0
9 -5 -89 0
9 -6 -102 0
9 -7 -114 0
9 -8 -125 0
9 -10 136 0
9 -11 137 0
9 -12 138 0
9 -13 139 0
9 -14 140 0
9 -15 141 0
9 -16 142 0
9 -17 143 0
9 -18 144 0
9 -19 145 0
27 1 -9 0
27 -20 -44 0
27 -21 -60 0
27 -22 -75 0
27 -23 -89 0
27 -24 -102 0
27 -25 -114 0
27 -26 -125 0
27 -28 136 0
27 -29 137 0
27 -30 138 0
27 -31 139 0
27 -32 140 0
27 -33 141 0
27 -34 142 0
27 -35 143 0
27 -36 144 0
27 -37 145 0
44 2 -9 0
44 20 -27 0
44 -38 -60 0
44 -39 -75 0
44 -40 -89 0
44 -41 -102 0
44 -42 -114 0
44 -43 -125 0
44 -45 136 0
44 -46 137 0
44 -47 138 0
44 -48 139 0
44 -49 140 0
44 -50 141 0
44 -51 142 0
44 -52 143 0
44 -53 144 0
44 -54 145 0
60 3 -9 0
60 21 -27 0
60 38 -44 0
60 -55 -75 0
60 -56 -89 0
60 -57 -102 0
60 -58 -114 0
60 -59 -125 0
60 -61 136 0
60 -62 137 0
60 -63 138 0
60 -64 139 0
60 -65 140 0
60 -66 141 0
60 -67 142 0
60 -68 143 0
60 -69 144 0
60 -70 145 0
75 4 -9 0
75 22 -27 0
75 39 -44 0
75 55 -60 0
75 -71 -89 0
75 -72 -102 0
75 -73 -114 0
75 -74 -125 0
75 -76 136 0
75 -77 137 0
75 -78 138 0
75 -79 139 0
75 -80 140 0
75 -81 141 0
75 -82 142 0
75 -83 143 0
75 -84 144 0
75 -85 145 0
89 5 -9 0
89 23 -27 0
89 40 -44 0
89 56 -60 0
89 71 -75 0
89 -86 -102 0
89 -87 -114 0
89 -88 -125 0
89 -90 136 0
89 -91 137 0
89 -92 138 0
89 -93 139 0
89 -94 140 0
89 -95 141 0
89 -96 142 0
89 -97 143 0
89 -98 144 0
89 -99 145 0
102 6 -9 0
102 24 -27 0
102 41 -44 0
102 57 -60 0
102 72 -75 0
102 86 -89 0
102 -100 -114 0
102 -101 -125 0
102 -103 136 0
102 -104 137 0
102 -105 138 0
102 -106 139 0
102 -107 140 0
102 -108 141 0
102 -109 142 0
102 -110 143 0
102 -111 144 0
102 -112 145 0
114 7 -9 0
114 25 -27 0
114 42 -44 0
114 58 -60 0
114 73 -75 0
114 87 -89 0
114 100 -102 0
114 -113 -125 0
114 -115 136 0
114 -116 137 0
114 -117 138 0
114 -118 139 0
114 -119 140 0
114 -120 141 0
114 -121 142 0
114 -122 143 0
114 -123 144 0
114 -124 145 0
125 8 -9 0
125 26 -27 0
125 43 -44 0
125 59 -60 0
125 74 -75 0
125 88 -89 0
125 101 -102 0
125 113 -114 0
125 -126 136 0
125 -127 137 0
125 -128 138 0
125 -129 139 0
125 -130 140 0
125 -131 141 0
125 -132 142 0
125 -133 143 0
125 -134 144 0
125 -135 145 0
-136 10 -9 0
-136 28 -27 0
-136 45 -44 0
-136 61 -60 0
-136 76 -75 0
-136 90 -89 0
-136 103 -102 0
-136 115 -114 0
-136 126 -125 0
-136 -146 137 0
-136 -147 138 0
-136 -148 139 0
-136 -149 140 0
-136 -150 141 0
-136 -151 142 0
-136 -152 143 0
-136 -153 144 0
-136 -154 145 0
-137 11 -9 0
-137 29 -27 0
-137 46 -44 0
-137 62 -60 0
-137 77 -75 0
-137 91 -89 0
-137 104 -102 0
-137 116 -114 0
-137 127 -125 0
-137 146 136 0
-137 -155 138 0
-137 -156 139 0
-137 -157 140 0
-137 -158 141 0
-137 -159 142 0
-137 -160 143 0
-137 -161 144 0
-137 -162 145 0
-138 12 -9 0
-138 30 -27 0
-138 47 -44 0
-138 63 -60 0
-138 78 -75 0
-138 92 -89 0
-138 105 -102 0
-138 117 -114 0
-138 128 -125 0
-138 147 136 0
-138 155 137 0
-138 -163 139 0
-138 -164 140 0
-138 -165 141 0
-138 -166 142 0
-138 -167 143 0
-138 -168 144 0
-138 -169 145 0
-139 13 -9 0
-139 31 -27 0
-139 48 -44 0
-139 64 -60 0
-139 79 -75 0
-139 93 -89 0
-139 106 -102 0
-139 118 -114 0
-139 129 -125 0
-139 148 136 0
-139 156 137 0
-139 163 138 0
-139 -170 140 0
-139 -171 141 0
-139 -172 142 0
-139 -173 143 0
-139 -174 144 0
-139 -175 145 0
-140 14 -9 0
-140 32 -27 0
-140 49 -44 0
-140 65 -60 0
-140 80 -75 0
-140 94 -89 0
-140 107 -102 0
-140 119 -114 0
-140 130 -125 0
-140 149 136 0
-140 157 137 0
-140 164 138 0
-140 170 139 0
-140 -176 141 0
-140 -177 142 0
-140 -178 143 0
-140 -179 144 0
-140 -180 145 0
-141 15 -9 0
-141 33 -27 0
-141 50 -44 0
-141 66 -60 0
-141 81 -75 0
-141 95 -89 0
-141 108 -102 0
-141 120 -114 0
-141 131 -125 0
-141 150 136 0
-141 158 137 0
-141 165 138 0
-141 171 139 0
-141 176 140 0
-141 -181 142 0
-141 -182 143 0
-141 -183 144 0
-141 -184 145 0
-142 16 -9 0
-142 34 -27 0
-142 51 -44 0
-142 67 -60 0
-142 82 -75 0
-142 96 -89 0
-142 109 -102 0
-142 121 -114 0
-142 132 -125 0
-142 151 136 0
-142 159 137 0
-142 166 138 0
-142 172 139 0
-142 177 140 0
-142 181 141 0
-142 -185 143 0
-142 -186 144 0
-142 -187 145 0
-143 17 -9 0
-143 35 -27 0
-143 52 -44 0
-143 68 -60 0
-143 83 -75 0
-143 97 -89 0
-143 110 -102 0
-143 122 -114 0
-143 133 -125 0
-143 152 136 0
-143 160 137 0
-143 167 138 0
-143 173 139 0
-143 178 140 0
-143 182 141 0
-143 185 142 0
-143 -188 144 0
-143 -189 145 0
-144 18 -9 0
-144 36 -27 0
-144 53 -44 0
-144 69 -60 0
-144 84 -75 0
-144 98 -89 0
-144 111 -102 0
-144 123 -114 0
-144 134 -125 0
-144 153 136 0
-144 161 137 0
-144 168 138 0
-144 174 139 0
-144 179 140 0
-144 183 141 0
-144 186 142 0
-144 188 143 0
-144 -190 145 0
-145 19 -9 0
-145 37 -27 0
-145 54 -44 0
-145 70 -60 0
-145 85 -75 0
-145 99 -89 0
-145 112 -102 0
-145 124 -114 0
-145 135 -125 0
-145 154 136 0
-145 162 137 0
-145 169 138 0
-145 175 139 0
-145 180 140 0
-145 184 141 0
-145 187 142 0
-145 189 143 0
-145 190 144 0
10 -1 -28 0
10 -2 -45 0
10 -3 -61 0
10 -4 -76 0
10 -5 -90 0
10 -6 -103 0
10 -7 -115 0
10 -8 -126 0
10 -9 -136 0
10 -11 146 0
10 -12 147 0
10 -13 148 0
10 -14 149 0
10 -15 150 0
10 -16 151 0
10 -17 152 0
10 -18 153 0
10 -19 154 0
28 1 -10 0
28 -20 -45 0
28 -21 -61 0
28 -22 -76 0
28 -23 -90 0
28 -24 -103 0
28 -25 -115 0
28 -26 -126 0
28 -27 -136 0
28 -29 146 0
28 -30 147 0
28 -31 148 0
28 -32 149 0
28 -33 150 0
28 -34 151 0
28 -35 152 0
28 -36 153 0
28 -37 154 0
45 2 -10 0
45 20 -28 0
45 -38 -61 0
45 -39 -76 0
45 -40 -90 0
45 -41 -103 0
45 -42 -115 0
45 -43 -126 0
45 -44 -136 0
45 -46 146 0
45 -47 147 0
45 -48 148 0
45 -49 149 0
45 -50 150 0
45 -51 151 0
45 -52 152 0
45 -53 153 0
45 -54 154 0
61 3 -10 0
61 21 -28 0
61 38 -45 0
61 -55 -76 0
61 -56 -90 0
61 -57 -103 0
61 -58 -115 0
61 -59 -126 0
61 -60 -136 0
61 -62 146 0
61 -63 147 0
61 -64 148 0
61 -65 149 0
61 -66 150 0
61 -67 151 0
61 -68 152 0
61 -69 153 0
61 -70 154 0
76 4 -10 0
76 22 -28 0
76 39 -45 0
76 55 -61 0
76 -71 -90 0
76 -72 -103 0
76 -73 -115 0
76 -74 -126 0
76 -75 -136 0
76 -77 146 0
76 -78 147 0
76 -79 148 0
76 -80 149 0
76 -81 150 0
76 -82 151 0
76 -83 152 0
76 -84 153 0
76 -85 154 0
90 5 -10 0
90 23 -28 0
90 40 -45 0
90 56 -61 0
90 71 -76 0
90 -86 -103 0
90 -87 -115 0
90 -88 -126 0
90 -89 -136 0
90 -91 146 0
90 -92 147 0
90 -93 148 0
90 -94 149 0
90 -95 150 0
90 -96 151 0
90 -97 152 0
90 -98 153 0
90 -99 154 0
103 6 -10 0
103 24 -28 0
103 41 -45 0
103 57 -61 0
103 72 -76 0
103 86 -90 0
103 -100 -115 0
103 -101 -126 0
103 -102 -136 0
103 -104 146 0
103 -105 147 0
103 -106 148 0
103 -107 149 0
103 -108 150 0
103 -109 151 0
103 -110 152 0
103 -111 153 0
103 -112 154 0
115 7 -10 0
115 25 -28 0
115 42 -45 0
115 58 -61 0
115 73 -76 0
115 87 -90 0
115 100 -103 0
115 -113 -126 0
115 -114 -136 0
115 -116 146 0
115 -117 147 0
115 -118 148 0
115 -119 149 0
115 -120 150 0
115 -121 151 0
115 -122 152 0
115 -123 153 0
115 -124 154 0
126 8 -10 0
126 26 -28 0
126 43 -45 0
126 59 -61 0
126 74 -76 0
126 88 -90 0
126 101 -103 0
126 113 -115 0
126 -125 -136 0
126 -127 146 0
126 -128 147 0
126 -129 148 0
126 -130 149 0
126 -131 150 0
126 -132 151 0
126 -133 152 0
126 -134 153 0
126 -135 154 0
136 9 -10 0
136 27 -28 0
136 44 -45 0
136 60 -61 0
136 75 -76 0
136 89 -90 0
136 102 -103 0
136 114 -115 0
136 125 -126 0
136 -137 146 0
136 -138 147 0
136 -139 148 0
136 -140 149 0
136 -141 150 0
136 -142 151 0
136 -143 152 0
136 -144 153 0
136 -145 154 0
-146 11 -10 0
-146 29 -28 0
-146 46 -45 0
-146 62 -61 0
-146 77 -76 0
-146 91 -90 0
-146 104 -103 0
-146 116 -115 0
-146 127 -126 0
-146 137 -136 0
-146 -155 147 0
-146 -156 148 0
-146 -157 149 0
-146 -158 150 0
-146 -159 151 0
-146 -160 152 0
-146 -161 153 0
-146 -162 154 0
-147 12 -10 0
-147 30 -28 0
-147 47 -45 0
-147 63 -61 0
-147 78 -76 0
-147 92 -90 0
-147 105 -103 0
-147 117 -115 0
-147 128 -126 0
-147 138 -136 0
-147 155 146 0
-147 -163 148 0
-147 -164 149 0
-147 -165 150 0
-147 -166 151 0
-147 -167 152 0
-147 -168 153 0
-147 -169 154 0
-148 13 -10 0
-148 31 -28 0
-148 48 -45 0
-148 64 -61 0
-148 79 -76 0
-148 93 -90 0
-148 106 -103 0
-148 118 -115 0
-148 129 -126 0
-148 139 -136 0
-148 156 146 0
-148 163 147 0
-148 -170 149 0
-148 -171 150 0
-148 -172 151 0
-148 -173 152 0
-148 -174 153 0
-148 -175 154 0
-149 14 -10 0
-149 32 -28 0
-149 49 -45 0
-149 65 -61 0
-149 80 -76 0
-149 94 -90 0
-149 107 -103 0
-149 119 -115 0
-149 130 -126 0
-149 140 -136 0
-149 157 146 0
-149 164 147 0
-149 170 148 0
-149 -176 150 0
-149 -177 151 0
-149 -178 152 0
-149 -179 153 0
-149 -180 154 0
-150 15 -10 0
-150 33 -28 0
-150 50 -45 0
-150 66 -61 0
-150 81 -76 0
-150 95 -90 0
-150 108 -103 0
-150 120 -115 0
-150 131 -126 0
-150 141 -136 0
-150 158 146 0
-150 165 147 0
-150 171 148 0
-150 176 149 0
-150 -181 151 0
-150 -182 152 0
-150 -183 153 0
-150 -184 154 0
-151 16 -10 0
-151 34 -28 0
-151 51 -45 0
-151 67 -61 0
-151 82 -76 0
-151 96 -90 0
-151 109 -103 0
-151 121 -115 0
-151 132 -126 0
-151 142 -136 0
-151 159 146 0
-151 166 147 0
-151 172 148 0
-151 177 149 0
-151 181 150 0
-151 -185 152 0
-151 -186 153 0
-151 -187 154 0
-152 17 -10 0
-152 35 -28 0
-152 52 -45 0
-152 68 -61 0
-152 83 -76 0
-152 97 -90 0
-152 110 -103 0
-152 122 -115 0
-152 133 -126 0
-152 143 -136 0
-152 160 146 0
-152 167 147 0
-152 173 148 0
-152 178 149 0
-152 182 150 0
-152 185 151 0
-152 -188 153 0
-152 -189 154 0
-153 18 -10 0
-153 36 -28 0
-153 53 -45 0
-153 69 -61 0
-153 84 -76 0
-153 98 -90 0
-153 111 -103 0
-153 123 -115 0
-153 134 -126 0
-153 144 -136 0
-153 161 146 0
-153 168 147 0
-153 174 148 0
-153 179 149 0
-153 183 150 0
-153 186 151 0
-153 188 152 0
-153 -190 154 0
-154 19 -10 0
-154 37 -28 0
-154 54 -45 0
-154 70 -61 0
-154 85 -76 0
-154 99 -90 0
-154 112 -103 0
-154 124 -115 0
-154 135 -126 0
-154 145 -136 0
-154 162 146 0
-154 169 147 0
-154 175 148 0
-154 180 149 0
-154 184 150 0
-154 187 151 0
-154 189 152 0
-154 190 153 0
11 -1 -29 0
11 -2 -46 0
11 -3 -62 0
11 -4 -77 0
11 -5 -91 0
11 -6 -104 0
11 -7 -116 0
11 -8 -127 0
11 -9 -137 0
11 -10 -146 0
11 -12 155 0
11 -13 156 0
11 -14 157 0
11 -15 158 0
11 -16 159 0
11 -17 160 0
11 -18 161 0
11 -19 162 0
29 1 -11 0
29 -20 -46 0
29 -21 -62 0
29 -22 -77 0
29 -23 -91 0
29 -24 -104 0
29 -25 -116 0
29 -26 -127 0
29 -27 -137 0
29 -28 -146 0
29 -30 155 0
29 -31 156 0
29 -32 157 0
29 -33 158 0
29 -34 159 0
29 -35 160 0
29 -36 161 0
29 -37 162 0
46 2 -11 0
46 20 -29 0
46 -38 -62 0
46 -39 -77 0
46 -40 -91 0
46 -41 -104 0
46 -42 -116 0
46 -43 -127 0
46 -44 -137 0
46 -45 -146 0
46 -47 155 0
46 -48 156 0
46 -49 157 0
46 -50 158 0
46 -51 159 0
46 -52 160 0
46 -53 161 0
46 -54 162 0
62 3 -11 0
62 21 -29 0
62 38 -46 0
62 -55 -77 0
62 -56 -91 0
62 -57 -104 0
62 -58 -116 0
62 -59 -127 0
62 -60 -137 0
62 -61 -146 0
62 -63 155 0
62 -64 156 0
62 -65 157 0
62 -66 158 0
62 -67 159 0
62 -68 160 0
62 -69 161 0
62 -70 162 0
77 4 -11 0
77 22 -29 0
77 39 -46 0
77 55 -62 0
77 -71 -91 0
77 -72 -104 0
77 -73 -116 0
77 -74 -127 0
77 -75 -137 0
77 -76 -146 0
77 -78 155 0
77 -79 156 0
77 -80 157 0
77 -81 158 0
77 -82 159 0
77 -83 160 0
77 -84 161 0
77 -85 162 0
91 5 -11 0
91 23 -29 0
91 40 -46 0
91 56 -62 0
91 71 -77 0
91 -86 -104 0
91 -87 -116 0
91 -88 -127 0
91 -89 -137 0
91 -90 -146 0
91 -92 155 0
91 -93 156 0
91 -94 157 0
91 -95 158 0
91 -96 159 0
91 -97 160 0
91 -98 161 0
91 -99 162 0
104 6 -11 0
104 24 -29 0
104 41 -46 0
104 57 -62 0
104 72 -77 0
104 86 -91 0
104 -100 -116 0
104 -101 -127 0
104 -102 -137 0
104 -103 -146 0
104 -105 155 0
104 -106 156 0
104 -107 157 0
104 -108 158 0
104 -109 159 0
104 -110 160 0
104 -111 161 0
104 -112 162 0
116 7 -11 0
116 25 -29 0
116 42 -46 0
116 58 -62 0
116 73 -77 0
116 87 -91 0
116 100 -104 0
116 -113 -127 0
116 -114 -137 0
116 -115 -146 0
116 -117 155 0
116 -118 156 0
116 -119 157 0
116 -120 158 0
116 -121 159 0
116 -122 160 0
116 -123 161 0
116 -124 162 0
127 8 -11 0
127 26 -29 0
127 43 -46 0
127 59 -62 0
127 74 -77 0
127 88 -91 0
127 101 -104 0
127 113 -116 0
127 -125 -137 0
127 -126 -146 0
127 -128 155 0
127 -129 156 0
127 -130 157 0
127 -131 158 0
127 -132 159 0
127 -133 160 0
127 -134 161 0
127 -135 162 0
137 9 -11 0
137 27 -29 0
137 44 -46 0
137 60 -62 0
137 75 -77 0
137 89 -91 0
137 102 -104 0
137 114 -116 0
137 125 -127 0
137 -136 -146 0
137 -138 155 0
137 -139 156 0
137 -140 157 0
137 -141 158 0
137 -142 159 0
137 -143 160 0
137 -144 161 0
137 -145 162 0
146 10 -11 0
146 28 -29 0
146 45 -46 0
146 61 -62 0
146 76 -77 0
146 90 -91 0
146 103 -104 0
146 115 -116 0
146 126 -127 0
146 136 -137 0
146 -147 155 0
146 -148 156 0
146 -149 157 0
146 -150 158 0
146 -151 159 0
146 -152 160 0
146 -153 161 0
146 -154 162 0
-155 12 -11 0
-155 30 -29 0
-155 47 -46 0
-155 63 -62 0
-155 78 -77 0
-155 92 -91 0
-155 105 -104 0
-155 117 -116 0
-155 128 -127 0
-155 138 -137 0
-155 147 -146 0
-155 -163 156 0
-155 -164 157 0
-155 -165 158 0
-155 -166 159 0
-155 -167 160 0
-155 -168 161 0
-155 -169 162 0
-156 13 -11 0
-156 31 -29 0
-156 48 -46 0
-156 64 -62 0
-156 79 -77 0
-156 93 -91 0
-156 106 -104 0
-156 118 -116 0
-156 129 -127 0
-156 139 -137 0
-156 148 -146 0
-156 163 155 0
-156 -170 157 0
-156 -171 158 0
-156 -172 159 0
-156 -173 160 0
-156 -174 161 0
-156 -175 162 0
-157 14 -11 0
-157 32 -29 0
-157 49 -46 0
-157 65 -62 0
-157 80 -77 0
-157 94 -91 0
-157 107 -104 0
-157 119 -116 0
-157 130 -127 0
-157 140 -137 0
-157 149 -146 0
-157 164 155 0
-157 170 156 0
-157 -176 158 0
-157 -177 159 0
-157 -178 160 0
-157 -179 161 0
-157 -180 162 0
-158 15 -11 0
-158 33 -29 0
-158 50 -46 0
-158 66 -62 0
-158 81 -77 0
-158 95 -91 0
-158 108 -104 0
-158 120 -116 0
-158 131 -127 0
-158 141 -137 0
-158 150 -146 0
-158 165 155 0
-158 171 156 0
-158 176 157 0
-158 -181 159 0
-158 -182 160 0
-158 -183 161 0
-158 -184 162 0
-159 16 -11 0
-159 34 -29 0
-159 51 -46 0
-159 67 -62 0
-159 82 -77 0
-159 96 -91 0
-159 109 -104 0
-159 121 -116 0
-159 132 -127 0
-159 142 -137 0
-159 151 -146 0
-159 166 155 0
-159 172 156 0
-159 177 157 0
-159 181 158 0
-159 -185 160 0
-159 -186 161 0
-159 -187 162 0
-160 17 -11 0
-160 35 -29 0
-160 52 -46 0
-160 68 -62 0
-160 83 -77 0
-160 97 -91 0
-160 110 -104 0
-160 122 -116 0
-160 133 -127 0
-160 143 -137 0
-160 152 -146 0
-160 167 155 0
-160 173 156 0
-160 178 157 0
-160 182 158 0
-160 185 159 0
-160 -188 161 0
-160 -189 162 0
-161 18 -11 0
-161 36 -29 0
-161 53 -46 0
-161 69 -62 0
-161 84 -77 0
-161 98 -91 0
-161 111 -104 0
-161 123 -116 0
-161 134 -127 0
-161 144 -137 0
-161 153 -146 0
-161 168 155 0
-161 174 156 0
-161 179 157 0
-161 183 158 0
-161 186 159 0
-161 188 160 0
-161 -190 162 0
-162 19 -11 0
-162 37 -29 0
-162 54 -46 0
-162 70 -62 0
-162 85 -77 0
-162 99 -91 0
-162 112 -104 0
-162 124 -116 0
-162 135 -127 0
-162 145 -137 0
-162 154 -146 0
-162 169 155 0
-162 175 156 0
-162 180 157 0
-162 184 158 0
-162 187 159 0
-162 189 160 0
-162 190 161 0
12 -1 -30 0
12 -2 -47 0
12 -3 -63 0
12 -4 -78 0
12 -5 -92 0
12 -6 -105 0
12 -7 -117 0
12 -8 -128 0
12 -9 -138 0
12 -10 -147 0
12 -11 -155 0
12 -13 163 0
12 -14 164 0
12 -15 165 0
12 -16 166 0
12 -17 167 0
12 -18 168 0
12 -19 169 0
30 1 -12 0
30 -20 -47 0
30 -21 -63 0
30 -22 -78 0
30 -23 -92 0
30 -24 -105 0
30 -25 -117 0
30 -26 -128 0
30 -27 -138 0
30 -28 -147 0
30 -29 -155 0
30 -31 163 0
30 -32 164 0
30 -33 165 0
30 -34 166 0
30 -35 167 0
30 -36 168 0
30 -37 169 0
47 2 -12 0
47 20 -30 0
47 -38 -63 0
47 -39 -78 0
47 -40 -92 0
47 -41 -105 0
47 -42 -117 0
47 -43 -128 0
47 -44 -138 0
47 -45 -147 0
47 -46 -155 0
47 -48 163 0
47 -49 164 0
47 -50 165 0
47 -51 166 0
47 -52 167 0
47 -53 168 0
47 -54 169 0
63 3 -12 0
63 21 -30 0
63 38 -47 0
63 -55 -78 0
63 -56 -92 0
63 -57 -105 0
63 -58 -117 0
63 -59 -128 0
63 -60 -138 0
63 -61 -147 0
63 -62 -155 0
63 -64 163 0
63 -65 164 0
63 -66 165 0
63 -67 166 0
63 -68 167 0
63 -69 168 0
63 -70 169 0
78 4 -12 0
78 22 -30 0
78 39 -47 0
78 55 -63 0
78 -71 -92 0
78 -72 -105 0
78 -73 -117 0
78 -74 -128 0
78 -75 -138 0
78 -76 -147 0
78 -77 -155 0
78 -79 163 0
78 -80 164 0
78 -81 165 0
78 -82 166 0
78 -83 167 0
78 -84 168 0
78 -85 169 0
92 5 -12 0
92 23 -30 0
92 40 -47 0
92 56 -63 0
92 71 -78 0
92 -86 -105 0
92 -87 -117 0
92 -88 -128 0
92 -89 -138 0
92 -90 -147 0
92 -91 -155 0
92 -93 163 0
92 -94 164 0
92 -95 165 0
92 -96 166 0
92 -97 167 0
92 -98 168 0
92 -99 169 0
105 6 -12 0
105 24 -30 0
105 41 -47 0
105 57 -63 0
105 72 -78 0
105 86 -92 0
105 -100 -117 0
105 -101 -128 0
105 -102 -138 0
105 -103 -147 0
105 -104 -155 0
105 -106 163 0
105 -107 164 0
105 -108 165 0
105 -109 166 0
105 -110 167 0
105 -111 168 0
105 -112 169 0
117 7 -12 0
117 25 -30 0
117 42 -47 0
117 58 -63 0
117 73 -78 0
117 87 -92 0
117 100 -105 0
117 -113 -128 0
117 -114 -138 0
117 -115 -147 0
117 -116 -155 0
117 -118 163 0
117 -119 164 0
117 -120 165 0
117 -121 166 0
117 -122 167 0
117 -123 168 0
117 -124 169 0
128 8 -12 0
128 26 -30 0
128 43 -47 0
128 59 -63 0
128 74 -78 0
128 88 -92 0
128 101 -105 0
128 113 -117 0
128 -125 -138 0
128 -126 -147 0
128 -127 -155 0
128 -129 163 0
128 -130 164 0
128 -131 165 0
128 -132 166 0
128 -133 167 0
128 -134 168 0
128 -135 169 0
138 9 -12 0
138 27 -30 0
138 44 -47 0
138 60 -63 0
138 75 -78 0
138 89 -92 0
138 102 -105 0
138 114 -117 0
138 125 -128 0
138 -136 -147 0
138 -137 -155 0
138 -139 163 0
138 -140 164 0
138 -141 165 0
138 -142 166 0
138 -143 167 0
138 -144 168 0
138 -145 169 0
147 10 -12 0
147 28 -30 0
147 45 -47 0
147 61 -63 0
147 76 -78 0
147 90 -92 0
147 103 -105 0
147 115 -117 0
147 126 -128 0
147 136 -138 0
147 -146 -155 0
147 -148 163 0
147 -149 164 0
147 -150 165 0
147 -151 166 0
147 -152 167 0
147 -153 168 0
147 -154 169 0
155 11 -12 0
155 29 -30 0
155 46 -47 0
155 62 -63 0
155 77 -78 0
155 91 -92 0
155 104 -105 0
155 116 -117 0
155 127 -128 0
155 137 -138 0
155 146 -147 0
155 -156 163 0
155 -157 164 0
155 -158 165 0
155 -159 166 0
155 -160 167 0
155 -161 168 0
155 -162 169 0
-163 13 -12 0
-163 31 -30 0
-163 48 -47 0
-163 64 -63 0
-163 79 -78 0
-163 93 -92 0
-163 106 -105 0
-163 118 -117 0
-163 129 -128 0
-163 139 -138 0
-163 148 -147 0
-163 156 -155 0
-163 -170 164 0
-163 -171 165 0
-163 -172 166 0
-163 -173 167 0
-163 -174 168 0
-163 -175 169 0
-164 14 -12 0
-164 32 -30 0
-164 49 -47 0
-164 65 -63 0
-164 80 -78 0
-164 94 -92 0
-164 107 -105 0
-164 119 -117 0
-164 130 -128 0
-164 140 -138 0
-164 149 -147 0
-164 157 -155 0
-164 170 163 0
-164 -176 165 0
-164 -177 166 0
-164 -178 167 0
-164 -179 168 0
-164 -180 169 0
-165 15 -12 0
-165 33 -30 0
-165 50 -47 0
-165 66 -63 0
-165 81 -78 0
-165 95 -92 0
-165 108 -105 0
-165 120 -117 0
-165 131 -128 0
-165 141 -138 0
-165 150 -147 0
-165 158 -155 0
-165 171 163 0
-165 176 164 0
-165 -181 166 0
-165 -182 167 0
-165 -183 168 0
-165 -184 169 0
-166 16 -12 0
-166 34 -30 0
-166 51 -47 0
-166 67 -63 0
-166 82 -78 0
-166 96 -92 0
-166 109 -105 0
-166 121 -117 0
-166 132 -128 0
-166 142 -138 0
-166 151 -147 0
-166 159 -155 0
-166 172 163 0
-166 177 164 0
-166 181 165 0
-166 -185 167 0
-166 -186 168 0
-166 -187 169 0
-167 17 -12 0
-167 35 -30 0
-167 52 -47 0
-167 68 -63 0
-167 83 -78 0
-167 97 -92 0
-167 110 -105 0
-167 122 -117 0
-167 133 -128 0
-167 143 -138 0
-167 152 -147 0
-167 160 -155 0
-167 173 163 0
-167 178 164 0
-167 182 165 0
-167 185 166 0
-167 -188 168 0
-167 -189 169 0
-168 18 -12 0
-168 36 -30 0
-168 53 -47 0
-168 69 -63 0
-168 84 -78 0
-168 98 -92 0
-168 111 -105 0
-168 123 -117 0
-168 134 -128 0
-168 144 -138 0
-168 153 -147 0
-168 161 -155 0
-168 174 163 0
-168 179 164 0
-168 183 165 0
-168 186 166 0
-168 188 167 0
-168 -190 169 0
-169 19 -12 0
-169 37 -30 0
-169 54 -47 0
-169 70 -63 0
-169 85 -78 0
-169 99 -92 0
-169 112 -105 0
-169 124 -117 0
-169 135 -128 0
-169 145 -138 0
-169 154 -147 0
-169 162 -155 0
-169 175 163 0
-169 180 164 0
-169 184 165 0
-169 187 166 0
-169 189 167 0
-169 190 168 0
13 -1 -31 0
13 -2 -48 0
13 -3 -64 0
13 -4 -79 0
13 -5 -93 0
13 -6 -106 0
13 -7 -118 0
13 -8 -129 0
13 -9 -139 0
13 -10 -148 0
13 -11 -156 0
13 -12 -163 0
13 -14 170 0
13 -15 171 0
13 -16 172 0
13 -17 173 0
13 -18 174 0
13 -19 175 0
31 1 -13 0
31 -20 -48 0
31 -21 -64 0
31 -22 -79 0
31 -23 -93 0
31 -24 -106 0
31 -25 -118 0
31 -26 -129 0
31 -27 -139 0
31 -28 -148 0
31 -29 -156 0
31 -30 -163 0
31 -32 170 0
31 -33 171 0
31 -34 172 0
31 -35 173 0
31 -36 174 0
31 -37 175 0
48 2 -13 0
48 20 -31 0
48 -38 -64 0
48 -39 -79 0
48 -40 -93 0
48 -41 -106 0
48 -42 -118 0
48 -43 -129 0
48 -44 -139 0
48 -45 -148 0
48 -46 -156 0
48 -47 -163 0
48 -49 170 0
48 -50 171 0
48 -51 172 0
48 -52 173 0
48 -53 174 0
48 -54 175 0
64 3 -13 0
64 21 -31 0
64 38 -48 0
64 -55 -79 0
64 -56 -93 0
64 -57 -106 0
64 -58 -118 0
64 -59 -129 0
64 -60 -139 0
64 -61 -148 0
64 -62 -156 0
64 -63 -163 0
64 -65 170 0
64 -66 171 0
64 -67 172 0
64 -68 173 0
64 -69 174 0
64 -70 175 0
79 4 -13 0
79 22 -31 0
79 39 -48 0
79 55 -64 0
79 -71 -93 0
79 -72 -106 0
79 -73 -118 0
79 -74 -129 0
79 -75 -139 0
79 -76 -148 0
79 -77 -156 0
79 -78 -163 0
79 -80 170 0
79 -81 171 0
79 -82 172 0
79 -83 173 0
79 -84 174 0
79 -85 175 0
93 5 -13 0
93 23 -31 0
93 40 -48 0
93 56 -64 0
93 71 -79 0
93 -86 -106 0
93 -87 -118 0
93 -88 -129 0
93 -89 -139 0
93 -90 -148 0
93 -91 -156 0
93 -92 -163 0
93 -94 170 0
93 -95 171 0
93 -96 172 0
93 -97 173 0
93 -98 174 0
93 -99 175 0
106 6 -13 0
106 24 -31 0
106 41 -48 0
106 57 -64 0
106 72 -79 0
106 86 -93 0
106 -100 -118 0
106 -101 -129 0
106 -102 -139 0
106 -103 -148 0
106 -104 -156 0
106 -105 -163 0
106 -107 170 0
106 -108 171 0
106 -109 172 0
106 -110 173 0
106 -111 174 0
106 -112 175 0
118 7 -13 0
118 25 -31 0
118 42 -48 0
118 58 -64 0
118 73 -79 0
118 87 -93 0
118 100 -106 0
118 -113 -129 0
118 -114 -139 0
118 -115 -148 0
118 -116 -156 0
118 -117 -163 0
118 -119 170 0
118 -120 171 0
118 -121 172 0
118 -122 173 0
118 -123 174 0
118 -124 175 0
129 8 -13 0
129 26 -31 0
129 43 -48 0
129 59 -64 0
129 74 -79 0
129 88 -93 0
129 101 -106 0
129 113 -118 0
129 -125 -139 0
129 -126 -148 0
129 -127 -156 0
129 -128 -163 0
129 -130 170 0
129 -131 171 0
129 -132 172 0
129 -133 173 0
129 -134 174 0
129 -135 175 0
139 9 -13 0
139 27 -31 0
139 44 -48 0
139 60 -64 0
139 75 -79 0
139 89 -93 0
139 102 -106 0
139 114 -118 0
139 125 -129 0
139 -136 -148 0
139 -137 -156 0
139 -138 -163 0
139 -140 170 0
139 -141 171 0
139 -142 172 0
139 -143 173 0
139 -144 174 0
139 -145 175 0
148 10 -13 0
148 28 -31 0
148 45 -48 0
148 61 -64 0
148 76 -79 0
148 90 -93 0
148 103 -106 0
148 115 -118 0
148 126 -129 0
148 136 -139 0
148 -146 -156 0
148 -147 -163 0
148 -149 170 0
148 -150 171 0
148 -151 172 0
148 -152 173 0
148 -153 174 0
148 -154 175 0
156 11 -13 0
156 29 -31 0
156 46 -48 0
156 62 -64 0
156 77 -79 0
156 91 -93 0
156 104 -106 0
156 116 -118 0
156 127 -129 0
156 137 -139 0
156 146 -148 0
156 -155 -163 0
156 -157 170 0
156 -158 171 0
156 -159 172 0
156 -160 173 0
156 -161 174 0
156 -162 175 0
163 12 -13 0
163 30 -31 0
163 47 -48 0
163 63 -64 0
163 78 -79 0
163 92 -93 0
163 105 -106 0
163 117 -118 0
163 128 -129 0
163 138 -139 0
163 147 -148 0
163 155 -156 0
163 -164 170 0
163 -165 171 0
163 -166 172 0
163 -167 173 0
163 -168 174 0
163 -169 175 0
-170 14 -13 0
-170 32 -31 0
-170 49 -48 0
-170 65 -64 0
-170 80 -79 0
-170 94 -93 0
-170 107 -106 0
-170 119 -118 0
-170 130 -129 0
-170 140 -139 0
-170 149 -148 0
-170 157 -156 0
-170 164 -163 0
-170 -176 171 0
-170 -177 172 0
-170 -178 173 0
-170 -179 174 0
-170 -180 175 0
-171 15 -13 0
-171 33 -31 0
-171 50 -48 0
-171 66 -64 0
-171 81 -79 0
-171 95 -93 0
-171 108 -106 0
-171 120 -118 0
-171 131 -129 0
-171 141 -139 0
-171 150 -148 0
-171 158 -156 0
-171 165 -163 0
-171 176 170 0
-171 -181 172 0
-171 -182 173 0
-171 -183 174 0
-171 -184 175 0
-172 16 -13 0
-172 34 -31 0
-172 51 -48 0
-172 67 -64 0
-172 82 -79 0
-172 96 -93 0
-172 109 -106 0
-172 121 -118 0
-172 132 -129 0
-172 142 -139 0
-172 151 -148 0
-172 159 -156 0
-172 166 -163 0
-172 177 170 0
-172 181 171 0
-172 -185 173 0
-172 -186 174 0
-172 -187 175 0
-173 17 -13 0
-173 35 -31 0
-173 52 -48 0
-173 68 -64 0
-173 83 -79 0
-173 97 -93 0
-173 110 -106 0
-173 122 -118 0
-173 133 -129 0
-173 143 -139 0
-173 152 -148 0
-173 160 -156 0
-173 167 -163 0
-173 178 170 0
-173 182 171 0
-173 185 172 0
-173 -188 174 0
-173 -189 175 0
-174 18 -13 0
-174 36 -31 0
-174 53 -48 0
-174 69 -64 0
-174 84 -79 0
-174 98 -93 0
-174 111 -106 0
-174 123 -118 0
-174 134 -129 0
-174 144 -139 0
-174 153 -148 0
-174 161 -156 0
-174 168 -163 0
-174 179 170 0
-174 183 171 0
-174 186 172 0
-174 188 173 0
-174 -190 175 0
-175 19 -13 0
-175 37 -31 0
-175 54 -48 0
-175 70 -64 0
-175 85 -79 0
-175 99 -93 0
-175 112 -106 0
-175 124 -118 0
-175 135 -129 0
-175 145 -139 0
-175 154 -148 0
-175 162 -156 0
-175 169 -163 0
-175 180 170 0
-175 184 171 0
-175 187 172 0
-175 189 173 0
-175 190 174 0
14 -1 -32 0
14 -2 -49 0
14 -3 -65 0
14 -4 -80 0
14 -5 -94 0
14 -6 -107 0
14 -7 -119 0
14 -8 -130 0
14 -9 -140 0
14 -10 -149 0
14 -11 -157 0
14 -12 -164 0
14 -13 -170 0
14 -15 176 0
14 -16 177 0
14 -17 178 0
14 -18 179 0
14 -19 180 0
32 1 -14 0
32 -20 -49 0
32 -21 -65 0
32 -22 -80 0
32 -23 -94 0
32 -24 -107 0
32 -25 -119 0
32 -26 -130 0
32 -27 -140 0
32 -28 -149 0
32 -29 -157 0
32 -30 -164 0
32 -31 -170 0
32 -33 176 0
32 -34 177 0
32 -35 178 0
32 -36 179 0
32 -37 180 0
49 2 -14 0
49 20 -32 0
49 -38 -65 0
49 -39 -80 0
49 -40 -94 0
49 -41 -107 0
49 -42 -119 0
49 -43 -130 0
49 -44 -140 0
49 -45 -149 0
49 -46 -157 0
49 -47 -164 0
49 -48 -170 0
49 -50 176 0
49 -51 177 0
49 -52 178 0
49 -53 179 0
49 -54 180 0
65 3 -14 0
65 21 -32 0
65 38 -49 0
65 -55 -80 0
65 -56 -94 0
65 -57 -107 0
65 -58 -119 0
65 -59 -130 0
65 -60 -140 0
65 -61 -149 0
65 -62 -157 0
65 -63 -164 0
65 -64 -170 0
65 -66 176 0
65 -67 177 0
65 -68 178 0
65 -69 179 0
65 -70 180 0
80 4 -14 0
80 22 -32 0
80 39 -49 0
80 55 -65 0
80 -71 -94 0
80 -72 -107 0
80 -73 -119 0
80 -74 -130 0
80 -75 -140 0
80 -76 -149 0
80 -77 -157 0
80 -78 -164 0
80 -79 -170 0
80 -81 176 0
80 -82 177 0
80 -83 178 0
80 -84 179 0
80 -85 180 0
94 5 -14 0
94 23 -32 0
94 40 -49 0
94 56 -65 0
94 71 -80 0
94 -86 -107 0
94 -87 -119 0
94 -88 -130 0
94 -89 -140 0
94 -90 -149 0
94 -91 -157 0
94 -92 -164 0
94 -93 -170 0
94 -95 176 0
94 -96 177 0
94 -97 178 0
94 -98 179 0
94 -99 180 0
107 6 -14 0
107 24 -32 0
107 41 -49 0
107 57 -65 0
107 72 -80 0
107 86 -94 0
107 -100 -119 0
107 -101 -130 0
107 -102 -140 0
107 -103 -149 0
107 -104 -157 0
107 -105 -164 0
107 -106 -170 0
107 -108 176 0
107 -109 177 0
107 -110 178 0
107 -111 179 0
107 -112 180 0
119 7 -14 0
119 25 -32 0
119 42 -49 0
119 58 -65 0
119 73 -80 0
119 87 -94 0
119 100 -107 0
119 -113 -130 0
119 -114 -140 0
119 -115 -149 0
119 -116 -157 0
119 -117 -164 0
119 -118 -170 0
119 -120 176 0
119 -121 177 0
119 -122 178 0
119 -123 179 0
119 -124 180 0
130 8 -14 0
130 26 -32 0
130 43 -49 0
130 59 -65 0
130 74 -80 0
130 88 -94 0
130 101 -107 0
130 113 -119 0
130 -125 -140 0
130 -126 -149 0
130 -127 -157 0
130 -128 -164 0
130 -129 -170 0
130 -131 176 0
130 -132 177 0
130 -133 178 0
130 -134 179 0
130 -135 180 0
140 9 -14 0
140 27 -32 0
140 44 -49 0
140 60 -65 0
140 75 -80 0
140 89 -94 0
140 102 -107 0
140 114 -119 0
140 125 -130 0
140 -136 -149 0
140 -137 -157 0
140 -138 -164 0
140 -139 -170 0
140 -141 176 0
140 -142 177 0
140 -143 178 0
140 -144 179 0
140 -145 180 0
149 10 -14 0
149 28 -32 0
149 45 -49 0
149 61 -65 0
149 76 -80 0
149 90 -94 0
149 103 -107 0
149 115 -119 0
149 126 -130 0
149 136 -140 0
149 -146 -157 0
149 -147 -164 0
149 -148 -170 0
149 -150 176 0
149 -151 177 0
149 -152 178 0
149 -153 179 0
149 -154 180 0
157 11 -14 0
157 29 -32 0
157 46 -49 0
157 62 -65 0
157 77 -80 0
157 91 -94 0
157 104 -107 0
157 116 -119 0
157 127 -130 0
157 137 -140 0
157 146 -149 0
157 -155 -164 0
157 -156 -170 0
157 -158 176 0
157 -159 177 0
157 -160 178 0
157 -161 179 0
157 -162 180 0
164 12 -14 0
164 30 -32 0
164 47 -49 0
164 63 -65 0
164 78 -80 0
164 92 -94 0
164 105 -107 0
164 117 -119 0
164 128 -130 0
164 138 -140 0
164 147 -149 0
164 155 -157 0
164 -163 -170 0
164 -165 176 0
164 -166 177 0
164 -167 178 0
164 -168 179 0
164 -169 180 0
170 13 -14 0
170 31 -32 0
170 48 -49 0
170 64 -65 0
170 79 -80 0
170 93 -94 0
170 106 -107 0
170 118 -119 0
170 129 -130 0
170 139 -140 0
170 148 -149 0
170 156 -157 0
170 163 -164 0
170 -171 176 0
170 -172 177 0
170 -173 178 0
170 -174 179 0
170 -175 180 0
-176 15 -14 0
-176 33 -32 0
-176 50 -49 0
-176 66 -65 0
-176 81 -80 0
-176 95 -94 0
-176 108 -107 0
-176 120 -119 0
-176 131 -130 0
-176 141 -140 0
-176 150 -149 0
-176 158 -157 0
-176 165 -164 0
-176 171 -170 0
-176 -181 177 0
-176 -182 178 0
-176 -183 179 0
-176 -184 180 0
-177 16 -14 0
-177 34 -32 0
-177 51 -49 0
-177 67 -65 0
-177 82 -80 0
-177 96 -94 0
-177 109 -107 0
-177 121 -119 0
-177 132 -130 0
-177 142 -140 0
-177 151 -149 0
-177 159 -157 0
-177 166 -164 0
-177 172 -170 0
-177 181 176 0
-177 -185 178 0
-177 -186 179 0
-177 -187 180 0
-178 17 -14 0
-178 35 -32 0
-178 52 -49 0
-178 68 -65 0
-178 83 -80 0
-178 97 -94 0
-178 110 -107 0
-178 122 -119 0
-178 133 -130 0
-178 143 -140 0
-178 152 -149 0
-178 160 -157 0
-178 167 -164 0
-178 173 -170 0
-178 182 176 0
-178 185 177 0
-178 -188 179 0
-178 -189 180 0
-179 18 -14 0
-179 36 -32 0
-179 53 -49 0
-179 69 -65 0
-179 84 -80 0
-179 98 -94 0
-179 111 -107 0
-179 123 -119 0
-179 134 -130 0
-179 144 -140 0
-179 153 -149 0
-179 161 -157 0
-179 168 -164 0
-179 174 -170 0
-179 183 176 0
-179 186 177 0
-179 188 178 0
-179 -190 180 0
-180 19 -14 0
-180 37 -32 0
-180 54 -49 0
-180 70 -65 0
-180 85 -80 0
-180 99 -94 0
-180 112 -107 0
-180 124 -119 0
-180 135 -130 0
-180 145 -140 0
-180 154 -149 0
-180 162 -157 0
-180 169 -164 0
-180 175 -170 0
-180 184 176 0
-180 187 177 0
-180 189 178 0
-180 190 179 0
15 -1 -33 0
15 -2 -50 0
15 -3 -66 0
15 -4 -81 0
15 -5 -95 0
15 -6 -108 0
15 -7 -120 0
15 -8 -131 0
15 -9 -141 0
15 -10 -150 0
15 -11 -158 0
15 -12 -165 0
15 -13 -171 0
15 -14 -176 0
15 -16 181 0
15 -17 182 0
15 -18 183 0
15 -19 184 0
33 1 -15 0
33 -20 -50 0
33 -21 -66 0
33 -22 -81 0
33 -23 -95 0
33 -24 -108 0
33 -25 -120 0
33 -26 -131 0
33 -27 -141 0
33 -28 -150 0
33 -29 -158 0
33 -30 -165 0
33 -31 -171 0
33 -32 -176 0
33 -34 181 0
33 -35 182 0
33 -36 183 0
33 -37 184 0
50 2 -15 0
50 20 -33 0
50 -38 -66 0
50 -39 -81 0
50 -40 -95 0
50 -41 -108 0
50 -42 -120 0
50 -43 -131 0
50 -44 -141 0
50 -45 -150 0
50 -46 -158 0
50 -47 -165 0
50 -48 -171 0
50 -49 -176 0
50 -51 181 0
50 -52 182 0
50 -53 183 0
50 -54 184 0
66 3 -15 0
66 21 -33 0
66 38 -50 0
66 -55 -81 0
66 -56 -95 0
66 -57 -108 0
66 -58 -120 0
66 -59 -131 0
66 -60 -141 0
66 -61 -150 0
66 -62 -158 0
66 -63 -165 0
66 -64 -171 0
66 -65 -176 0
66 -67 181 0
66 -68 182 0
66 -69 183 0
66 -70 184 0
81 4 -15 0
81 22 -33 0
81 39 -50 0
81 55 -66 0
81 -71 -95 0
81 -72 -108 0
81 -73 -120 0
81 -74 -131 0
81 -75 -141 0
81 -76 -150 0
81 -77 -158 0
81 -78 -165 0
81 -79 -171 0
81 -80 -176 0
81 -82 181 0
81 -83 182 0
81 -84 183 0
81 -85 184 0
95 5 -15 0
95 23 -33 0
95 40 -50 0
95 56 -66 0
95 71 -81 0
95 -86 -108 0
95 -87 -120 0
95 -88 -131 0
95 -89 -141 0
95 -90 -150 0
95 -91 -158 0
95 -92 -165 0
95 -93 -171 0
95 -94 -176 0
95 -96 181 0
95 -97 182 0
95 -98 183 0
95 -99 184 0
108 6 -15 0
108 24 -33 0
108 41 -50 0
108 57 -66 0
108 72 -81 0
108 86 -95 0
108 -100 -120 0
108 -101 -131 0
108 -102 -141 0
108 -103 -150 0
108 -104 -158 0
108 -105 -165 0
108 -106 -171 0
108 -107 -176 0
108 -109 181 0
108 -110 182 0
108 -111 183 0
108 -112 184 0
120 7 -15 0
120 25 -33 0
120 42 -50 0
120 58 -66 0
120 73 -81 0
120 87 -95 0
120 100 -108 0
120 -113 -131 0
120 -114 -141 0
120 -115 -150 0
120 -116 -158 0
120 -117 -165 0
120 -118 -171 0
120 -119 -176 0
120 -121 181 0
120 -122 182 0
120 -123 183 0
120 -124 184 0
131 8 -15 0
131 26 -33 0
131 43 -50 0
131 59 -66 0
131 74 -81 0
131 88 -95 0
131 101 -108 0
131 113 -120 0
131 -125 -141 0
131 -126 -150 0
131 -127 -158 0
131 -128 -165 0
131 -129 -171 0
131 -130 -176 0
131 -132 181 0
131 -133 182 0
131 -134 183 0
131 -135 184 0
141 9 -15 0
141 27 -33 0
141 44 -50 0
141 60 -66 0
141 75 -81 0
141 89 -95 0
141 102 -108 0
141 114 -120 0
141 125 -131 0
141 -136 -150 0
141 -137 -158 0
141 -138 -165 0
141 -139 -171 0
141 -140 -176 0
141 -142 181 0
141 -143 182 0
141 -144 183 0
141 -145 184 0
150 10 -15 0
150 28 -33 0
150 45 -50 0
150 61 -66 0
150 76 -81 0
150 90 -95 0
150 103 -108 0
150 115 -120 0
150 126 -131 0
150 136 -141 0
150 -146 -158 0
150 -147 -165 0
150 -148 -171 0
150 -149 -176 0
150 -151 181 0
150 -152 182 0
150 -153 183 0
150 -154 184 0
158 11 -15 0
158 29 -33 0
158 46 -50 0
158 62 -66 0
158 77 -81 0
158 91 -95 0
158 104 -108 0
158 116 -120 0
158 127 -131 0
158 137 -141 0
158 146 -150 0
158 -155 -165 0
158 -156 -171 0
158 -157 -176 0
158 -159 181 0
158 -160 182 0
158 -161 183 0
158 -162 184 0
165 12 -15 0
165 30 -33 0
165 47 -50 0
165 63 -66 0
165 78 -81 0
165 92 -95 0
165 105 -108 0
165 117 -120 0
165 128 -131 0
165 138 -141 0
165 147 -150 0
165 155 -158 0
165 -163 -171 0
165 -164 -176 0
165 -166 181 0
165 -167 182 0
165 -168 183 0
165 -169 184 0
171 13 -15 0
171 31 -33 0
171 48 -50 0
171 64 -66 0
171 79 -81 0
171 93 -95 0
171 106 -108 0
171 118 -120 0
171 129 -131 0
171 139 -141 0
171 148 -150 0
171 156 -158 0
171 163 -165 0
171 -170 -176 0
171 -172 181 0
171 -173 182 0
171 -174 183 0
171 -175 184 0
176 14 -15 0
176 32 -33 0
176 49 -50 0
176 65 -66 0
176 80 -81 0
176 94 -95 0
176 107 -108 0
176 119 -120 0
176 130 -131 0
176 140 -141 0
176 149 -150 0
176 157 -158 0
176 164 -165 0
176 170 -171 0
176 -177 181 0
176 -178 182 0
176 -179 183 0
176 -180 184 0
-181 16 -15 0
-181 34 -33 0
-181 51 -50 0
-181 67 -66 0
-181 82 -81 0
-181 96 -95 0
-181 109 -108 0
-181 121 -120 0
-181 132 -131 0
-181 142 -141 0
-181 151 -150 0
-181 159 -158 0
-181 166 -165 0
-181 172 -171 0
-181 177 -176 0
-181 -185 182 0
-181 -186 183 0
-181 -187 184 0
-182 17 -15 0
-182 35 -33 0
-182 52 -50 0
-182 68 -66 0
-182 83 -81 0
-182 97 -95 0
-182 110 -108 0
-182 122 -120 0
-182 133 -131 0
-182 143 -141 0
-182 152 -150 0
-182 160 -158 0
-182 167 -165 0
-182 173 -171 0
-182 178 -176 0
-182 185 181 0
-182 -188 183 0
-182 -189 184 0
-183 18 -15 0
-183 36 -33 0
-183 53 -50 0
-183 69 -66 0
-183 84 -81 0
-183 98 -95 0
-183 111 -108 0
-183 123 -120 0
-183 134 -131 0
-183 144 -141 0
-183 153 -150 0
-183 161 -158 0
-183 168 -165 0
-183 174 -171 0
-183 179 -176 0
-183 186 181 0
-183 188 182 0
-183 -190 184 0
-184 19 -15 0
-184 37 -33 0
-184 54 -50 0
-184 70 -66 0
-184 85 -81 0
-184 99 -95 0
-184 112 -108 0
-184 124 -120 0
-184 135 -131 0
-184 145 -141 0
-184 154 -150 0
-184 162 -158 0
-184 169 -165 0
-184 175 -171 0
-184 180 -176 0
-184 187 181 0
-184 189 182 0
-184 190 183 0
16 -1 -34 0
16 -2 -51 0
16 -3 -67 0
16 -4 -82 0
16 -5 -96 0
16 -6 -109 0
16 -7 -121 0
16 -8 -132 0
16 -9 -142 0
16 -10 -151 0
16 -11 -159 0
16 -12 -166 0
16 -13 -172 0
16 -14 -177 0
16 -15 -181 0
16 -17 185 0
16 -18 186 0
16 -19 187 0
34 1 -16 0
34 -20 -51 0
34 -21 -67 0
34 -22 -82 0
34 -23 -96 0
34 -24 -109 0
34 -25 -121 0
34 -26 -132 0
34 -27 -142 0
34 -28 -151 0
34 -29 -159 0
34 -30 -166 0
34 -31 -172 0
34 -32 -177 0
34 -33 -181 0
34 -35 185 0
34 -36 186 0
34 -37 187 0
51 2 -16 0
51 20 -34 0
51 -38 -67 0
51 -39 -82 0
51 -40 -96 0
51 -41 -109 0
51 -42 -121 0
51 -43 -132 0
51 -44 -142 0
51 -45 -151 0
51 -46 -159 0
51 -47 -166 0
51 -48 -172 0
51 -49 -177 0
51 -50 -181 0
51 -52 185 0
51 -53 186 0
51 -54 187 0
67 3 -16 0
67 21 -34 0
67 38 -51 0
67 -55 -82 0
67 -56 -96 0
67 -57 -109 0
67 -58 -121 0
67 -59 -132 0
67 -60 -142 0
67 -61 -151 0
67 -62 -159 0
67 -63 -166 0
67 -64 -172 0
67 -65 -177 0
67 -66 -181 0
67 -68 185 0
67 -69 186 0
67 -70 187 0
82 4 -16 0
82 22 -34 0
82 39 -51 0
82 55 -67 0
82 -71 -96 0
82 -72 -109 0
82 -73 -121 0
82 -74 -132 0
82 -75 -142 0
82 -76 -151 0
82 -77 -159 0
82 -78 -166 0
82 -79 -172 0
82 -80 -177 0
82 -81 -181 0
82 -83 185 0
82 -84 186 0
82 -85 187 0
96 5 -16 0
96 23 -34 0
96 40 -51 0
96 56 -67 0
96 71 -82 0
96 -86 -109 0
96 -87 -121 0
96 -88 -132 0
96 -89 -142 0
96 -90 -151 0
96 -91 -159 0
96 -92 -166 0
96 -93 -172 0
96 -94 -177 0
96 -95 -181 0
96 -97 185 0
96 -98 186 0
96 -99 187 0
109 6 -16 0
109 24 -34 0
109 41 -51 0
109 57 -67 0
109 72 -82 0
109 86 -96 0
109 -100 -121 0
109 -101 -132 0
109 -102 -142 0
109 -103 -151 0
109 -104 -159 0
109 -105 -166 0
109 -106 -172 0
109 -107 -177 0
109 -108 -181 0
109 -110 185 0
109 -111 186 0
109 -112 187 0
121 7 -16 0
121 25 -34 0
121 42 -51 0
121 58 -67 0
121 73 -82 0
121 87 -96 0
121 100 -109 0
121 -113 -132 0
121 -114 -142 0
121 -115 -151 0
121 -116 -159 0
121 -117 -166 0
121 -118 -172 0
121 -119 -177 0
121 -120 -181 0
121 -122 185 0
121 -123 186 0
121 -124 187 0
132 8 -16 0
132 26 -34 0
132 43 -51 0
132 59 -67 0
132 74 -82 0
132 88 -96 0
132 101 -109 0
132 113 -121 0
132 -125 -142 0
132 -126 -151 0
132 -127 -159 0
132 -128 -166 0
132 -129 -172 0
132 -130 -177 0
132 -131 -181 0
132 -133 185 0
132 -134 186 0
132 -135 187 0
142 9 -16 0
142 27 -34 0
142 44 -51 0
142 60 -67 0
142 75 -82 0
142 89 -96 0
142 102 -109 0
142 114 -121 0
142 125 -132 0
142 -136 -151 0
142 -137 -159 0
142 -138 -166 0
142 -139 -172 0
142 -140 -177 0
142 -141 -181 0
142 -143 185 0
142 -144 186 0
142 -145 187 0
151 10 -16 0
151 28 -34 0
151 45 -51 0
151 61 -67 0
151 76 -82 0
151 90 -96 0
151 103 -109 0
151 115 -121 0
151 126 -132 0
151 136 -142 0
151 -146 -159 0
151 -147 -166 0
151 -148 -172 0
151 -149 -177 0
151 -150 -181 0
151 -152 185 0
151 -153 186 0
151 -154 187 0
159 11 -16 0
159 29 -34 0
159 46 -51 0
159 62 -67 0
159 77 -82 0
159 91 -96 0
159 104 -109 0
159 116 -121 0
159 127 -132 0
159 137 -142 0
159 146 -151 0
159 -155 -166 0
159 -156 -172 0
159 -157 -177 0
159 -158 -181 0
159 -160 185 0
159 -161 186 0
159 -162 187 0
166 12 -16 0
166 30 -34 0
166 47 -51 0
166 63 -67 0
166 78 -82 0
166 92 -96 0
166 105 -109 0
166 117 -121 0
166 128 -132 0
166 138 -142 0
166 147 -151 0
166 155 -159 0
166 -163 -172 0
166 -164 -177 0
166 -165 -181 0
166 -167 185 0
166 -168 186 0
166 -169 187 0
172 13 -16 0
172 31 -34 0
172 48 -51 0
172 64 -67 0
172 79 -82 0
172 93 -96 0
172 106 -109 0
172 118 -121 0
172 129 -132 0
172 139 -142 0
172 148 -151 0
172 156 -159 0
172 163 -166 0
172 -170 -177 0
172 -171 -181 0
172 -173 185 0
172 -174 186 0
172 -175 187 0
177 14 -16 0
177 32 -34 0
177 49 -51 0
177 65 -67 0
177 80 -82 0
177 94 -96 0
177 107 -109 0
177 119 -121 0
177 130 -132 0
177 140 -142 0
177 149 -151 0
177 157 -159 0
177 164 -166 0
177 170 -172 0
177 -176 -181 0
177 -178 185 0
177 -179 186 0
177 -180 187 0
181 15 -16 0
181 33 -34 0
181 50 -51 0
181 66 -67 0
181 81 -82 0
181 95 -96 0
181 108 -109 0
181 120 -121 0
181 131 -132 0
181 141 -142 0
181 150 -151 0
181 158 -159 0
181 165 -166 0
181 171 -172 0
181 176 -177 0
181 -182 185 0
181 -183 186 0
181 -184 187 0
-185 17 -16 0
-185 35 -34 0
-185 52 -51 0
-185 68 -67 0
-185 83 -82 0
-185 97 -96 0
-185 110 -109 0
-185 122 -121 0
-185 133 -132 0
-185 143 -142 0
-185 152 -151 0
-185 160 -159 0
-185 167 -166 0
-185 173 -172 0
-185 178 -177 0
-185 182 -181 0
-185 -188 186 0
-185 -189 187 0
-186 18 -16 0
-186 36 -34 0
-186 53 -51 0
-186 69 -67 0
-186 84 -82 0
-186 98 -96 0
-186 111 -109 0
-186 123 -121 0
-186 134 -132 0
-186 144 -142 0
-186 153 -151 0
-186 161 -159 0
-186 168 -166 0
-186 174 -172 0
-186 179 -177 0
-186 183 -181 0
-186 188 185 0
-186 -190 187 0
-187 19 -16 0
-187 37 -34 0
-187 54 -51 0
-187 70 -67 0
-187 85 -82 0
-187 99 -96 0
-187 112 -109 0
-187 124 -121 0
-187 135 -132 0
-187 145 -142 0
-187 154 -151 0
-187 162 -159 0
-187 169 -166 0
-187 175 -172 0
-187 180 -177 0
-187 184 -181 0
-187 189 185 0
-187 190 186 0
17 -1 -35 0
17 -2 -52 0
17 -3 -68 0
17 -4 -83 0
17 -5 -97 0
17 -6 -110 0
17 -7 -122 0
17 -8 -133 0
17 -9 -143 0
17 -10 -152 0
17 -11 -160 0
17 -12 -167 0
17 -13 -173 0
17 -14 -178 0
17 -15 -182 0
17 -16 -185 0
17 -18 188 0
17 -19 189 0
35 1 -17 0
35 -20 -52 0
35 -21 -68 0
35 -22 -83 0
35 -23 -97 0
35 -24 -110 0
35 -25 -122 0
35 -26 -133 0
35 -27 -143 0
35 -28 -152 0
35 -29 -160 0
35 -30 -167 0
35 -31 -173 0
35 -32 -178 0
35 -33 -182 0
35 -34 -185 0
35 -36 188 0
35 -37 189 0
52 2 -17 0
52 20 -35 0
52 -38 -68 0
52 -39 -83 0
52 -40 -97 0
52 -41 -110 0
52 -42 -122 0
52 -43 -133 0
52 -44 -143 0
52 -45 -152 0
52 -46 -160 0
52 -47 -167 0
52 -48 -173 0
52 -49 -178 0
52 -50 -182 0
52 -51 -185 0
52 -53 188 0
52 -54 189 0
68 3 -17 0
68 21 -35 0
68 38 -52 0
68 -55 -83 0
68 -56 -97 0
68 -57 -110 0
68 -58 -122 0
68 -59 -133 0
68 -60 -143 0
68 -61 -152 0
68 -62 -160 0
68 -63 -167 0
68 -64 -173 0
68 -65 -178 0
68 -66 -182 0
68 -67 -185 0
68 -69 188 0
68 -70 189 0
83 4 -17 0
83 22 -35 0
83 39 -52 0
83 55 -68 0
83 -71 -97 0
83 -72 -110 0
83 -73 -122 0
83 -74 -133 0
83 -75 -143 0
83 -76 -152 0
83 -77 -160 0
83 -78 -167 0
83 -79 -173 0
83 -80 -178 0
83 -81 -182 0
83 -82 -185 0
83 -84 188 0
83 -85 189 0
97 5 -17 0
97 23 -35 0
97 40 -52 0
97 56 -68 0
97 71 -83 0
97 -86 -110 0
97 -87 -122 0
97 -88 -133 0
97 -89 -143 0
97 -90 -152 0
97 -91 -160 0
97 -92 -167 0
97 -93 -173 0
97 -94 -178 0
97 -95 -182 0
97 -96 -185 0
97 -98 188 0
97 -99 189 0
110 6 -17 0
110 24 -35 0
110 41 -52 0
110 57 -68 0
110 72 -83 0
110 86 -97 0
110 -100 -122 0
110 -101 -133 0
110 -102 -143 0
110 -103 -152 0
110 -104 -160 0
110 -105 -167 0
110 -106 -173 0
110 -107 -178 0
110 -108 -182 0
110 -109 -185 0
110 -111 188 0
110 -112 189 0
122 7 -17 0
122 25 -35 0
122 42 -52 0
122 58 -68 0
122 73 -83 0
122 87 -97 0
122 100 -110 0
122 -113 -133 0
122 -114 -143 0
122 -115 -152 0
122 -116 -160 0
122 -117 -167 0
122 -118 -173 0
122 -119 -178 0
122 -120 -182 0
122 -121 -185 0
122 -123 188 0
122 -124 189 0
133 8 -17 0
133 26 -35 0
133 43 -52 0
133 59 -68 0
133 74 -83 0
133 88 -97 0
133 101 -110 0
133 113 -122 0
133 -125 -143 0
133 -126 -152 0
133 -127 -160 0
133 -128 -167 0
133 -129 -173 0
133 -130 -178 0
133 -131 -182 0
133 -132 -185 0
133 -134 188 0
133 -135 189 0
143 9 -17 0
143 27 -35 0
143 44 -52 0
143 60 -68 0
143 75 -83 0
143 89 -97 0
143 102 -110 0
143 114 -122 0
143 125 -133 0
143 -136 -152 0
143 -137 -160 0
143 -138 -167 0
143 -139 -173 0
143 -140 -178 0
143 -141 -182 0
143 -142 -185 0
143 -144 188 0
143 -145 189 0
152 10 -17 0
152 28 -35 0
152 45 -52 0
152 61 -68 0
152 76 -83 0
152 90 -97 0
152 103 -110 0
152 115 -122 0
152 126 -133 0
152 136 -143 0
152 -146 -160 0
152 -147 -167 0
152 -148 -173 0
152 -149 -178 0
152 -150 -182 0
152 -151 -185 0
152 -153 188 0
152 -154 189 0
160 11 -17 0
160 29 -35 0
160 46 -52 0
160 62 -68 0
160 77 -83 0
160 91 -97 0
160 104 -110 0
160 116 -122 0
160 127 -133 0
160 137 -143 0
160 146 -152 0
160 -155 -167 0
160 -156 -173 0
160 -157 -178 0
160 -158 -182 0
160 -159 -185 0
160 -161 188 0
160 -162 189 0
167 12 -17 0
167 30 -35 0
167 47 -52 0
167 63 -68 0
167 78 -83 0
167 92 -97 0
167 105 -110 0
167 117 -122 0
167 128 -133 0
167 138 -143 0
167 147 -152 0
167 155 -160 0
167 -163 -173 0
167 -164 -178 0
167 -165 -182 0
167 -166 -185 0
167 -168 188 0
167 -169 189 0
173 13 -17 0
173 31 -35 0
173 48 -52 0
173 64 -68 0
173 79 -83 0
173 93 -97 0
173 106 -110 0
173 118 -122 0
173 129 -133 0
173 139 -143 0
173 148 -152 0
173 156 -160 0
173 163 -167 0
173 -170 -178 0
173 -171 -182 0
173 -172 -185 0
173 -174 188 0
173 -175 189 0
178 14 -17 0
178 32 -35 0
178 49 -52 0
178 65 -68 0
178 80 -83 0
178 94 -97 0
178 107 -110 0
178 119 -122 0
178 130 -133 0
178 140 -143 0
178 149 -152 0
178 157 -160 0
178 164 -167 0
178 170 -173 0
178 -176 -182 0
178 -177 -185 0
178 -179 188 0
178 -180 189 0
182 15 -17 0
182 33 -35 0
182 50 -52 0
182 66 -68 0
182 81 -83 0
182 95 -97 0
182 108 -110 0
182 120 -122 0
182 131 -133 0
182 141 -143 0
182 150 -152 0
182 158 -160 0
182 165 -167 0
182 171 -173 0
182 176 -178 0
182 -181 -185 0
182 -183 188 0
182 -184 189 0
185 16 -17 0
185 34 -35 0
185 51 -52 0
185 67 -68 0
185 82 -83 0
185 96 -97 0
185 109 -110 0
185 121 -122 0
185 132 -133 0
185 142 -143 0
185 151 -152 0
185 159 -160 0
185 166 -167 0
185 172 -173 0
185 177 -178 0
185 181 -182 0
185 -186 188 0
185 -187 189 0
-188 18 -17 0
-188 36 -35 0
-188 53 -52 0
-188 69 -68 0
-188 84 -83 0
-188 98 -97 0
-188 111 -110 0
-188 123 -122 0
-188 134 -133 0
-188 144 -143 0
-188 153 -152 0
-188 161 -160 0
-188 168 -167 0
-188 174 -173 0
-188 179 -178 0
-188 183 -182 0
-188 186 -185 0
-188 -190 189 0
-189 19 -17 0
-189 37 -35 0
-189 54 -52 0
-189 70 -68 0
-189 85 -83 0
-189 99 -97 0
-189 112 -110 0
-189 124 -122 0
-189 135 -133 0
-189 145 -143 0
-189 154 -152 0
-189 162 -160 0
-189 169 -167 0
-189 175 -173 0
-189 180 -178 0
-189 184 -182 0
-189 187 -185 0
-189 190 188 0
18 -1 -36 0
18 -2 -53 0
18 -3 -69 0
18 -4 -84 0
18 -5 -98 0
18 -6 -111 0
18 -7 -123 0
18 -8 -134 0
18 -9 -144 0
18 -10 -153 0
18 -11 -161 0
18 -12 -168 0
18 -13 -174 0
18 -14 -179 0
18 -15 -183 0
18 -16 -186 0
18 -17 -188 0
18 -19 190 0
36 1 -18 0
36 -20 -53 0
36 -21 -69 0
36 -22 -84 0
36 -23 -98 0
36 -24 -111 0
36 -25 -123 0
36 -26 -134 0
36 -27 -144 0
36 -28 -153 0
36 -29 -161 0
36 -30 -168 0
36 -31 -174 0
36 -32 -179 0
36 -33 -183 0
36 -34 -186 0
36 -35 -188 0
36 -37 190 0
53 2 -18 0
53 20 -36 0
53 -38 -69 0
53 -39 -84 0
53 -40 -98 0
53 -41 -111 0
53 -42 -123 0
53 -43 -134 0
53 -44 -144 0
53 -45 -153 0
53 -46 -161 0
53 -47 -168 0
53 -48 -174 0
53 -49 -179 0
53 -50 -183 0
53 -51 -186 0
53 -52 -188 0
53 -54 190 0
69 3 -18 0
69 21 -36 0
69 38 -53 0
69 -55 -84 0
69 -56 -98 0
69 -57 -111 0
69 -58 -123 0
69 -59 -134 0
69 -60 -144 0
69 -61 -153 0
69 -62 -161 0
69 -63 -168 0
69 -64 -174 0
69 -65 -179 0
69 -66 -183 0
69 -67 -186 0
69 -68 -188 0
69 -70 190 0
84 4 -18 0
84 22 -36 0
84 39 -53 0
84 55 -69 0
84 -71 -98 0
84 -72 -111 0
84 -73 -123 0
84 -74 -134 0
84 -75 -144 0
84 -76 -153 0
84 -77 -161 0
84 -78 -168 0
84 -79 -174 0
84 -80 -179 0
84 -81 -183 0
84 -82 -186 0
84 -83 -188 0
84 -85 190 0
98 5 -18 0
98 23 -36 0
98 40 -53 0
98 56 -69 0
98 71 -84 0
98 -86 -111 0
98 -87 -123 0
98 -88 -134 0
98 -89 -144 0
98 -90 -153 0
98 -91 -161 0
98 -92 -168 0
98 -93 -174 0
98 -94 -179 0
98 -95 -183 0
98 -96 -186 0
98 -97 -188 0
98 -99 190 0
111 6 -18 0
111 24 -36 0
111 41 -53 0
111 57 -69 0
111 72 -84 0
111 86 -98 0
111 -100 -123 0
111 -101 -134 0
111 -102 -144 0
111 -103 -153 0
111 -104 -161 0
111 -105 -168 0
111 -106 -174 0
111 -107 -179 0
111 -108 -183 0
111 -109 -186 0
111 -110 -188 0
111 -112 190 0
123 7 -18 0
123 25 -36 0
123 42 -53 0
123 58 -69 0
123 73 -84 0
123 87 -98 0
123 100 -111 0
123 -113 -134 0
123 -114 -144 0
123 -115 -153 0
123 -116 -161 0
123 -117 -168 0
123 -118 -174 0
123 -119 -179 0
123 -120 -183 0
123 -121 -186 0
123 -122 -188 0
123 -124 190 0
134 8 -18 0
134 26 -36 0
134 43 -53 0
134 59 -69 0
134 74 -84 0
134 88 -98 0
134 101 -111 0
134 113 -123 0
134 -125 -144 0
134 -126 -153 0
134 -127 -161 0
134 -128 -168 0
134 -129 -174 0
134 -130 -179 0
134 -131 -183 0
134 -132 -186 0
134 -133 -188 0
134 -135 190 0
144 9 -18 0
144 27 -36 0
144 44 -53 0
144 60 -69 0
144 75 -84 0
144 89 -98 0
144 102 -111 0
144 114 -123 0
144 125 -134 0
144 -136 -153 0
144 -137 -161 0
144 -138 -168 0
144 -139 -174 0
144 -140 -179 0
144 -141 -183 0
144 -142 -186 0
144 -143 -188 0
144 -145 190 0
153 10 -18 0
153 28 -36 0
153 45 -53 0
153 61 -69 0
153 76 -84 0
153 90 -98 0
153 103 -111 0
153 115 -123 0
153 126 -134 0
153 136 -144 0
153 -146 -161 0
153 -147 -168 0
153 -148 -174 0
153 -149 -179 0
153 -150 -183 0
153 -151 -186 0
153 -152 -188 0
153 -154 190 0
161 11 -18 0
161 29 -36 0
161 46 -53 0
161 62 -69 0
161 77 -84 0
161 91 -98 0
161 104 -111 0
161 116 -123 0
161 127 -134 0
161 137 -144 0
161 146 -153 0
161 -155 -168 0
161 -156 -174 0
161 -157 -179 0
161 -158 -183 0
161 -159 -186 0
161 -160 -188 0
161 -162 190 0
168 12 -18 0
168 30 -36 0
168 47 -53 0
168 63 -69 0
168 78 -84 0
168 92 -98 0
168 105 -111 0
168 117 -123 0
168 128 -134 0
168 138 -144 0
168 147 -153 0
168 155 -161 0
168 -163 -174 0
168 -164 -179 0
168 -165 -183 0
168 -166 -186 0
168 -167 -188 0
168 -169 190 0
174 13 -18 0
174 31 -36 0
174 48 -53 0
174 64 -69 0
174 79 -84 0
174 93 -98 0
174 106 -111 0
174 118 -123 0
174 129 -134 0
174 139 -144 0
174 148 -153 0
174 156 -161 0
174 163 -168 0
174 -170 -179 0
174 -171 -183 0
174 -172 -186 0
174 -173 -188 0
174 -175 190 0
179 14 -18 0
179 32 -36 0
179 49 -53 0
179 65 -69 0
179 80 -84 0
179 94 -98 0
179 107 -111 0
179 119 -123 0
179 130 -134 0
179 140 -144 0
179 149 -153 0
179 157 -161 0
179 164 -168 0
179 170 -174 0
179 -176 -183 0
179 -177 -186 0
179 -178 -188 0
179 -180 190 0
183 15 -18 0
183 33 -36 0
183 50 -53 0
183 66 -69 0
183 81 -84 0
183 95 -98 0
183 108 -111 0
183 120 -123 0
183 131 -134 0
183 141 -144 0
183 150 -153 0
183 158 -161 0
183 165 -168 0
183 171 -174 0
183 176 -179 0
183 -181 -186 0
183 -182 -188 0
183 -184 190 0
186 16 -18 0
186 34 -36 0
186 51 -53 0
186 67 -69 0
186 82 -84 0
186 96 -98 0
186 109 -111 0
186 121 -123 0
186 132 -134 0
186 142 -144 0
186 151 -153 0
186 159 -161 0
186 166 -168 0
186 172 -174 0
186 177 -179 0
186 181 -183 0
186 -185 -188 0
186 -187 190 0
188 17 -18 0
188 35 -36 0
188 52 -53 0
188 68 -69 0
188 83 -84 0
188 97 -98 0
188 110 -111 0
188 122 -123 0
188 133 -134 0
188 143 -144 0
188 152 -153 0
188 160 -161 0
188 167 -168 0
188 173 -174 0
188 178 -179 0
188 182 -183 0
188 185 -186 0
188 -189 190 0
-190 19 -18 0
-190 37 -36 0
-190 54 -53 0
-190 70 -69 0
-190 85 -84 0
-190 99 -98 0
-190 112 -111 0
-190 124 -123 0
-190 135 -134 0
-190 145 -144 0
-190 154 -153 0
-190 162 -161 0
-190 169 -168 0
-190 175 -174 0
-190 180 -179 0
-190 184 -183 0
-190 187 -186 0
-190 189 -188 0
19 -1 -37 0
19 -2 -54 0
19 -3 -70 0
19 -4 -85 0
19 -5 -99 0
19 -6 -112 0
19 -7 -124 0
19 -8 -135 0
19 -9 -145 0
19 -10 -154 0
19 -11 -162 0
19 -12 -169 0
19 -13 -175 0
19 -14 -180 0
19 -15 -184 0
19 -16 -187 0
19 -17 -189 0
19 -18 -190 0
37 1 -19 0
37 -20 -54 0
37 -21 -70 0
37 -22 -85 0
37 -23 -99 0
37 -24 -112 0
37 -25 -124 0
37 -26 -135 0
37 -27 -145 0
37 -28 -154 0
37 -29 -162 0
37 -30 -169 0
37 -31 -175 0
37 -32 -180 0
37 -33 -184 0
37 -34 -187 0
37 -35 -189 0
37 -36 -190 0
54 2 -19 0
54 20 -37 0
54 -38 -70 0
54 -39 -85 0
54 -40 -99 0
54 -41 -112 0
54 -42 -124 0
54 -43 -135 0
54 -44 -145 0
54 -45 -154 0
54 -46 -162 0
54 -47 -169 0
54 -48 -175 0
54 -49 -180 0
54 -50 -184 0
54 -51 -187 0
54 -52 -189 0
54 -53 -190 0
70 3 -19 0
70 21 -37 0
70 38 -54 0
70 -55 -85 0
70 -56 -99 0
70 -57 -112 0
70 -58 -124 0
70 -59 -135 0
70 -60 -145 0
70 -61 -154 0
70 -62 -162 0
70 -63 -169 0
70 -64 -175 0
70 -65 -180 0
70 -66 -184 0
70 -67 -187 0
70 -68 -189 0
70 -69 -190 0
85 4 -19 0
85 22 -37 0
85 39 -54 0
85 55 -70 0
85 -71 -99 0
85 -72 -112 0
85 -73 -124 0
85 -74 -135 0
85 -75 -145 0
85 -76 -154 0
85 -77 -162 0
85 -78 -169 0
85 -79 -175 0
85 -80 -180 0
85 -81 -184 0
85 -82 -187 0
85 -83 -189 0
85 -84 -190 0
99 5 -19 0
99 23 -37 0
99 40 -54 0
99 56 -70 0
99 71 -85 0
99 -86 -112 0
99 -87 -124 0
99 -88 -135 0
99 -89 -145 0
99 -90 -154 0
99 -91 -162 0
99 -92 -169 0
99 -93 -175 0
99 -94 -180 0
99 -95 -184 0
99 -96 -187 0
99 -97 -189 0
99 -98 -190 0
112 6 -19 0
112 24 -37 0
112 41 -54 0
112 57 -70 0
112 72 -85 0
112 86 -99 0
112 -100 -124 0
112 -101 -135 0
112 -102 -145 0
112 -103 -154 0
112 -104 -162 0
112 -105 -169 0
112 -106 -175 0
112 -107 -180 0
112 -108 -184 0
112 -109 -187 0
112 -110 -189 0
112 -111 -190 0
124 7 -19 0
124 25 -37 0
124 42 -54 0
124 58 -70 0
124 73 -85 0
124 87 -99 0
124 100 -112 0
124 -113 -135 0
124 -114 -145 0
124 -115 -154 0
124 -116 -162 0
124 -117 -169 0
124 -118 -175 0
124 -119 -180 0
124 -120 -184 0
124 -121 -187 0
124 -122 -189 0
124 -123 -190 0
135 8 -19 0
135 26 -37 0
135 43 -54 0
135 59 -70 0
135 74 -85 0
135 88 -99 0
135 101 -112 0
135 113 -124 0
135 -125 -145 0
135 -126 -154 0
135 -127 -162 0
135 -128 -169 0
135 -129 -175 0
135 -130 -180 0
135 -131 -184 0
135 -132 -187 0
135 -133 -189 0
135 -134 -190 0
145 9 -19 0
145 27 -37 0
145 44 -54 0
145 60 -70 0
145 75 -85 0
145 89 -99 0
145 102 -112 0
145 114 -124 0
145 125 -135 0
145 -136 -154 0
145 -137 -162 0
145 -138 -169 0
145 -139 -175 0
145 -140 -180 0
145 -141 -184 0
145 -142 -187 0
145 -143 -189 0
145 -144 -190 0
154 10 -19 0
154 28 -37 0
154 45 -54 0
154 61 -70 0
154 76 -85 0
154 90 -99 0
154 103 -112 0
154 115 -124 0
154 126 -135 0
154 136 -145 0
154 -146 -162 0
154 -147 -169 0
154 -148 -175 0
154 -149 -180 0
154 -150 -184 0
154 -151 -187 0
154 -152 -189 0
154 -153 -190 0
162 11 -19 0
162 29 -37 0
162 46 -54 0
162 62 -70 0
162 77 -85 0
162 91 -99 0
162 104 -112 0
162 116 -124 0
162 127 -135 0
162 137 -145 0
162 146 -154 0
162 -155 -169 0
162 -156 -175 0
162 -157 -180 0
162 -158 -184 0
162 -159 -187 0
162 -160 -189 0
162 -161 -190 0
169 12 -19 0
169 30 -37 0
169 47 -54 0
169 63 -70 0
169 78 -85 0
169 92 -99 0
169 105 -112 0
169 117 -124 0
169 128 -135 0
169 138 -145 0
169 147 -154 0
169 155 -162 0
169 -163 -175 0
169 -164 -180 0
169 -165 -184 0
169 -166 -187 0
169 -167 -189 0
169 -168 -190 0
175 13 -19 0
175 31 -37 0
175 48 -54 0
175 64 -70 0
175 79 -85 0
175 93 -99 0
175 106 -112 0
175 118 -124 0
175 129 -135 0
175 139 -145 0
175 148 -154 0
175 156 -162 0
175 163 -169 0
175 -170 -180 0
175 -171 -184 0
175 -172 -187 0
175 -173 -189 0
175 -174 -190 0
180 14 -19 0
180 32 -37 0
180 49 -54 0
180 65 -70 0
180 80 -85 0
180 94 -99 0
180 107 -112 0
180 119 -124 0
180 130 -135 0
180 140 -145 0
180 149 -154 0
180 157 -162 0
180 164 -169 0
180 170 -175 0
180 -176 -184 0
180 -177 -187 0
180 -178 -189 0
180 -179 -190 0
184 15 -19 0
184 33 -37 0
184 50 -54 0
184 66 -70 0
184 81 -85 0
184 95 -99 0
184 108 -112 0
184 120 -124 0
184 131 -135 0
184 141 -145 0
184 150 -154 0
184 158 -162 0
184 165 -169 0
184 171 -175 0
184 176 -180 0
184 -181 -187 0
184 -182 -189 0
184 -183 -190 0
187 16 -19 0
187 34 -37 0
187 51 -54 0
187 67 -70 0
187 82 -85 0
187 96 -99 0
187 109 -112 0
187 121 -124 0
187 132 -135 0
187 142 -145 0
187 151 -154 0
187 159 -162 0
187 166 -169 0
187 172 -175 0
187 177 -180 0
187 181 -184 0
187 -185 -189 0
187 -186 -190 0
189 17 -19 0
189 35 -37 0
189 52 -54 0
189 68 -70 0
189 83 -85 0
189 97 -99 0
189 110 -112 0
189 122 -124 0
189 133 -135 0
189 143 -145 0
189 152 -154 0
189 160 -162 0
189 167 -169 0
189 173 -175 0
189 178 -180 0
189 182 -184 0
189 185 -187 0
189 -188 -190 0
190 18 -19 0
190 36 -37 0
190 53 -54 0
190 69 -70 0
190 84 -85 0
190 98 -99 0
190 111 -112 0
190 123 -124 0
190 134 -135 0
190 144 -145 0
190 153 -154 0
190 161 -162 0
190 168 -169 0
190 174 -175 0
190 179 -180 0
190 183 -184 0
190 186 -187 0
190 188 -189 0
