c family: balanced planted random 3-SAT
c known_status: SAT
c difficulty_level: stress
c description: large planted 3-CNF; use timeout
c generated: deterministic complex CNF training pack
p cnf 520 2215
-480 -485 498 0
-463 -490 -510 0
-454 -476 477 0
-450 456 518 0
-424 -440 515 0
-415 -481 -517 0
-404 423 -473 0
-403 -410 484 0
-402 -443 -488 0
-400 -493 -501 0
-399 -437 -460 0
-399 455 -494 0
-396 -490 500 0
-394 -486 497 0
-393 479 494 0
-389 -471 -480 0
-384 451 454 0
-381 -395 466 0
-378 436 501 0
-377 401 448 0
-377 414 443 0
-376 384 -386 0
-375 -469 -499 0
-374 -447 454 0
-373 385 504 0
-371 433 501 0
-368 -398 467 0
-366 -434 441 0
-363 469 -493 0
-362 -493 519 0
-361 -387 -486 0
-361 401 -423 0
-360 382 -480 0
-360 425 -473 0
-358 413 -482 0
-358 463 499 0
-357 390 392 0
-356 -472 502 0
-353 -445 -477 0
-353 374 -418 0
-351 417 -450 0
-350 351 -480 0
-349 -352 -423 0
-346 -368 -386 0
-345 -354 -445 0
-345 -352 457 0
-343 381 458 0
-342 -415 -467 0
-342 -345 472 0
-341 -458 -506 0
-341 364 488 0
-338 -347 452 0
-337 -455 461 0
-334 387 -414 0
-333 -473 -496 0
-333 -426 448 0
-332 -437 520 0
-329 338 -503 0
-328 -341 -498 0
-326 -362 436 0
-323 373 490 0
-322 356 444 0
-320 -389 479 0
-320 412 -502 0
-319 -421 -480 0
-317 377 -386 0
-317 445 -468 0
-316 -428 -436 0
-316 319 395 0
-315 446 505 0
-314 -516 -517 0
-314 359 436 0
-310 349 -385 0
-309 325 447 0
-309 354 355 0
-309 399 -408 0
-308 -391 -473 0
-307 -403 448 0
-305 419 444 0
-304 336 -444 0
-303 -406 442 0
-302 353 -435 0
-302 419 437 0
-301 458 476 0
-299 360 414 0
-297 -320 442 0
-294 -365 391 0
-292 -376 473 0
-292 -293 510 0
-290 -406 -462 0
-289 292 358 0
-287 -452 490 0
-286 -310 -421 0
-286 -306 -411 0
-285 -370 -459 0
-285 -355 -423 0
-284 -298 316 0
-283 311 518 0
-282 -363 377 0
-281 -307 356 0
-281 289 -449 0
-279 418 464 0
-277 -335 -519 0
-277 291 -504 0
-277 306 -471 0
-275 -288 -339 0
-275 -287 -342 0
-275 377 -437 0
-274 301 -514 0
-273 -392 -468 0
-272 397 -400 0
-270 301 520 0
-270 361 487 0
-270 428 -467 0
-268 -406 -443 0
-268 -299 381 0
-268 283 -500 0
-267 278 -451 0
-265 -386 420 0
-264 -313 469 0
-264 -267 310 0
-262 -302 -444 0
-262 336 385 0
-261 -278 -480 0
-261 268 492 0
-261 433 467 0
-260 425 -512 0
-259 -391 411 0
-259 -326 -346 0
-259 510 -514 0
-256 -446 -480 0
-256 -396 -489 0
-256 280 -409 0
-255 -363 -395 0
-255 378 -486 0
-252 296 -407 0
-251 -327 337 0
-251 268 -467 0
-251 310 400 0
-250 -406 463 0
-250 -392 -487 0
-250 -271 431 0
-250 340 -477 0
-250 351 -462 0
-249 255 420 0
-249 419 -507 0
-248 -315 -432 0
-248 -254 -486 0
-248 312 463 0
-248 390 -477 0
-248 413 440 0
-247 -477 -478 0
-247 287 -334 0
-246 334 -415 0
-246 362 -402 0
-246 483 -496 0
-245 -363 441 0
-245 303 -321 0
-245 461 514 0
-244 -377 476 0
-244 -284 -499 0
-241 290 389 0
-240 -382 -498 0
-240 -334 -415 0
-239 -381 503 0
-239 -295 315 0
-238 -451 517 0
-238 -287 -415 0
-238 -265 366 0
-238 248 370 0
-238 291 -317 0
-238 317 504 0
-237 -426 456 0
-237 304 -469 0
-237 364 390 0
-237 395 -428 0
-235 321 429 0
-235 456 475 0
-234 -351 461 0
-234 -236 409 0
-232 -401 484 0
-232 -330 -450 0
-232 367 455 0
-231 244 -296 0
-231 315 388 0
-229 -408 457 0
-227 -397 -498 0
-227 -371 -477 0
-226 -247 -339 0
-226 330 354 0
-226 416 -464 0
-225 -297 -507 0
-225 -278 287 0
-225 -276 -510 0
-225 237 381 0
-225 248 -349 0
-225 342 497 0
-225 374 -512 0
-224 -412 -509 0
-224 420 -490 0
-222 -311 426 0
-221 -301 -454 0
-221 -286 -394 0
-221 -277 -446 0
-221 338 -394 0
-221 357 -476 0
-220 263 349 0
-219 -239 417 0
-219 317 467 0
-218 -368 496 0
-218 -355 -485 0
-218 -301 502 0
-218 -248 445 0
-218 240 510 0
-218 292 498 0
-217 219 -263 0
-217 334 -516 0
-217 384 -508 0
-216 249 -333 0
-215 -267 313 0
-215 217 -422 0
-215 217 267 0
-215 238 386 0
-215 440 -456 0
-213 -285 352 0
-213 349 -416 0
-212 -508 -519 0
-211 -347 -374 0
-211 307 466 0
-210 -406 -445 0
-210 -264 411 0
-210 441 -508 0
-209 -277 439 0
-209 230 -336 0
-208 -349 415 0
-208 -247 451 0
-208 218 -266 0
-207 -408 475 0
-207 -383 -405 0
-207 270 470 0
-207 322 -393 0
-205 -417 -492 0
-205 248 336 0
-205 297 369 0
-205 429 487 0
-204 -248 -463 0
-204 -237 469 0
-203 221 -464 0
-203 221 -373 0
-202 -330 -493 0
-200 305 423 0
-199 -336 -467 0
-199 -217 -219 0
-199 239 -465 0
-199 247 -283 0
-199 473 500 0
-198 -415 494 0
-198 260 -318 0
-197 -368 -371 0
-197 308 325 0
-196 -479 -485 0
-195 -254 404 0
-195 333 -408 0
-194 -286 -287 0
-194 -258 298 0
-194 -201 -409 0
-194 316 332 0
-194 374 394 0
-193 -230 487 0
-192 -215 457 0
-191 -219 224 0
-191 216 -228 0
-190 -372 -492 0
-190 -335 408 0
-190 -237 454 0
-190 217 -509 0
-190 219 478 0
-190 376 382 0
-189 -443 508 0
-189 -262 -296 0
-188 -384 -498 0
-188 443 471 0
-187 256 -397 0
-187 276 -303 0
-186 -241 383 0
-185 -217 316 0
-184 -344 397 0
-184 267 -456 0
-184 332 -388 0
-183 -386 -457 0
-183 284 -402 0
-183 297 -444 0
-183 407 516 0
-182 249 -320 0
-182 313 408 0
-181 -261 388 0
-181 330 -495 0
-180 -185 -397 0
-180 -185 -288 0
-179 -365 -462 0
-179 -287 -430 0
-178 -495 516 0
-178 270 512 0
-178 305 452 0
-178 317 -518 0
-177 -213 -251 0
-177 342 -490 0
-177 375 412 0
-176 -270 -370 0
-176 187 -336 0
-176 200 -348 0
-175 204 439 0
-174 -358 -375 0
-174 -281 327 0
-173 -305 384 0
-172 -385 513 0
-171 -297 482 0
-171 -183 -491 0
-170 -374 -422 0
-169 -396 508 0
-169 -394 507 0
-169 201 -350 0
-169 242 -247 0
-169 273 351 0
-169 370 505 0
-168 -379 388 0
-168 -193 503 0
-168 -178 454 0
-168 206 -512 0
-168 207 217 0
-168 330 -395 0
-168 361 -416 0
-167 -169 -173 0
-167 171 448 0
-167 175 -353 0
-167 184 496 0
-166 -248 287 0
-166 -207 -431 0
-166 320 -349 0
-165 -203 -245 0
-164 -294 -520 0
-164 -276 -327 0
-164 335 -343 0
-163 379 485 0
-163 394 -507 0
-162 -440 -465 0
-162 217 221 0
-161 -176 -268 0
-161 163 -420 0
-160 -277 287 0
-160 -247 -347 0
-160 187 -293 0
-160 187 282 0
-160 376 494 0
-159 -183 -184 0
-159 393 513 0
-158 -178 228 0
-158 270 -312 0
-157 -493 -495 0
-157 -454 -513 0
-157 -330 390 0
-157 -242 365 0
-157 369 458 0
-156 -309 516 0
-156 183 419 0
-155 -276 306 0
-155 -177 -355 0
-154 -329 513 0
-154 -237 274 0
-154 346 494 0
-154 381 -511 0
-153 -156 -427 0
-153 185 220 0
-153 461 -485 0
-152 164 179 0
-151 -277 315 0
-151 -163 187 0
-151 239 -261 0
-151 413 446 0
-150 -405 487 0
-150 -338 -456 0
-150 217 -367 0
-149 -297 -428 0
-149 197 -375 0
-148 -287 -404 0
-148 -229 -405 0
-146 -336 428 0
-146 -316 412 0
-146 -212 -321 0
-146 -196 506 0
-146 197 -455 0
-145 -269 329 0
-144 319 -435 0
-144 422 459 0
-144 485 514 0
-143 -261 -395 0
-143 -243 -429 0
-143 -198 -505 0
-143 -192 315 0
-143 151 -440 0
-143 310 -391 0
-143 486 506 0
-142 -472 482 0
-142 -191 -452 0
-142 -161 464 0
-142 264 287 0
-141 -276 -286 0
-140 -437 -444 0
-140 244 398 0
-140 292 298 0
-140 335 491 0
-139 209 245 0
-138 -267 -513 0
-138 -257 378 0
-138 -241 -498 0
-138 234 295 0
-138 338 511 0
-136 -405 -516 0
-136 -398 -486 0
-136 -221 483 0
-136 171 483 0
-136 250 484 0
-136 407 459 0
-135 -389 502 0
-134 -404 466 0
-134 -152 -380 0
-134 170 319 0
-133 -352 -474 0
-133 -345 -398 0
-133 312 340 0
-133 418 427 0
-132 -220 520 0
-132 -193 -456 0
-132 -186 423 0
-132 -151 -453 0
-132 -151 -282 0
-132 206 272 0
-132 214 -437 0
-132 242 379 0
-131 483 -496 0
-130 -410 450 0
-130 -272 288 0
-130 -258 -499 0
-130 -190 -398 0
-130 271 -309 0
-130 272 -341 0
-130 396 405 0
-129 -409 454 0
-129 -134 151 0
-129 217 -323 0
-129 267 509 0
-128 -376 -452 0
-128 -336 -404 0
-128 -189 -393 0
-128 -175 -449 0
-128 -137 -165 0
-128 141 -270 0
-128 186 -393 0
-127 -237 497 0
-127 -148 -510 0
-126 -405 499 0
-126 -220 -269 0
-125 -441 445 0
-125 -175 265 0
-125 -149 -208 0
-125 166 -220 0
-125 343 507 0
-125 508 514 0
-124 -383 506 0
-124 -267 474 0
-124 -161 -360 0
-124 169 -386 0
-123 -209 -323 0
-123 237 449 0
-123 388 -518 0
-122 345 364 0
-121 -495 -509 0
-120 162 -377 0
-120 324 451 0
-119 -191 -192 0
-119 -168 -294 0
-119 -150 243 0
-119 191 -236 0
-119 248 324 0
-119 261 -495 0
-119 296 -487 0
-119 386 -506 0
-117 171 -502 0
-117 261 342 0
-116 -147 -506 0
-116 314 -503 0
-116 400 -515 0
-115 -268 -301 0
-115 255 477 0
-115 276 -508 0
-115 324 491 0
-114 227 -245 0
-114 311 483 0
-114 403 -475 0
-113 -407 -493 0
-113 -279 451 0
-113 -192 294 0
-113 -152 193 0
-113 -145 245 0
-113 -137 -393 0
-113 -124 377 0
-113 180 517 0
-113 306 434 0
-112 -363 -503 0
-112 -317 494 0
-112 -209 -440 0
-112 -208 401 0
-112 186 310 0
-112 254 454 0
-111 -279 -353 0
-111 -244 320 0
-111 114 -437 0
-111 181 394 0
-110 -153 508 0
-110 -146 -196 0
-109 -273 364 0
-109 -123 -465 0
-109 165 269 0
-109 303 408 0
-109 315 318 0
-108 -122 -339 0
-108 301 -446 0
-108 394 429 0
-108 406 -470 0
-107 140 292 0
-107 164 -201 0
-107 349 -478 0
-106 -321 -501 0
-106 -270 323 0
-106 -156 -384 0
-106 214 -411 0
-106 378 -419 0
-105 -295 517 0
-105 -226 -293 0
-105 -184 335 0
-105 284 314 0
-104 -283 344 0
-104 -197 -241 0
-104 355 -442 0
-103 -351 -438 0
-103 -131 235 0
-103 198 231 0
-103 212 467 0
-102 112 -219 0
-102 125 414 0
-102 146 -496 0
-102 158 407 0
-102 189 493 0
-101 -453 -482 0
-100 -495 500 0
-100 -449 -488 0
-100 -288 492 0
-100 -248 -449 0
-100 -224 403 0
-100 -115 224 0
-100 -108 -188 0
-100 237 464 0
-99 -318 505 0
-99 148 327 0
-99 164 482 0
-98 -438 487 0
-98 -258 -348 0
-98 154 -396 0
-98 158 -257 0
-98 387 -491 0
-97 -344 -409 0
-97 -219 -435 0
-97 -151 -503 0
-97 -148 -486 0
-96 133 -250 0
-95 -408 479 0
-95 -294 -405 0
-94 -217 -444 0
-94 -192 219 0
-94 -99 -453 0
-94 142 -362 0
-94 189 263 0
-94 281 -397 0
-94 319 -437 0
-94 363 -462 0
-94 363 382 0
-94 398 498 0
-93 -209 372 0
-93 -163 -306 0
-93 211 282 0
-92 -373 436 0
-92 -175 -296 0
-92 101 150 0
-92 118 -333 0
-92 457 485 0
-91 357 -512 0
-90 -358 -515 0
-90 -270 -321 0
-90 -263 -383 0
-90 -198 -386 0
-90 477 485 0
-89 -397 405 0
-89 155 -263 0
-89 174 -473 0
-89 236 -334 0
-89 244 266 0
-89 351 -491 0
-88 -173 -374 0
-88 -117 164 0
-88 97 157 0
-88 156 -416 0
-88 231 -493 0
-88 271 423 0
-88 331 -350 0
-87 -365 -468 0
-87 145 -258 0
-87 167 -321 0
-87 351 -448 0
-87 413 432 0
-86 108 -163 0
-86 205 -480 0
-86 482 495 0
-85 151 -431 0
-85 272 377 0
-85 391 437 0
-84 -347 -371 0
-84 -249 -472 0
-84 -125 -190 0
-84 -98 233 0
-84 169 -386 0
-84 197 -516 0
-83 -496 -508 0
-83 -274 336 0
-83 223 301 0
-83 226 259 0
-82 -424 495 0
-82 -142 -426 0
-82 159 239 0
-82 272 506 0
-81 -267 -289 0
-81 -218 378 0
-80 -102 410 0
-80 124 313 0
-80 130 186 0
-79 -379 -498 0
-78 -369 373 0
-78 -113 -474 0
-78 -94 428 0
-78 211 514 0
-78 224 504 0
-78 256 452 0
-77 -206 -499 0
-77 -189 -274 0
-77 -140 -187 0
-77 178 434 0
-77 249 459 0
-76 -260 490 0
-76 -231 233 0
-76 -136 -304 0
-76 -127 -413 0
-76 78 518 0
-76 237 -380 0
-76 269 -468 0
-76 321 -498 0
-75 -166 -512 0
-75 140 -280 0
-75 150 223 0
-75 152 295 0
-75 177 244 0
-75 357 360 0
-74 -401 417 0
-74 -274 375 0
-73 -217 -347 0
-73 -120 420 0
-73 161 -225 0
-73 181 -291 0
-73 190 481 0
-73 320 405 0
-72 -254 -412 0
-72 -183 -465 0
-72 87 506 0
-72 103 -108 0
-72 311 461 0
-71 178 -367 0
-71 210 477 0
-70 -336 -416 0
-70 234 -410 0
-70 255 -311 0
-69 110 366 0
-69 236 393 0
-69 306 317 0
-69 350 -421 0
-69 378 -479 0
-68 103 435 0
-68 124 446 0
-67 -308 411 0
-67 -246 466 0
-67 300 -499 0
-67 328 -330 0
-66 -155 216 0
-66 140 -488 0
-66 252 -270 0
-66 345 378 0
-66 347 -453 0
-65 -120 329 0
-65 143 -310 0
-64 -483 506 0
-64 -471 -515 0
-64 -404 480 0
-64 -294 385 0
-64 -256 -411 0
-64 -221 425 0
-64 178 240 0
-64 474 510 0
-63 -207 -465 0
-63 -135 221 0
-63 -134 416 0
-63 -79 117 0
-63 126 313 0
-63 211 340 0
-63 215 275 0
-62 -430 -447 0
-62 -275 -354 0
-62 -111 -256 0
-62 75 -154 0
-62 136 510 0
-62 151 -416 0
-62 235 491 0
-62 253 -401 0
-61 -115 -116 0
-61 116 520 0
-61 164 444 0
-61 167 502 0
-61 232 499 0
-61 419 449 0
-60 -232 472 0
-60 -230 -284 0
-60 -149 340 0
-60 174 417 0
-60 424 480 0
-59 -207 -491 0
-59 -173 240 0
-59 -147 -199 0
-59 -126 -372 0
-59 225 389 0
-59 271 -377 0
-58 -368 493 0
-58 -208 -400 0
-58 -168 474 0
-58 105 162 0
-58 177 -320 0
-57 -336 -501 0
-57 -208 -479 0
-57 -189 -288 0
-57 -185 -214 0
-57 -160 -308 0
-57 -77 265 0
-57 114 181 0
-57 181 -441 0
-57 206 -470 0
-57 207 -482 0
-57 229 -491 0
-56 -425 458 0
-56 -271 395 0
-56 -259 450 0
-56 -151 -412 0
-56 270 -480 0
-56 298 -332 0
-55 -376 473 0
-55 -330 334 0
-55 105 -372 0
-55 132 485 0
-55 145 220 0
-55 362 519 0
-54 -357 -460 0
-54 -354 426 0
-54 -290 -409 0
-54 -106 -421 0
-54 -85 208 0
-54 158 -159 0
-54 449 -517 0
-53 -227 -439 0
-53 77 510 0
-52 -195 232 0
-52 99 364 0
-51 -141 -149 0
-51 -122 -494 0
-51 52 -171 0
-51 64 -228 0
-51 255 -314 0
-51 294 489 0
-50 -233 451 0
-50 -205 -420 0
-50 -181 375 0
-50 -157 -512 0
-50 -152 367 0
-50 -122 209 0
-50 -78 489 0
-50 -72 313 0
-50 -71 217 0
-50 388 -502 0
-49 -252 -405 0
-49 -118 328 0
-49 108 496 0
-49 222 273 0
-49 234 -296 0
-49 285 382 0
-48 -442 -477 0
-48 -203 -274 0
-48 -150 -275 0
-48 -112 405 0
-48 -67 486 0
-48 -62 178 0
-48 215 315 0
-48 291 439 0
-48 381 487 0
-47 -279 -461 0
-47 -240 -405 0
-47 -71 -78 0
-47 76 212 0
-47 289 -322 0
-47 399 -513 0
-46 -460 509 0
-46 -159 -304 0
-46 -72 -242 0
-46 -47 330 0
-46 426 505 0
-45 -162 -274 0
-45 -61 -414 0
-45 163 -283 0
-45 396 -475 0
-44 -435 500 0
-44 -204 223 0
-44 -74 -132 0
-44 62 303 0
-44 171 -487 0
-44 233 305 0
-44 280 313 0
-44 420 500 0
-43 -343 468 0
-43 -292 303 0
-43 101 -481 0
-43 207 501 0
-42 -237 343 0
-42 -213 334 0
-42 -180 185 0
-42 93 516 0
-42 95 -240 0
-42 99 -206 0
-42 184 451 0
-42 449 -501 0
-41 -457 -463 0
-41 -97 -123 0
-41 275 -316 0
-40 -309 -518 0
-40 -193 272 0
-40 163 190 0
-40 192 395 0
-39 -318 -471 0
-39 -312 -459 0
-39 -267 -345 0
-39 -235 -473 0
-39 140 458 0
-39 142 -469 0
-38 -232 450 0
-38 -207 488 0
-38 87 319 0
-38 174 -327 0
-38 251 359 0
-37 -453 488 0
-37 -209 401 0
-37 -136 471 0
-37 56 -215 0
-37 129 246 0
-37 257 494 0
-36 -364 -443 0
-36 -320 517 0
-36 -266 384 0
-36 119 -332 0
-36 188 305 0
-36 238 439 0
-35 -493 -504 0
-35 -267 277 0
-35 -262 299 0
-35 -80 -159 0
-35 237 -244 0
-35 316 324 0
-34 -474 -478 0
-34 -320 -375 0
-34 -76 135 0
-34 180 215 0
-34 346 382 0
-33 -275 -293 0
-33 -40 -200 0
-33 -40 116 0
-33 77 427 0
-33 170 313 0
-33 247 -508 0
-33 259 -349 0
-33 290 472 0
-33 321 350 0
-32 -300 389 0
-32 -149 228 0
-32 56 272 0
-32 70 -434 0
-32 103 -198 0
-32 334 452 0
-31 -251 296 0
-31 -215 -278 0
-31 48 -428 0
-31 79 484 0
-31 159 245 0
-31 161 -480 0
-30 -118 147 0
-30 -92 328 0
-30 85 -520 0
-30 97 -286 0
-30 147 357 0
-30 189 -517 0
-29 -458 481 0
-29 -273 -418 0
-29 133 366 0
-29 137 363 0
-29 337 -398 0
-28 -293 -517 0
-28 -182 426 0
-28 189 328 0
-28 210 299 0
-28 215 -337 0
-28 455 482 0
-27 -228 -433 0
-27 -133 -466 0
-27 -92 153 0
-27 -90 -266 0
-26 -337 -375 0
-26 -229 -500 0
-26 -88 -406 0
-26 95 147 0
-25 -387 -461 0
-25 -176 -258 0
-25 -49 490 0
-25 216 308 0
-24 -92 -267 0
-24 -85 477 0
-24 205 -460 0
-24 335 -485 0
-23 -172 367 0
-23 -73 87 0
-22 -333 -398 0
-22 -276 277 0
-22 196 410 0
-22 320 471 0
-21 25 -151 0
-21 331 -356 0
-21 405 -464 0
-20 -444 481 0
-20 -261 -451 0
-20 -252 420 0
-20 -194 -473 0
-20 -125 -217 0
-20 -54 -323 0
-19 -284 -389 0
-19 -213 -264 0
-19 -30 516 0
-19 101 -381 0
-19 174 496 0
-19 231 -420 0
-19 259 395 0
-19 269 435 0
-18 -347 -503 0
-18 -260 318 0
-18 -59 -435 0
-18 65 -201 0
-18 207 -464 0
-17 -297 -358 0
-17 -254 379 0
-17 -31 337 0
-17 -23 302 0
-17 -19 222 0
-17 27 -507 0
-17 128 354 0
-16 -387 470 0
-16 -287 418 0
-16 -90 149 0
-16 -54 -238 0
-16 139 -407 0
-16 144 -469 0
-16 388 -442 0
-15 -338 446 0
-15 -258 -469 0
-15 -31 286 0
-15 -23 -493 0
-15 223 352 0
-15 308 410 0
-14 -84 -519 0
-14 -48 -508 0
-14 298 -358 0
-14 412 520 0
-14 444 -471 0
-13 -358 -488 0
-13 -355 -450 0
-13 -212 454 0
-13 -137 145 0
-13 -73 230 0
-13 -41 188 0
-13 334 362 0
-12 -381 509 0
-12 -335 400 0
-12 -124 209 0
-12 -111 483 0
-12 -76 -117 0
-12 20 -241 0
-12 161 321 0
-11 -369 -511 0
-11 -363 -410 0
-11 -241 -287 0
-11 -36 401 0
-11 61 286 0
-11 176 414 0
-11 179 442 0
-11 314 330 0
-10 -306 486 0
-10 -179 -248 0
-10 147 258 0
-10 154 -187 0
-10 261 396 0
-10 329 -443 0
-9 -194 203 0
-9 -130 -226 0
-9 83 110 0
-9 112 358 0
-9 282 -359 0
-9 367 -456 0
-8 -345 371 0
-8 -126 366 0
-8 -84 -93 0
-8 -57 -89 0
-8 419 -477 0
-7 -366 -417 0
-7 -225 241 0
-7 -199 -489 0
-7 -126 327 0
-7 -40 439 0
-7 49 -340 0
-6 -209 380 0
-6 -154 502 0
-6 50 221 0
-6 138 499 0
-6 144 202 0
-6 262 288 0
-5 -280 508 0
-5 -103 205 0
-5 350 -384 0
-4 -221 -318 0
-4 -85 -283 0
-4 74 -137 0
-4 144 -313 0
-3 -93 198 0
-3 77 123 0
-3 218 438 0
-2 -438 -517 0
-2 -167 417 0
-2 -135 -285 0
-2 -105 407 0
-2 81 -463 0
-2 82 498 0
-2 135 -348 0
-2 179 468 0
-2 181 452 0
-2 186 439 0
-2 239 334 0
-2 275 484 0
-1 -398 484 0
-1 -72 299 0
-1 -65 501 0
-1 15 131 0
-1 32 -278 0
-1 72 -426 0
-1 283 484 0
1 -105 498 0
1 -83 -245 0
1 -68 218 0
1 20 39 0
1 129 -213 0
2 -263 284 0
2 -222 -460 0
2 -213 -370 0
2 -16 187 0
2 179 307 0
2 243 278 0
2 297 437 0
3 -402 406 0
3 -368 -460 0
3 -123 -458 0
3 -66 -437 0
3 13 338 0
3 224 -271 0
3 275 -395 0
3 348 -360 0
4 -369 453 0
4 -359 -455 0
4 -281 479 0
4 -141 343 0
4 113 147 0
4 185 -435 0
4 329 490 0
5 -251 513 0
5 -104 -375 0
5 -53 203 0
5 346 -429 0
5 490 -492 0
6 -262 480 0
6 -187 289 0
6 -70 -99 0
6 7 -211 0
6 11 101 0
6 196 -484 0
6 211 303 0
6 227 372 0
6 309 -330 0
7 -246 -471 0
7 -124 220 0
7 -56 -101 0
7 43 404 0
7 140 206 0
7 154 -307 0
7 378 -473 0
8 -405 475 0
8 -170 -408 0
8 -134 391 0
8 -105 -240 0
8 92 -410 0
9 -57 -116 0
9 111 464 0
9 161 -388 0
10 -314 426 0
10 -202 496 0
10 -16 -518 0
10 125 470 0
10 182 -378 0
11 -314 396 0
11 -212 -386 0
11 -145 -350 0
11 -41 139 0
11 57 414 0
11 90 404 0
11 302 -383 0
12 -366 398 0
12 -119 172 0
12 -96 268 0
12 23 -40 0
12 49 188 0
12 232 -392 0
12 288 -366 0
13 -160 -252 0
13 -144 -410 0
13 -76 494 0
13 22 60 0
13 411 -412 0
14 -263 -325 0
14 -54 -118 0
14 82 462 0
14 139 -190 0
14 148 299 0
14 230 -472 0
15 -362 -416 0
15 -111 -458 0
15 65 433 0
15 176 195 0
15 257 -293 0
16 -197 367 0
16 -161 324 0
16 -128 -429 0
16 18 28 0
16 160 261 0
16 173 387 0
16 230 -312 0
16 290 -332 0
17 -321 -476 0
17 -164 -456 0
17 -131 -171 0
17 76 -272 0
18 -312 -335 0
18 -250 -287 0
18 55 -425 0
18 218 241 0
19 -166 273 0
19 -136 138 0
19 -136 339 0
19 -93 360 0
19 -85 -511 0
19 -44 171 0
19 288 364 0
19 330 405 0
19 347 452 0
19 421 -454 0
20 -361 390 0
20 55 -307 0
20 59 -454 0
20 190 227 0
20 384 -444 0
21 -161 -308 0
21 -161 -304 0
21 -138 -154 0
21 -36 97 0
21 88 -494 0
22 -497 499 0
22 -478 -499 0
22 -313 428 0
22 27 89 0
22 139 141 0
22 291 -357 0
23 -416 -418 0
23 -346 470 0
23 -218 474 0
23 -128 413 0
23 -96 -160 0
23 -78 106 0
23 26 71 0
23 46 271 0
23 174 369 0
23 426 435 0
23 437 476 0
24 -336 -372 0
24 -140 455 0
24 -77 -106 0
24 -60 -425 0
24 85 -313 0
24 195 280 0
24 204 334 0
24 225 271 0
24 355 416 0
24 388 435 0
25 -337 397 0
25 -307 -340 0
25 -270 -511 0
25 -55 99 0
25 46 473 0
26 -129 -359 0
26 199 -477 0
27 -317 516 0
27 -298 518 0
27 -274 517 0
27 -196 296 0
27 -130 -152 0
27 -47 444 0
27 31 -228 0
27 73 -443 0
27 147 316 0
27 179 -482 0
27 364 -367 0
28 -112 359 0
28 35 356 0
28 44 305 0
28 57 272 0
28 138 312 0
28 190 -341 0
28 218 483 0
28 293 -519 0
29 -79 119 0
29 101 -507 0
29 234 -461 0
29 274 307 0
30 -352 424 0
30 -69 -362 0
30 424 496 0
31 -135 337 0
31 -57 505 0
31 -33 477 0
31 226 298 0
31 253 470 0
31 459 513 0
31 474 509 0
32 -343 -350 0
32 -296 322 0
32 -122 262 0
32 65 260 0
32 206 220 0
33 -219 267 0
33 187 -517 0
33 249 -420 0
33 305 -501 0
33 308 483 0
34 -369 -449 0
34 -170 -305 0
34 47 270 0
34 63 407 0
34 280 -371 0
34 342 475 0
35 -68 450 0
35 49 258 0
35 87 356 0
35 114 380 0
36 -209 293 0
36 -187 -274 0
36 -143 500 0
36 136 -264 0
36 298 -481 0
37 -412 -481 0
37 -320 516 0
37 -179 -226 0
37 -106 -362 0
37 -55 -238 0
38 159 -238 0
38 279 -360 0
38 354 -398 0
38 453 469 0
38 471 493 0
39 -277 394 0
39 -199 497 0
39 -104 -228 0
39 -81 207 0
39 -62 -424 0
39 51 -131 0
39 163 373 0
39 225 -259 0
40 -394 -422 0
40 -91 273 0
40 201 411 0
40 358 -438 0
40 489 -500 0
41 -330 -424 0
41 -328 396 0
41 -235 283 0
41 -67 -119 0
41 -63 408 0
41 106 274 0
42 -479 -512 0
42 -367 -487 0
42 -50 -248 0
42 139 -377 0
42 170 210 0
42 252 263 0
42 415 485 0
43 -249 251 0
43 102 227 0
43 156 223 0
43 225 -471 0
43 378 -452 0
44 -409 443 0
44 -388 -415 0
44 -326 467 0
44 -181 443 0
44 -109 357 0
44 -85 -313 0
44 -72 188 0
44 -55 329 0
44 53 511 0
44 125 146 0
44 160 363 0
44 303 -461 0
44 331 460 0
45 -315 -460 0
45 -248 -320 0
45 -238 452 0
45 -234 495 0
45 -153 -471 0
45 416 508 0
46 -275 319 0
46 -149 507 0
46 83 -302 0
46 158 -223 0
46 201 -369 0
46 311 -504 0
46 333 434 0
47 -446 450 0
47 -155 -179 0
47 -66 -393 0
47 266 399 0
47 271 -476 0
48 -267 436 0
48 -249 -269 0
48 -177 415 0
48 66 -466 0
48 76 81 0
48 213 -502 0
48 237 -300 0
48 289 399 0
48 293 449 0
49 324 429 0
50 -453 -466 0
50 79 -307 0
50 187 -270 0
50 202 -215 0
51 -184 301 0
51 -139 429 0
52 -327 -410 0
52 -239 480 0
52 -90 248 0
52 61 -397 0
53 -113 -259 0
53 -70 -131 0
53 135 279 0
53 181 -265 0
53 400 507 0
53 418 464 0
54 59 492 0
54 116 -262 0
54 163 502 0
54 188 -239 0
54 214 366 0
54 400 411 0
54 419 -420 0
55 -468 477 0
55 -212 -269 0
55 -86 432 0
56 -302 -310 0
56 -223 504 0
56 176 465 0
56 255 316 0
57 -310 -374 0
57 294 -455 0
58 -316 -379 0
58 -306 476 0
58 -243 -322 0
58 -102 -155 0
59 -188 290 0
59 125 476 0
60 134 369 0
60 427 -458 0
61 -314 -366 0
61 -147 -375 0
61 68 -232 0
61 75 -430 0
61 154 183 0
61 228 -447 0
61 279 356 0
62 -452 -477 0
62 -304 -516 0
62 -287 398 0
62 -211 218 0
62 -187 -252 0
62 -169 -343 0
63 -430 501 0
63 -403 414 0
63 -328 468 0
63 -129 -218 0
63 -68 -190 0
63 234 -367 0
63 292 -393 0
63 371 -485 0
64 -87 370 0
64 78 420 0
64 102 -305 0
64 106 -476 0
64 147 385 0
64 215 499 0
64 297 385 0
64 341 498 0
65 149 -480 0
65 152 -332 0
65 154 -446 0
65 268 -274 0
65 348 409 0
66 -331 447 0
66 -113 -278 0
66 135 -277 0
66 174 480 0
66 280 -506 0
66 403 412 0
67 -113 126 0
67 -72 -160 0
67 117 -349 0
67 137 230 0
67 137 290 0
67 242 289 0
68 -444 -461 0
68 -265 516 0
68 -244 -333 0
68 -127 -324 0
68 82 -188 0
68 90 -290 0
69 -375 425 0
69 -265 -497 0
69 81 430 0
69 95 185 0
70 82 336 0
70 135 -385 0
70 165 -334 0
71 -269 344 0
71 -167 -361 0
71 -126 411 0
71 -100 -394 0
71 76 211 0
71 98 415 0
71 171 327 0
71 269 277 0
71 405 456 0
72 -175 -323 0
72 91 254 0
74 -286 -434 0
75 -127 -473 0
75 -92 -274 0
75 -87 -422 0
75 113 132 0
75 236 -514 0
75 271 392 0
76 -396 -446 0
76 -279 -385 0
76 -132 -201 0
76 -84 -186 0
76 158 -423 0
77 -237 -307 0
77 -138 -375 0
77 -101 206 0
77 83 -185 0
77 356 -520 0
77 409 471 0
77 467 -507 0
78 -221 -459 0
78 -157 506 0
78 144 -195 0
78 156 266 0
78 163 -393 0
79 -365 386 0
79 -270 336 0
79 91 -114 0
79 178 445 0
79 229 389 0
80 -353 -476 0
80 -229 -272 0
80 -115 480 0
80 -97 -265 0
81 -171 -478 0
81 91 511 0
81 484 489 0
82 -328 -464 0
82 -277 -289 0
82 -207 -430 0
82 -146 464 0
82 89 399 0
82 206 -227 0
83 -373 -384 0
83 -207 -442 0
83 -195 391 0
83 -128 -256 0
83 -91 408 0
83 228 245 0
83 243 462 0
84 -127 -217 0
84 -100 -235 0
85 -207 -411 0
85 154 -335 0
85 208 -358 0
85 246 480 0
85 291 363 0
85 360 367 0
85 379 -380 0
85 380 447 0
86 -249 -269 0
86 320 409 0
86 331 -362 0
86 390 393 0
87 -359 -385 0
87 -154 405 0
87 -131 516 0
87 -99 -236 0
87 240 300 0
88 -164 487 0
88 108 -399 0
88 223 254 0
88 261 499 0
89 -320 -453 0
89 -302 412 0
89 167 511 0
90 -392 513 0
90 -293 -430 0
90 -249 416 0
90 -224 -308 0
90 -200 415 0
90 -117 -287 0
90 99 410 0
91 -224 -430 0
91 -161 -199 0
91 -92 193 0
91 145 -170 0
91 186 -414 0
91 194 -375 0
91 448 -499 0
92 -386 467 0
92 194 227 0
92 225 -333 0
93 107 -430 0
93 111 439 0
93 253 312 0
94 -305 -474 0
94 -272 -485 0
94 -122 218 0
95 172 -193 0
95 296 493 0
95 324 -397 0
96 -327 -390 0
96 -210 349 0
96 232 447 0
96 242 457 0
96 394 453 0
97 -142 -403 0
97 -127 -494 0
97 231 391 0
97 280 -423 0
97 294 509 0
97 310 -451 0
97 353 -432 0
98 -410 455 0
98 -392 -517 0
98 -306 409 0
99 303 509 0
100 -165 -413 0
100 198 -416 0
100 219 489 0
100 351 -422 0
101 -236 -420 0
101 -176 424 0
101 -121 -311 0
102 148 -193 0
103 -421 442 0
103 -360 -370 0
103 -316 -365 0
103 -128 -381 0
103 -121 -464 0
103 113 -203 0
103 141 183 0
103 252 -512 0
103 262 290 0
104 -350 -413 0
104 -274 -374 0
104 -185 -270 0
104 -134 -293 0
104 -122 -443 0
104 180 -394 0
104 477 492 0
105 -211 357 0
105 -182 331 0
105 -119 391 0
105 250 -275 0
106 271 -355 0
107 -306 517 0
107 -192 500 0
107 209 -222 0
107 385 -419 0
108 126 -488 0
108 127 -171 0
108 213 -392 0
108 222 -298 0
109 -388 404 0
109 -146 314 0
109 190 336 0
109 370 -396 0
110 -185 297 0
110 -154 -441 0
110 163 -366 0
110 214 319 0
110 272 -429 0
111 -265 -380 0
111 -213 -419 0
111 -199 -372 0
111 -186 -431 0
111 -163 -318 0
112 -251 422 0
112 -141 -341 0
112 133 389 0
112 202 394 0
112 377 -450 0
113 -419 -423 0
113 -264 308 0
113 -212 248 0
113 143 386 0
113 161 174 0
113 164 -394 0
113 164 380 0
113 204 -477 0
113 223 -380 0
114 -200 -292 0
114 -160 309 0
114 131 517 0
114 145 470 0
114 198 250 0
114 222 -262 0
114 228 -515 0
115 -377 509 0
115 -138 162 0
115 236 400 0
115 328 425 0
116 -362 -371 0
116 -137 -442 0
116 162 169 0
116 169 -269 0
116 267 -497 0
117 -170 -351 0
117 257 -278 0
117 287 439 0
117 304 -319 0
118 -160 237 0
118 161 461 0
118 383 433 0
119 -498 508 0
119 -256 -459 0
119 210 -433 0
120 173 -188 0
120 267 -425 0
120 271 -455 0
121 -346 471 0
121 230 520 0
122 -476 500 0
123 283 494 0
123 394 -508 0
123 458 -479 0
124 -454 504 0
124 125 -474 0
124 314 -497 0
124 333 355 0
125 -220 -234 0
125 183 328 0
126 -208 330 0
126 178 472 0
126 193 435 0
127 -382 447 0
127 -160 -200 0
127 157 188 0
127 252 283 0
128 -213 408 0
128 -129 -293 0
128 204 428 0
129 -352 -374 0
129 480 -506 0
130 -385 508 0
130 -311 -478 0
130 -300 483 0
130 170 -386 0
130 348 -445 0
131 -222 361 0
131 -192 264 0
131 264 -404 0
131 442 508 0
132 281 417 0
133 -159 -168 0
134 -272 -298 0
134 -185 474 0
134 426 -511 0
135 -365 481 0
135 -292 307 0
135 -161 448 0
135 -160 -170 0
135 265 -298 0
136 -277 515 0
137 -321 -465 0
137 -156 -246 0
138 -158 291 0
138 209 -270 0
138 267 -462 0
139 -212 291 0
139 245 -462 0
140 -294 -300 0
140 279 -286 0
140 311 482 0
141 -362 -442 0
141 -304 -482 0
141 317 353 0
142 -375 -452 0
142 -279 -475 0
142 179 369 0
143 -291 362 0
143 173 -476 0
143 256 419 0
144 -166 215 0
144 170 -474 0
144 220 228 0
144 240 407 0
144 246 495 0
145 -388 500 0
145 -174 -298 0
146 -352 410 0
146 -164 -337 0
146 200 346 0
146 399 -405 0
146 417 484 0
147 151 -186 0
147 227 372 0
148 -310 -447 0
148 -261 444 0
148 223 -393 0
148 298 366 0
148 351 -520 0
149 174 354 0
150 -303 -381 0
150 -260 279 0
150 -183 -342 0
151 -294 353 0
151 417 484 0
152 -467 473 0
152 -422 -487 0
152 -234 -440 0
152 218 -414 0
152 314 436 0
153 -230 488 0
153 -214 -305 0
153 -194 454 0
153 228 240 0
154 170 -217 0
154 268 -299 0
155 -317 491 0
155 -257 513 0
155 -169 -204 0
155 315 -420 0
156 -244 -515 0
156 -237 -507 0
156 -188 -512 0
156 198 -296 0
157 -305 333 0
157 207 -208 0
157 227 406 0
158 -406 493 0
158 -320 372 0
159 -205 485 0
159 236 514 0
159 247 278 0
159 361 -514 0
160 -228 -377 0
160 -215 -470 0
160 297 433 0
160 301 -346 0
161 -325 -450 0
161 -283 424 0
162 -424 484 0
162 -367 -381 0
162 -261 391 0
162 -230 -304 0
162 -166 -343 0
162 274 -379 0
162 356 464 0
163 -322 371 0
163 -314 431 0
163 215 -291 0
163 264 -341 0
163 295 -440 0
163 353 -447 0
164 -393 478 0
164 -346 428 0
164 -339 453 0
164 312 -357 0
164 361 371 0
165 -313 -425 0
165 207 -281 0
165 253 -287 0
166 -308 -434 0
166 315 -473 0
166 437 -444 0
167 -452 -498 0
167 -328 335 0
167 -212 -402 0
167 -207 -276 0
167 333 368 0
168 -286 407 0
168 -283 502 0
168 326 465 0
168 342 -404 0
170 -414 465 0
170 251 -314 0
171 -414 453 0
171 -358 -467 0
171 -233 -421 0
171 -183 -286 0
172 365 -389 0
173 -322 -349 0
173 220 -374 0
173 303 361 0
174 -314 394 0
174 -208 -338 0
174 307 474 0
175 198 489 0
175 320 515 0
175 429 432 0
176 436 -477 0
177 -470 485 0
177 -365 477 0
177 -341 -520 0
177 -272 -424 0
177 -233 429 0
178 228 350 0
178 236 -391 0
178 241 -424 0
178 295 333 0
178 354 -453 0
179 -279 353 0
179 -221 -262 0
179 338 -353 0
179 346 -410 0
180 -391 473 0
180 -254 501 0
181 -199 -438 0
181 232 -258 0
181 241 386 0
181 301 366 0
182 -231 -280 0
182 281 364 0
183 -216 -241 0
184 -411 -439 0
184 -287 -352 0
184 -266 -403 0
185 289 -492 0
185 306 513 0
185 333 476 0
186 -401 -496 0
186 -281 -452 0
186 309 -352 0
186 354 -393 0
186 377 441 0
187 -289 -502 0
187 -201 -221 0
188 -324 -365 0
188 -247 -374 0
188 -218 -498 0
188 275 308 0
188 361 431 0
188 383 -464 0
190 -271 394 0
190 -198 227 0
190 342 -361 0
190 485 495 0
191 283 426 0
191 397 -425 0
192 -289 -303 0
192 -237 475 0
192 -217 511 0
192 262 407 0
193 -297 518 0
193 -215 466 0
193 233 -365 0
193 258 370 0
193 325 507 0
193 442 481 0
193 484 508 0
194 238 243 0
194 323 -477 0
194 343 -406 0
195 -232 -252 0
195 242 287 0
196 -459 462 0
197 292 308 0
197 343 481 0
198 -308 -345 0
198 249 511 0
198 250 -493 0
198 251 252 0
198 265 483 0
198 284 329 0
199 -239 -304 0
199 218 -330 0
199 233 -356 0
200 -303 458 0
200 447 -460 0
201 -269 416 0
202 363 -493 0
202 417 438 0
204 301 -364 0
205 -431 485 0
205 -273 -339 0
205 293 404 0
205 469 -477 0
206 -267 326 0
206 288 479 0
208 -209 425 0
209 -320 514 0
209 330 486 0
209 393 -449 0
210 -224 -442 0
211 -276 295 0
211 419 488 0
212 -355 -518 0
212 -332 404 0
213 247 384 0
213 362 -437 0
214 221 -362 0
215 222 -446 0
215 431 -436 0
216 -357 -437 0
216 -306 -330 0
217 -327 392 0
217 357 405 0
218 -410 433 0
218 -336 -437 0
218 -272 -461 0
219 -326 -468 0
219 -323 479 0
219 224 -274 0
219 308 -365 0
219 354 428 0
220 -400 -481 0
220 260 267 0
220 278 -478 0
221 -373 -513 0
221 -223 -243 0
221 239 392 0
221 357 -501 0
221 358 -487 0
222 372 514 0
222 449 481 0
223 304 518 0
224 -379 389 0
224 -277 -325 0
224 -236 274 0
225 -360 508 0
225 294 -481 0
225 308 -323 0
226 -434 467 0
226 -299 -455 0
226 -275 357 0
226 409 504 0
227 -397 503 0
227 331 -516 0
227 334 -376 0
228 349 -514 0
228 422 495 0
229 359 384 0
230 -311 466 0
230 307 485 0
231 -432 -433 0
232 -366 -485 0
232 -265 -279 0
232 314 -465 0
233 -287 -513 0
233 235 -428 0
235 -240 -373 0
235 446 -503 0
236 -285 -417 0
236 341 488 0
237 335 -441 0
238 -407 448 0
238 -268 487 0
238 250 -275 0
239 450 508 0
240 -307 472 0
241 -388 -460 0
241 -289 324 0
241 406 -442 0
242 -416 -502 0
242 314 -327 0
242 331 378 0
243 -292 -386 0
243 264 -384 0
243 361 384 0
243 373 452 0
244 -317 -369 0
244 246 320 0
245 -349 -486 0
245 246 429 0
245 327 -461 0
246 -467 487 0
246 -331 445 0
246 302 325 0
246 367 -386 0
247 -352 -394 0
247 262 516 0
247 291 459 0
247 332 -376 0
247 339 -411 0
248 262 393 0
248 298 502 0
248 450 513 0
250 -283 -326 0
250 -275 378 0
251 -277 387 0
252 -375 388 0
252 -368 489 0
253 315 -518 0
253 477 -502 0
254 -342 423 0
255 497 511 0
256 -303 -342 0
256 -292 -390 0
256 274 -412 0
257 278 -469 0
258 273 -382 0
259 400 -406 0
260 340 -371 0
260 489 -504 0
261 -346 518 0
263 -410 467 0
263 -294 519 0
264 266 355 0
264 280 466 0
264 306 487 0
265 -327 -476 0
266 -353 -494 0
266 -330 390 0
267 -361 494 0
268 -292 467 0
268 293 304 0
269 338 498 0
270 392 487 0
270 408 -442 0
272 -422 500 0
272 326 -444 0
273 -311 -516 0
274 -415 -441 0
274 -353 -420 0
276 -342 -394 0
277 319 -435 0
277 327 -330 0
278 -369 377 0
278 411 -505 0
280 -396 426 0
280 283 397 0
281 327 499 0
284 -468 499 0
284 298 -456 0
285 480 510 0
286 -352 354 0
286 294 318 0
287 383 467 0
287 392 486 0
288 -296 301 0
289 398 415 0
291 317 -328 0
291 339 426 0
291 410 -488 0
292 -440 -502 0
292 -366 394 0
294 -360 -441 0
294 -305 -424 0
294 486 505 0
297 -500 512 0
297 377 419 0
300 -311 -315 0
300 -305 -400 0
302 -314 421 0
302 379 436 0
302 467 -510 0
303 -420 -485 0
303 337 -395 0
305 -316 358 0
305 495 518 0
307 333 -335 0
308 -358 476 0
309 -350 -376 0
309 371 403 0
309 373 -470 0
310 329 -397 0
311 -396 -502 0
311 354 377 0
311 437 -517 0
313 346 -385 0
313 393 507 0
314 -344 457 0
314 356 -466 0
316 488 -517 0
321 452 -480 0
321 465 477 0
322 354 448 0
322 394 502 0
324 -330 369 0
324 364 -444 0
325 -388 504 0
325 341 -467 0
326 -394 464 0
326 513 -520 0
328 -417 475 0
329 -401 -516 0
329 -339 487 0
329 -337 -412 0
330 -403 -520 0
334 -340 -494 0
335 -351 -447 0
336 470 -481 0
339 -404 -503 0
339 417 -484 0
340 416 -420 0
342 345 425 0
343 -365 -419 0
343 417 -467 0
343 464 -467 0
344 497 515 0
347 -376 388 0
349 451 511 0
353 -407 -472 0
353 476 498 0
355 -491 515 0
357 438 -456 0
359 -369 481 0
361 -362 452 0
361 384 -471 0
361 494 510 0
363 381 -469 0
364 -365 399 0
364 422 439 0
364 437 -501 0
365 -381 392 0
365 424 -460 0
366 420 -480 0
367 -467 475 0
368 371 499 0
371 409 -451 0
372 497 -506 0
380 -470 516 0
381 -475 481 0
383 -432 -502 0
385 -415 490 0
387 405 454 0
387 476 486 0
394 -456 511 0
395 414 426 0
400 -440 477 0
401 -432 437 0
401 -421 -450 0
402 409 412 0
403 472 516 0
405 419 -443 0
409 -457 490 0
410 -451 455 0
412 -487 -512 0
423 463 -519 0
439 480 499 0
443 483 489 0
446 488 497 0
449 -465 -482 0
