c family: Tseitin parity on 4-regular graph
c known_status: UNSAT
c difficulty_level: stress
c description: stress Tseitin UNSAT formula; use timeout
c generated: deterministic complex CNF training pack
p cnf 320 1280
1 2 3 -4 0
1 2 -3 4 0
1 -2 3 4 0
1 -2 -3 -4 0
-1 2 3 4 0
-1 2 -3 -4 0
-1 -2 3 -4 0
-1 -2 -3 4 0
5 6 7 -8 0
5 6 -7 8 0
5 -6 7 8 0
5 -6 -7 -8 0
-5 6 7 8 0
-5 6 -7 -8 0
-5 -6 7 -8 0
-5 -6 -7 8 0
9 10 11 -12 0
9 10 -11 12 0
9 -10 11 12 0
9 -10 -11 -12 0
-9 10 11 12 0
-9 10 -11 -12 0
-9 -10 11 -12 0
-9 -10 -11 12 0
13 14 15 -16 0
13 14 -15 16 0
13 -14 15 16 0
13 -14 -15 -16 0
-13 14 15 16 0
-13 14 -15 -16 0
-13 -14 15 -16 0
-13 -14 -15 16 0
17 18 19 -20 0
17 18 -19 20 0
17 -18 19 20 0
17 -18 -19 -20 0
-17 18 19 20 0
-17 18 -19 -20 0
-17 -18 19 -20 0
-17 -18 -19 20 0
21 22 23 -24 0
21 22 -23 24 0
21 -22 23 24 0
21 -22 -23 -24 0
-21 22 23 24 0
-21 22 -23 -24 0
-21 -22 23 -24 0
-21 -22 -23 24 0
25 26 27 -28 0
25 26 -27 28 0
25 -26 27 28 0
25 -26 -27 -28 0
-25 26 27 28 0
-25 26 -27 -28 0
-25 -26 27 -28 0
-25 -26 -27 28 0
9 29 30 -31 0
9 29 -30 31 0
9 -29 30 31 0
9 -29 -30 -31 0
-9 29 30 31 0
-9 29 -30 -31 0
-9 -29 30 -31 0
-9 -29 -30 31 0
32 33 34 35 0
32 33 -34 -35 0
32 -33 34 -35 0
32 -33 -34 35 0
-32 33 34 -35 0
-32 33 -34 35 0
-32 -33 34 35 0
-32 -33 -34 -35 0
36 37 38 39 0
36 37 -38 -39 0
36 -37 38 -39 0
36 -37 -38 39 0
-36 37 38 -39 0
-36 37 -38 39 0
-36 -37 38 39 0
-36 -37 -38 -39 0
40 41 42 43 0
40 41 -42 -43 0
40 -41 42 -43 0
40 -41 -42 43 0
-40 41 42 -43 0
-40 41 -42 43 0
-40 -41 42 43 0
-40 -41 -42 -43 0
44 45 46 -47 0
44 45 -46 47 0
44 -45 46 47 0
44 -45 -46 -47 0
-44 45 46 47 0
-44 45 -46 -47 0
-44 -45 46 -47 0
-44 -45 -46 47 0
48 49 50 -51 0
48 49 -50 51 0
48 -49 50 51 0
48 -49 -50 -51 0
-48 49 50 51 0
-48 49 -50 -51 0
-48 -49 50 -51 0
-48 -49 -50 51 0
52 53 54 -55 0
52 53 -54 55 0
52 -53 54 55 0
52 -53 -54 -55 0
-52 53 54 55 0
-52 53 -54 -55 0
-52 -53 54 -55 0
-52 -53 -54 55 0
21 36 56 -57 0
21 36 -56 57 0
21 -36 56 57 0
21 -36 -56 -57 0
-21 36 56 57 0
-21 36 -56 -57 0
-21 -36 56 -57 0
-21 -36 -56 57 0
58 59 60 -61 0
58 59 -60 61 0
58 -59 60 61 0
58 -59 -60 -61 0
-58 59 60 61 0
-58 59 -60 -61 0
-58 -59 60 -61 0
-58 -59 -60 61 0
62 63 64 65 0
62 63 -64 -65 0
62 -63 64 -65 0
62 -63 -64 65 0
-62 63 64 -65 0
-62 63 -64 65 0
-62 -63 64 65 0
-62 -63 -64 -65 0
66 67 68 -69 0
66 67 -68 69 0
66 -67 68 69 0
66 -67 -68 -69 0
-66 67 68 69 0
-66 67 -68 -69 0
-66 -67 68 -69 0
-66 -67 -68 69 0
70 71 72 73 0
70 71 -72 -73 0
70 -71 72 -73 0
70 -71 -72 73 0
-70 71 72 -73 0
-70 71 -72 73 0
-70 -71 72 73 0
-70 -71 -72 -73 0
74 75 76 77 0
74 75 -76 -77 0
74 -75 76 -77 0
74 -75 -76 77 0
-74 75 76 -77 0
-74 75 -76 77 0
-74 -75 76 77 0
-74 -75 -76 -77 0
78 79 80 81 0
78 79 -80 -81 0
78 -79 80 -81 0
78 -79 -80 81 0
-78 79 80 -81 0
-78 79 -80 81 0
-78 -79 80 81 0
-78 -79 -80 -81 0
82 83 84 85 0
82 83 -84 -85 0
82 -83 84 -85 0
82 -83 -84 85 0
-82 83 84 -85 0
-82 83 -84 85 0
-82 -83 84 85 0
-82 -83 -84 -85 0
86 87 88 89 0
86 87 -88 -89 0
86 -87 88 -89 0
86 -87 -88 89 0
-86 87 88 -89 0
-86 87 -88 89 0
-86 -87 88 89 0
-86 -87 -88 -89 0
90 91 92 93 0
90 91 -92 -93 0
90 -91 92 -93 0
90 -91 -92 93 0
-90 91 92 -93 0
-90 91 -92 93 0
-90 -91 92 93 0
-90 -91 -92 -93 0
22 94 95 96 0
22 94 -95 -96 0
22 -94 95 -96 0
22 -94 -95 96 0
-22 94 95 -96 0
-22 94 -95 96 0
-22 -94 95 96 0
-22 -94 -95 -96 0
97 98 99 100 0
97 98 -99 -100 0
97 -98 99 -100 0
97 -98 -99 100 0
-97 98 99 -100 0
-97 98 -99 100 0
-97 -98 99 100 0
-97 -98 -99 -100 0
101 102 103 -104 0
101 102 -103 104 0
101 -102 103 104 0
101 -102 -103 -104 0
-101 102 103 104 0
-101 102 -103 -104 0
-101 -102 103 -104 0
-101 -102 -103 104 0
105 106 107 108 0
105 106 -107 -108 0
105 -106 107 -108 0
105 -106 -107 108 0
-105 106 107 -108 0
-105 106 -107 108 0
-105 -106 107 108 0
-105 -106 -107 -108 0
25 109 110 111 0
25 109 -110 -111 0
25 -109 110 -111 0
25 -109 -110 111 0
-25 109 110 -111 0
-25 109 -110 111 0
-25 -109 110 111 0
-25 -109 -110 -111 0
52 112 113 114 0
52 112 -113 -114 0
52 -112 113 -114 0
52 -112 -113 114 0
-52 112 113 -114 0
-52 112 -113 114 0
-52 -112 113 114 0
-52 -112 -113 -114 0
23 56 94 -115 0
23 56 -94 115 0
23 -56 94 115 0
23 -56 -94 -115 0
-23 56 94 115 0
-23 56 -94 -115 0
-23 -56 94 -115 0
-23 -56 -94 115 0
116 117 118 -119 0
116 117 -118 119 0
116 -117 118 119 0
116 -117 -118 -119 0
-116 117 118 119 0
-116 117 -118 -119 0
-116 -117 118 -119 0
-116 -117 -118 119 0
17 120 121 -122 0
17 120 -121 122 0
17 -120 121 122 0
17 -120 -121 -122 0
-17 120 121 122 0
-17 120 -121 -122 0
-17 -120 121 -122 0
-17 -120 -121 122 0
95 115 123 -124 0
95 115 -123 124 0
95 -115 123 124 0
95 -115 -123 -124 0
-95 115 123 124 0
-95 115 -123 -124 0
-95 -115 123 -124 0
-95 -115 -123 124 0
13 125 126 -127 0
13 125 -126 127 0
13 -125 126 127 0
13 -125 -126 -127 0
-13 125 126 127 0
-13 125 -126 -127 0
-13 -125 126 -127 0
-13 -125 -126 127 0
125 128 129 130 0
125 128 -129 -130 0
125 -128 129 -130 0
125 -128 -129 130 0
-125 128 129 -130 0
-125 128 -129 130 0
-125 -128 129 130 0
-125 -128 -129 -130 0
131 132 133 -134 0
131 132 -133 134 0
131 -132 133 134 0
131 -132 -133 -134 0
-131 132 133 134 0
-131 132 -133 -134 0
-131 -132 133 -134 0
-131 -132 -133 134 0
37 135 136 -137 0
37 135 -136 137 0
37 -135 136 137 0
37 -135 -136 -137 0
-37 135 136 137 0
-37 135 -136 -137 0
-37 -135 136 -137 0
-37 -135 -136 137 0
128 138 139 -140 0
128 138 -139 140 0
128 -138 139 140 0
128 -138 -139 -140 0
-128 138 139 140 0
-128 138 -139 -140 0
-128 -138 139 -140 0
-128 -138 -139 140 0
53 141 142 -143 0
53 141 -142 143 0
53 -141 142 143 0
53 -141 -142 -143 0
-53 141 142 143 0
-53 141 -142 -143 0
-53 -141 142 -143 0
-53 -141 -142 143 0
97 144 145 146 0
97 144 -145 -146 0
97 -144 145 -146 0
97 -144 -145 146 0
-97 144 145 -146 0
-97 144 -145 146 0
-97 -144 145 146 0
-97 -144 -145 -146 0
147 148 149 150 0
147 148 -149 -150 0
147 -148 149 -150 0
147 -148 -149 150 0
-147 148 149 -150 0
-147 148 -149 150 0
-147 -148 149 150 0
-147 -148 -149 -150 0
74 151 152 -153 0
74 151 -152 153 0
74 -151 152 153 0
74 -151 -152 -153 0
-74 151 152 153 0
-74 151 -152 -153 0
-74 -151 152 -153 0
-74 -151 -152 153 0
70 154 155 -156 0
70 154 -155 156 0
70 -154 155 156 0
70 -154 -155 -156 0
-70 154 155 156 0
-70 154 -155 -156 0
-70 -154 155 -156 0
-70 -154 -155 156 0
157 158 159 -160 0
157 158 -159 160 0
157 -158 159 160 0
157 -158 -159 -160 0
-157 158 159 160 0
-157 158 -159 -160 0
-157 -158 159 -160 0
-157 -158 -159 160 0
5 116 161 -162 0
5 116 -161 162 0
5 -116 161 162 0
5 -116 -161 -162 0
-5 116 161 162 0
-5 116 -161 -162 0
-5 -116 161 -162 0
-5 -116 -161 162 0
90 163 164 -165 0
90 163 -164 165 0
90 -163 164 165 0
90 -163 -164 -165 0
-90 163 164 165 0
-90 163 -164 -165 0
-90 -163 164 -165 0
-90 -163 -164 165 0
26 166 167 -168 0
26 166 -167 168 0
26 -166 167 168 0
26 -166 -167 -168 0
-26 166 167 168 0
-26 166 -167 -168 0
-26 -166 167 -168 0
-26 -166 -167 168 0
157 169 170 171 0
157 169 -170 -171 0
157 -169 170 -171 0
157 -169 -170 171 0
-157 169 170 -171 0
-157 169 -170 171 0
-157 -169 170 171 0
-157 -169 -170 -171 0
82 86 172 -173 0
82 86 -172 173 0
82 -86 172 173 0
82 -86 -172 -173 0
-82 86 172 173 0
-82 86 -172 -173 0
-82 -86 172 -173 0
-82 -86 -172 173 0
105 174 175 -176 0
105 174 -175 176 0
105 -174 175 176 0
105 -174 -175 -176 0
-105 174 175 176 0
-105 174 -175 -176 0
-105 -174 175 -176 0
-105 -174 -175 176 0
83 87 172 -177 0
83 87 -172 177 0
83 -87 172 177 0
83 -87 -172 -177 0
-83 87 172 177 0
-83 87 -172 -177 0
-83 -87 172 -177 0
-83 -87 -172 177 0
62 141 178 179 0
62 141 -178 -179 0
62 -141 178 -179 0
62 -141 -178 179 0
-62 141 178 -179 0
-62 141 -178 179 0
-62 -141 178 179 0
-62 -141 -178 -179 0
18 120 180 -181 0
18 120 -180 181 0
18 -120 180 181 0
18 -120 -180 -181 0
-18 120 180 181 0
-18 120 -180 -181 0
-18 -120 180 -181 0
-18 -120 -180 181 0
19 121 182 -183 0
19 121 -182 183 0
19 -121 182 183 0
19 -121 -182 -183 0
-19 121 182 183 0
-19 121 -182 -183 0
-19 -121 182 -183 0
-19 -121 -182 183 0
27 166 184 -185 0
27 166 -184 185 0
27 -166 184 185 0
27 -166 -184 -185 0
-27 166 184 185 0
-27 166 -184 -185 0
-27 -166 184 -185 0
-27 -166 -184 185 0
63 158 186 187 0
63 158 -186 -187 0
63 -158 186 -187 0
63 -158 -186 187 0
-63 158 186 -187 0
-63 158 -186 187 0
-63 -158 186 187 0
-63 -158 -186 -187 0
66 188 189 -190 0
66 188 -189 190 0
66 -188 189 190 0
66 -188 -189 -190 0
-66 188 189 190 0
-66 188 -189 -190 0
-66 -188 189 -190 0
-66 -188 -189 190 0
58 191 192 193 0
58 191 -192 -193 0
58 -191 192 -193 0
58 -191 -192 193 0
-58 191 192 -193 0
-58 191 -192 193 0
-58 -191 192 193 0
-58 -191 -192 -193 0
54 142 178 194 0
54 142 -178 -194 0
54 -142 178 -194 0
54 -142 -178 194 0
-54 142 178 -194 0
-54 142 -178 194 0
-54 -142 178 194 0
-54 -142 -178 -194 0
147 195 196 -197 0
147 195 -196 197 0
147 -195 196 197 0
147 -195 -196 -197 0
-147 195 196 197 0
-147 195 -196 -197 0
-147 -195 196 -197 0
-147 -195 -196 197 0
10 48 198 -199 0
10 48 -198 199 0
10 -48 198 199 0
10 -48 -198 -199 0
-10 48 198 199 0
-10 48 -198 -199 0
-10 -48 198 -199 0
-10 -48 -198 199 0
67 188 200 -201 0
67 188 -200 201 0
67 -188 200 201 0
67 -188 -200 -201 0
-67 188 200 201 0
-67 188 -200 -201 0
-67 -188 200 -201 0
-67 -188 -200 201 0
202 203 204 -205 0
202 203 -204 205 0
202 -203 204 205 0
202 -203 -204 -205 0
-202 203 204 205 0
-202 203 -204 -205 0
-202 -203 204 -205 0
-202 -203 -204 205 0
131 206 207 -208 0
131 206 -207 208 0
131 -206 207 208 0
131 -206 -207 -208 0
-131 206 207 208 0
-131 206 -207 -208 0
-131 -206 207 -208 0
-131 -206 -207 208 0
109 135 209 210 0
109 135 -209 -210 0
109 -135 209 -210 0
109 -135 -209 210 0
-109 135 209 -210 0
-109 135 -209 210 0
-109 -135 209 210 0
-109 -135 -209 -210 0
211 212 213 -214 0
211 212 -213 214 0
211 -212 213 214 0
211 -212 -213 -214 0
-211 212 213 214 0
-211 212 -213 -214 0
-211 -212 213 -214 0
-211 -212 -213 214 0
59 68 189 -215 0
59 68 -189 215 0
59 -68 189 215 0
59 -68 -189 -215 0
-59 68 189 215 0
-59 68 -189 -215 0
-59 -68 189 -215 0
-59 -68 -189 215 0
64 143 179 -216 0
64 143 -179 216 0
64 -143 179 216 0
64 -143 -179 -216 0
-64 143 179 216 0
-64 143 -179 -216 0
-64 -143 179 -216 0
-64 -143 -179 216 0
78 217 218 219 0
78 217 -218 -219 0
78 -217 218 -219 0
78 -217 -218 219 0
-78 217 218 -219 0
-78 217 -218 219 0
-78 -217 218 219 0
-78 -217 -218 -219 0
122 180 220 221 0
122 180 -220 -221 0
122 -180 220 -221 0
122 -180 -220 221 0
-122 180 220 -221 0
-122 180 -220 221 0
-122 -180 220 221 0
-122 -180 -220 -221 0
98 222 223 -224 0
98 222 -223 224 0
98 -222 223 224 0
98 -222 -223 -224 0
-98 222 223 224 0
-98 222 -223 -224 0
-98 -222 223 -224 0
-98 -222 -223 224 0
6 117 161 -225 0
6 117 -161 225 0
6 -117 161 225 0
6 -117 -161 -225 0
-6 117 161 225 0
-6 117 -161 -225 0
-6 -117 161 -225 0
-6 -117 -161 225 0
38 136 209 -226 0
38 136 -209 226 0
38 -136 209 226 0
38 -136 -209 -226 0
-38 136 209 226 0
-38 136 -209 -226 0
-38 -136 209 -226 0
-38 -136 -209 226 0
227 228 229 -230 0
227 228 -229 230 0
227 -228 229 230 0
227 -228 -229 -230 0
-227 228 229 230 0
-227 228 -229 -230 0
-227 -228 229 -230 0
-227 -228 -229 230 0
40 132 231 -232 0
40 132 -231 232 0
40 -132 231 232 0
40 -132 -231 -232 0
-40 132 231 232 0
-40 132 -231 -232 0
-40 -132 231 -232 0
-40 -132 -231 232 0
75 151 233 -234 0
75 151 -233 234 0
75 -151 233 234 0
75 -151 -233 -234 0
-75 151 233 234 0
-75 151 -233 -234 0
-75 -151 233 -234 0
-75 -151 -233 234 0
14 126 235 236 0
14 126 -235 -236 0
14 -126 235 -236 0
14 -126 -235 236 0
-14 126 235 -236 0
-14 126 -235 236 0
-14 -126 235 236 0
-14 -126 -235 -236 0
101 237 238 239 0
101 237 -238 -239 0
101 -237 238 -239 0
101 -237 -238 239 0
-101 237 238 -239 0
-101 237 -238 239 0
-101 -237 238 239 0
-101 -237 -238 -239 0
191 240 241 242 0
191 240 -241 -242 0
191 -240 241 -242 0
191 -240 -241 242 0
-191 240 241 -242 0
-191 240 -241 242 0
-191 -240 241 242 0
-191 -240 -241 -242 0
32 227 243 244 0
32 227 -243 -244 0
32 -227 243 -244 0
32 -227 -243 244 0
-32 227 243 -244 0
-32 227 -243 244 0
-32 -227 243 244 0
-32 -227 -243 -244 0
1 44 245 246 0
1 44 -245 -246 0
1 -44 245 -246 0
1 -44 -245 246 0
-1 44 245 -246 0
-1 44 -245 246 0
-1 -44 245 246 0
-1 -44 -245 -246 0
206 247 248 249 0
206 247 -248 -249 0
206 -247 248 -249 0
206 -247 -248 249 0
-206 247 248 -249 0
-206 247 -248 249 0
-206 -247 248 249 0
-206 -247 -248 -249 0
123 250 251 252 0
123 250 -251 -252 0
123 -250 251 -252 0
123 -250 -251 252 0
-123 250 251 -252 0
-123 250 -251 252 0
-123 -250 251 252 0
-123 -250 -251 -252 0
127 129 138 -235 0
127 129 -138 235 0
127 -129 138 235 0
127 -129 -138 -235 0
-127 129 138 235 0
-127 129 -138 -235 0
-127 -129 138 -235 0
-127 -129 -138 235 0
148 195 253 254 0
148 195 -253 -254 0
148 -195 253 -254 0
148 -195 -253 254 0
-148 195 253 -254 0
-148 195 -253 254 0
-148 -195 253 254 0
-148 -195 -253 -254 0
41 130 139 255 0
41 130 -139 -255 0
41 -130 139 -255 0
41 -130 -139 255 0
-41 130 139 -255 0
-41 130 -139 255 0
-41 -130 139 255 0
-41 -130 -139 -255 0
33 202 256 257 0
33 202 -256 -257 0
33 -202 256 -257 0
33 -202 -256 257 0
-33 202 256 -257 0
-33 202 -256 257 0
-33 -202 256 257 0
-33 -202 -256 -257 0
258 259 260 -261 0
258 259 -260 261 0
258 -259 260 261 0
258 -259 -260 -261 0
-258 259 260 261 0
-258 259 -260 -261 0
-258 -259 260 -261 0
-258 -259 -260 261 0
45 240 262 -263 0
45 240 -262 263 0
45 -240 262 263 0
45 -240 -262 -263 0
-45 240 262 263 0
-45 240 -262 -263 0
-45 -240 262 -263 0
-45 -240 -262 263 0
2 88 245 264 0
2 88 -245 -264 0
2 -88 245 -264 0
2 -88 -245 264 0
-2 88 245 -264 0
-2 88 -245 264 0
-2 -88 245 264 0
-2 -88 -245 -264 0
144 152 265 -266 0
144 152 -265 266 0
144 -152 265 266 0
144 -152 -265 -266 0
-144 152 265 266 0
-144 152 -265 -266 0
-144 -152 265 -266 0
-144 -152 -265 266 0
20 169 182 267 0
20 169 -182 -267 0
20 -169 182 -267 0
20 -169 -182 267 0
-20 169 182 -267 0
-20 169 -182 267 0
-20 -169 182 267 0
-20 -169 -182 -267 0
60 192 268 269 0
60 192 -268 -269 0
60 -192 268 -269 0
60 -192 -268 269 0
-60 192 268 -269 0
-60 192 -268 269 0
-60 -192 268 269 0
-60 -192 -268 -269 0
24 39 57 -137 0
24 39 -57 137 0
24 -39 57 137 0
24 -39 -57 -137 0
-24 39 57 137 0
-24 39 -57 -137 0
-24 -39 57 -137 0
-24 -39 -57 137 0
76 233 258 270 0
76 233 -258 -270 0
76 -233 258 -270 0
76 -233 -258 270 0
-76 233 258 -270 0
-76 233 -258 270 0
-76 -233 258 270 0
-76 -233 -258 -270 0
102 237 271 -272 0
102 237 -271 272 0
102 -237 271 272 0
102 -237 -271 -272 0
-102 237 271 272 0
-102 237 -271 -272 0
-102 -237 271 -272 0
-102 -237 -271 272 0
28 110 167 -273 0
28 110 -167 273 0
28 -110 167 273 0
28 -110 -167 -273 0
-28 110 167 273 0
-28 110 -167 -273 0
-28 -110 167 -273 0
-28 -110 -167 273 0
71 154 220 274 0
71 154 -220 -274 0
71 -154 220 -274 0
71 -154 -220 274 0
-71 154 220 -274 0
-71 154 -220 274 0
-71 -154 220 274 0
-71 -154 -220 -274 0
155 259 275 276 0
155 259 -275 -276 0
155 -259 275 -276 0
155 -259 -275 276 0
-155 259 275 -276 0
-155 259 -275 276 0
-155 -259 275 276 0
-155 -259 -275 -276 0
34 203 256 -277 0
34 203 -256 277 0
34 -203 256 277 0
34 -203 -256 -277 0
-34 203 256 277 0
-34 203 -256 -277 0
-34 -203 256 -277 0
-34 -203 -256 277 0
84 177 278 -279 0
84 177 -278 279 0
84 -177 278 279 0
84 -177 -278 -279 0
-84 177 278 279 0
-84 177 -278 -279 0
-84 -177 278 -279 0
-84 -177 -278 279 0
69 184 200 -280 0
69 184 -200 280 0
69 -184 200 280 0
69 -184 -200 -280 0
-69 184 200 280 0
-69 184 -200 -280 0
-69 -184 200 -280 0
-69 -184 -200 280 0
55 112 194 -281 0
55 112 -194 281 0
55 -112 194 281 0
55 -112 -194 -281 0
-55 112 194 281 0
-55 112 -194 -281 0
-55 -112 194 -281 0
-55 -112 -194 281 0
153 234 265 -282 0
153 234 -265 282 0
153 -234 265 282 0
153 -234 -265 -282 0
-153 234 265 282 0
-153 234 -265 -282 0
-153 -234 265 -282 0
-153 -234 -265 282 0
15 236 253 283 0
15 236 -253 -283 0
15 -236 253 -283 0
15 -236 -253 283 0
-15 236 253 -283 0
-15 236 -253 283 0
-15 -236 253 283 0
-15 -236 -253 -283 0
284 285 286 287 0
284 285 -286 -287 0
284 -285 286 -287 0
284 -285 -286 287 0
-284 285 286 -287 0
-284 285 -286 287 0
-284 -285 286 287 0
-284 -285 -286 -287 0
133 207 231 -247 0
133 207 -231 247 0
133 -207 231 247 0
133 -207 -231 -247 0
-133 207 231 247 0
-133 207 -231 -247 0
-133 -207 231 -247 0
-133 -207 -231 247 0
35 228 243 277 0
35 228 -243 -277 0
35 -228 243 -277 0
35 -228 -243 277 0
-35 228 243 -277 0
-35 228 -243 277 0
-35 -228 243 277 0
-35 -228 -243 -277 0
145 266 282 288 0
145 266 -282 -288 0
145 -266 282 -288 0
145 -266 -282 288 0
-145 266 282 -288 0
-145 266 -282 288 0
-145 -266 282 288 0
-145 -266 -282 -288 0
72 181 221 274 0
72 181 -221 -274 0
72 -181 221 -274 0
72 -181 -221 274 0
-72 181 221 -274 0
-72 181 -221 274 0
-72 -181 221 274 0
-72 -181 -221 -274 0
284 289 290 291 0
284 289 -290 -291 0
284 -289 290 -291 0
284 -289 -290 291 0
-284 289 290 -291 0
-284 289 -290 291 0
-284 -289 290 291 0
-284 -289 -290 -291 0
7 29 225 -292 0
7 29 -225 292 0
7 -29 225 292 0
7 -29 -225 -292 0
-7 29 225 292 0
-7 29 -225 -292 0
-7 -29 225 -292 0
-7 -29 -225 292 0
91 163 293 -294 0
91 163 -293 294 0
91 -163 293 294 0
91 -163 -293 -294 0
-91 163 293 294 0
-91 163 -293 -294 0
-91 -163 293 -294 0
-91 -163 -293 294 0
106 149 196 295 0
106 149 -196 -295 0
106 -149 196 -295 0
106 -149 -196 295 0
-106 149 196 -295 0
-106 149 -196 295 0
-106 -149 196 295 0
-106 -149 -196 -295 0
42 140 255 -296 0
42 140 -255 296 0
42 -140 255 296 0
42 -140 -255 -296 0
-42 140 255 296 0
-42 140 -255 -296 0
-42 -140 255 -296 0
-42 -140 -255 296 0
79 211 217 -297 0
79 211 -217 297 0
79 -211 217 297 0
79 -211 -217 -297 0
-79 211 217 297 0
-79 211 -217 -297 0
-79 -211 217 -297 0
-79 -211 -217 297 0
164 250 293 298 0
164 250 -293 -298 0
164 -250 293 -298 0
164 -250 -293 298 0
-164 250 293 -298 0
-164 250 -293 298 0
-164 -250 293 298 0
-164 -250 -293 -298 0
61 190 215 -268 0
61 190 -215 268 0
61 -190 215 268 0
61 -190 -215 -268 0
-61 190 215 268 0
-61 190 -215 -268 0
-61 -190 215 -268 0
-61 -190 -215 268 0
92 285 294 -299 0
92 285 -294 299 0
92 -285 294 299 0
92 -285 -294 -299 0
-92 285 294 299 0
-92 285 -294 -299 0
-92 -285 294 -299 0
-92 -285 -294 299 0
49 300 301 -302 0
49 300 -301 302 0
49 -300 301 302 0
49 -300 -301 -302 0
-49 300 301 302 0
-49 300 -301 -302 0
-49 -300 301 -302 0
-49 -300 -301 302 0
103 238 303 -304 0
103 238 -303 304 0
103 -238 303 304 0
103 -238 -303 -304 0
-103 238 303 304 0
-103 238 -303 -304 0
-103 -238 303 -304 0
-103 -238 -303 304 0
3 46 246 305 0
3 46 -246 -305 0
3 -46 246 -305 0
3 -46 -246 305 0
-3 46 246 -305 0
-3 46 -246 305 0
-3 -46 246 305 0
-3 -46 -246 -305 0
204 257 300 -306 0
204 257 -300 306 0
204 -257 300 306 0
204 -257 -300 -306 0
-204 257 300 306 0
-204 257 -300 -306 0
-204 -257 300 -306 0
-204 -257 -300 306 0
4 89 173 -264 0
4 89 -173 264 0
4 -89 173 264 0
4 -89 -173 -264 0
-4 89 173 264 0
-4 89 -173 -264 0
-4 -89 173 -264 0
-4 -89 -173 264 0
168 185 201 280 0
168 185 -201 -280 0
168 -185 201 -280 0
168 -185 -201 280 0
-168 185 201 -280 0
-168 185 -201 280 0
-168 -185 201 280 0
-168 -185 -201 -280 0
8 30 292 -307 0
8 30 -292 307 0
8 -30 292 307 0
8 -30 -292 -307 0
-8 30 292 307 0
-8 30 -292 -307 0
-8 -30 292 -307 0
-8 -30 -292 307 0
16 197 254 -283 0
16 197 -254 283 0
16 -197 254 283 0
16 -197 -254 -283 0
-16 197 254 283 0
-16 197 -254 -283 0
-16 -197 254 -283 0
-16 -197 -254 283 0
229 244 271 -308 0
229 244 -271 308 0
229 -244 271 308 0
229 -244 -271 -308 0
-229 244 271 308 0
-229 244 -271 -308 0
-229 -244 271 -308 0
-229 -244 -271 308 0
80 85 278 -309 0
80 85 -278 309 0
80 -85 278 309 0
80 -85 -278 -309 0
-80 85 278 309 0
-80 85 -278 -309 0
-80 -85 278 -309 0
-80 -85 -278 309 0
65 186 216 310 0
65 186 -216 -310 0
65 -186 216 -310 0
65 -186 -216 310 0
-65 186 216 -310 0
-65 186 -216 310 0
-65 -186 216 310 0
-65 -186 -216 -310 0
208 222 248 -311 0
208 222 -248 311 0
208 -222 248 311 0
208 -222 -248 -311 0
-208 222 248 311 0
-208 222 -248 -311 0
-208 -222 248 -311 0
-208 -222 -248 311 0
73 156 275 312 0
73 156 -275 -312 0
73 -156 275 -312 0
73 -156 -275 312 0
-73 156 275 -312 0
-73 156 -275 312 0
-73 -156 275 312 0
-73 -156 -275 -312 0
113 118 162 313 0
113 118 -162 -313 0
113 -118 162 -313 0
113 -118 -162 313 0
-113 118 162 -313 0
-113 118 -162 313 0
-113 -118 162 313 0
-113 -118 -162 -313 0
159 170 183 -267 0
159 170 -183 267 0
159 -170 183 267 0
159 -170 -183 -267 0
-159 170 183 267 0
-159 170 -183 -267 0
-159 -170 183 -267 0
-159 -170 -183 267 0
111 210 226 273 0
111 210 -226 -273 0
111 -210 226 -273 0
111 -210 -226 273 0
-111 210 226 -273 0
-111 210 -226 273 0
-111 -210 226 273 0
-111 -210 -226 -273 0
43 134 232 296 0
43 134 -232 -296 0
43 -134 232 -296 0
43 -134 -232 296 0
-43 134 232 -296 0
-43 134 -232 296 0
-43 -134 232 296 0
-43 -134 -232 -296 0
104 230 272 -308 0
104 230 -272 308 0
104 -230 272 308 0
104 -230 -272 -308 0
-104 230 272 308 0
-104 230 -272 -308 0
-104 -230 272 -308 0
-104 -230 -272 308 0
11 31 198 -307 0
11 31 -198 307 0
11 -31 198 307 0
11 -31 -198 -307 0
-11 31 198 307 0
-11 31 -198 -307 0
-11 -31 198 -307 0
-11 -31 -198 307 0
81 218 279 -309 0
81 218 -279 309 0
81 -218 279 309 0
81 -218 -279 -309 0
-81 218 279 309 0
-81 218 -279 -309 0
-81 -218 279 -309 0
-81 -218 -279 309 0
50 301 314 315 0
50 301 -314 -315 0
50 -301 314 -315 0
50 -301 -314 315 0
-50 301 314 -315 0
-50 301 -314 315 0
-50 -301 314 315 0
-50 -301 -314 -315 0
174 212 316 -317 0
174 212 -316 317 0
174 -212 316 317 0
174 -212 -316 -317 0
-174 212 316 317 0
-174 212 -316 -317 0
-174 -212 316 -317 0
-174 -212 -316 317 0
107 150 175 295 0
107 150 -175 -295 0
107 -150 175 -295 0
107 -150 -175 295 0
-107 150 175 -295 0
-107 150 -175 295 0
-107 -150 175 295 0
-107 -150 -175 -295 0
114 119 281 -313 0
114 119 -281 313 0
114 -119 281 313 0
114 -119 -281 -313 0
-114 119 281 313 0
-114 119 -281 -313 0
-114 -119 281 -313 0
-114 -119 -281 313 0
99 223 249 -311 0
99 223 -249 311 0
99 -223 249 311 0
99 -223 -249 -311 0
-99 223 249 311 0
-99 223 -249 -311 0
-99 -223 249 -311 0
-99 -223 -249 311 0
77 260 270 -318 0
77 260 -270 318 0
77 -260 270 318 0
77 -260 -270 -318 0
-77 260 270 318 0
-77 260 -270 -318 0
-77 -260 270 -318 0
-77 -260 -270 318 0
93 286 289 299 0
93 286 -289 -299 0
93 -286 289 -299 0
93 -286 -289 299 0
-93 286 289 -299 0
-93 286 -289 299 0
-93 -286 289 299 0
-93 -286 -289 -299 0
100 146 224 -288 0
100 146 -224 288 0
100 -146 224 288 0
100 -146 -224 -288 0
-100 146 224 288 0
-100 146 -224 -288 0
-100 -146 224 -288 0
-100 -146 -224 288 0
160 171 187 310 0
160 171 -187 -310 0
160 -171 187 -310 0
160 -171 -187 310 0
-160 171 187 -310 0
-160 171 -187 310 0
-160 -171 187 310 0
-160 -171 -187 -310 0
287 290 303 -319 0
287 290 -303 319 0
287 -290 303 319 0
287 -290 -303 -319 0
-287 290 303 319 0
-287 290 -303 -319 0
-287 -290 303 -319 0
-287 -290 -303 319 0
213 219 297 -316 0
213 219 -297 316 0
213 -219 297 316 0
213 -219 -297 -316 0
-213 219 297 316 0
-213 219 -297 -316 0
-213 -219 297 -316 0
-213 -219 -297 316 0
108 176 214 -317 0
108 176 -214 317 0
108 -176 214 317 0
108 -176 -214 -317 0
-108 176 214 317 0
-108 176 -214 -317 0
-108 -176 214 -317 0
-108 -176 -214 317 0
47 241 262 -305 0
47 241 -262 305 0
47 -241 262 305 0
47 -241 -262 -305 0
-47 241 262 305 0
-47 241 -262 -305 0
-47 -241 262 -305 0
-47 -241 -262 305 0
239 291 304 319 0
239 291 -304 -319 0
239 -291 304 -319 0
239 -291 -304 319 0
-239 291 304 -319 0
-239 291 -304 319 0
-239 -291 304 319 0
-239 -291 -304 -319 0
193 242 263 269 0
193 242 -263 -269 0
193 -242 263 -269 0
193 -242 -263 269 0
-193 242 263 -269 0
-193 242 -263 269 0
-193 -242 263 269 0
-193 -242 -263 -269 0
261 276 312 -318 0
261 276 -312 318 0
261 -276 312 318 0
261 -276 -312 -318 0
-261 276 312 318 0
-261 276 -312 -318 0
-261 -276 312 -318 0
-261 -276 -312 318 0
165 251 298 320 0
165 251 -298 -320 0
165 -251 298 -320 0
165 -251 -298 320 0
-165 251 298 -320 0
-165 251 -298 320 0
-165 -251 298 320 0
-165 -251 -298 -320 0
96 124 252 -320 0
96 124 -252 320 0
96 -124 252 320 0
96 -124 -252 -320 0
-96 124 252 320 0
-96 124 -252 -320 0
-96 -124 252 -320 0
-96 -124 -252 320 0
205 302 306 -314 0
205 302 -306 314 0
205 -302 306 314 0
205 -302 -306 -314 0
-205 302 306 314 0
-205 302 -306 -314 0
-205 -302 306 -314 0
-205 -302 -306 314 0
12 51 199 315 0
12 51 -199 -315 0
12 -51 199 -315 0
12 -51 -199 315 0
-12 51 199 -315 0
-12 51 -199 315 0
-12 -51 199 315 0
-12 -51 -199 -315 0
