c family: inconsistent sparse XOR system encoded as CNF
c known_status: UNSAT
c difficulty_level: stress
c description: large inconsistent XOR CNF; use timeout
c generated: deterministic complex CNF training pack
p cnf 240 1996
141 185 190 232 0
141 185 -190 -232 0
141 -185 190 -232 0
141 -185 -190 232 0
-141 185 190 -232 0
-141 185 -190 232 0
-141 -185 190 232 0
-141 -185 -190 -232 0
3 166 227 0
3 -166 -227 0
-3 166 -227 0
-3 -166 227 0
47 88 164 -213 0
47 88 -164 213 0
47 -88 164 213 0
47 -88 -164 -213 0
-47 88 164 213 0
-47 88 -164 -213 0
-47 -88 164 -213 0
-47 -88 -164 213 0
56 97 111 143 0
56 97 -111 -143 0
56 -97 111 -143 0
56 -97 -111 143 0
-56 97 111 -143 0
-56 97 -111 143 0
-56 -97 111 143 0
-56 -97 -111 -143 0
139 166 221 -222 0
139 166 -221 222 0
139 -166 221 222 0
139 -166 -221 -222 0
-139 166 221 222 0
-139 166 -221 -222 0
-139 -166 221 -222 0
-139 -166 -221 222 0
3 102 194 0
3 -102 -194 0
-3 102 -194 0
-3 -102 194 0
106 109 158 -165 0
106 109 -158 165 0
106 -109 158 165 0
106 -109 -158 -165 0
-106 109 158 165 0
-106 109 -158 -165 0
-106 -109 158 -165 0
-106 -109 -158 165 0
65 116 159 -192 0
65 116 -159 192 0
65 -116 159 192 0
65 -116 -159 -192 0
-65 116 159 192 0
-65 116 -159 -192 0
-65 -116 159 -192 0
-65 -116 -159 192 0
9 44 -232 0
9 -44 232 0
-9 44 232 0
-9 -44 -232 0
85 142 -226 0
85 -142 226 0
-85 142 226 0
-85 -142 -226 0
26 120 -154 0
26 -120 154 0
-26 120 154 0
-26 -120 -154 0
117 161 230 0
117 -161 -230 0
-117 161 -230 0
-117 -161 230 0
55 113 139 -205 0
55 113 -139 205 0
55 -113 139 205 0
55 -113 -139 -205 0
-55 113 139 205 0
-55 113 -139 -205 0
-55 -113 139 -205 0
-55 -113 -139 205 0
44 64 118 -190 0
44 64 -118 190 0
44 -64 118 190 0
44 -64 -118 -190 0
-44 64 118 190 0
-44 64 -118 -190 0
-44 -64 118 -190 0
-44 -64 -118 190 0
49 55 57 -82 0
49 55 -57 82 0
49 -55 57 82 0
49 -55 -57 -82 0
-49 55 57 82 0
-49 55 -57 -82 0
-49 -55 57 -82 0
-49 -55 -57 82 0
4 45 98 -156 0
4 45 -98 156 0
4 -45 98 156 0
4 -45 -98 -156 0
-4 45 98 156 0
-4 45 -98 -156 0
-4 -45 98 -156 0
-4 -45 -98 156 0
80 176 206 0
80 -176 -206 0
-80 176 -206 0
-80 -176 206 0
73 138 169 231 0
73 138 -169 -231 0
73 -138 169 -231 0
73 -138 -169 231 0
-73 138 169 -231 0
-73 138 -169 231 0
-73 -138 169 231 0
-73 -138 -169 -231 0
23 75 82 -126 0
23 75 -82 126 0
23 -75 82 126 0
23 -75 -82 -126 0
-23 75 82 126 0
-23 75 -82 -126 0
-23 -75 82 -126 0
-23 -75 -82 126 0
6 133 150 237 0
6 133 -150 -237 0
6 -133 150 -237 0
6 -133 -150 237 0
-6 133 150 -237 0
-6 133 -150 237 0
-6 -133 150 237 0
-6 -133 -150 -237 0
69 186 211 216 0
69 186 -211 -216 0
69 -186 211 -216 0
69 -186 -211 216 0
-69 186 211 -216 0
-69 186 -211 216 0
-69 -186 211 216 0
-69 -186 -211 -216 0
63 116 -234 0
63 -116 234 0
-63 116 234 0
-63 -116 -234 0
25 81 -226 0
25 -81 226 0
-25 81 226 0
-25 -81 -226 0
128 198 225 0
128 -198 -225 0
-128 198 -225 0
-128 -198 225 0
28 110 117 0
28 -110 -117 0
-28 110 -117 0
-28 -110 117 0
73 108 122 199 0
73 108 -122 -199 0
73 -108 122 -199 0
73 -108 -122 199 0
-73 108 122 -199 0
-73 108 -122 199 0
-73 -108 122 199 0
-73 -108 -122 -199 0
22 203 -211 0
22 -203 211 0
-22 203 211 0
-22 -203 -211 0
64 72 82 182 0
64 72 -82 -182 0
64 -72 82 -182 0
64 -72 -82 182 0
-64 72 82 -182 0
-64 72 -82 182 0
-64 -72 82 182 0
-64 -72 -82 -182 0
92 171 226 -238 0
92 171 -226 238 0
92 -171 226 238 0
92 -171 -226 -238 0
-92 171 226 238 0
-92 171 -226 -238 0
-92 -171 226 -238 0
-92 -171 -226 238 0
11 31 67 83 0
11 31 -67 -83 0
11 -31 67 -83 0
11 -31 -67 83 0
-11 31 67 -83 0
-11 31 -67 83 0
-11 -31 67 83 0
-11 -31 -67 -83 0
8 84 85 -110 0
8 84 -85 110 0
8 -84 85 110 0
8 -84 -85 -110 0
-8 84 85 110 0
-8 84 -85 -110 0
-8 -84 85 -110 0
-8 -84 -85 110 0
2 67 -91 0
2 -67 91 0
-2 67 91 0
-2 -67 -91 0
105 181 -232 0
105 -181 232 0
-105 181 232 0
-105 -181 -232 0
18 32 38 85 0
18 32 -38 -85 0
18 -32 38 -85 0
18 -32 -38 85 0
-18 32 38 -85 0
-18 32 -38 85 0
-18 -32 38 85 0
-18 -32 -38 -85 0
95 110 151 217 0
95 110 -151 -217 0
95 -110 151 -217 0
95 -110 -151 217 0
-95 110 151 -217 0
-95 110 -151 217 0
-95 -110 151 217 0
-95 -110 -151 -217 0
25 91 114 -141 0
25 91 -114 141 0
25 -91 114 141 0
25 -91 -114 -141 0
-25 91 114 141 0
-25 91 -114 -141 0
-25 -91 114 -141 0
-25 -91 -114 141 0
103 123 149 169 0
103 123 -149 -169 0
103 -123 149 -169 0
103 -123 -149 169 0
-103 123 149 -169 0
-103 123 -149 169 0
-103 -123 149 169 0
-103 -123 -149 -169 0
12 60 -136 0
12 -60 136 0
-12 60 136 0
-12 -60 -136 0
64 77 82 0
64 -77 -82 0
-64 77 -82 0
-64 -77 82 0
88 181 220 0
88 -181 -220 0
-88 181 -220 0
-88 -181 220 0
142 162 171 230 0
142 162 -171 -230 0
142 -162 171 -230 0
142 -162 -171 230 0
-142 162 171 -230 0
-142 162 -171 230 0
-142 -162 171 230 0
-142 -162 -171 -230 0
19 56 109 -155 0
19 56 -109 155 0
19 -56 109 155 0
19 -56 -109 -155 0
-19 56 109 155 0
-19 56 -109 -155 0
-19 -56 109 -155 0
-19 -56 -109 155 0
101 137 -209 0
101 -137 209 0
-101 137 209 0
-101 -137 -209 0
84 95 142 0
84 -95 -142 0
-84 95 -142 0
-84 -95 142 0
50 72 -215 0
50 -72 215 0
-50 72 215 0
-50 -72 -215 0
16 109 151 178 0
16 109 -151 -178 0
16 -109 151 -178 0
16 -109 -151 178 0
-16 109 151 -178 0
-16 109 -151 178 0
-16 -109 151 178 0
-16 -109 -151 -178 0
26 110 176 -231 0
26 110 -176 231 0
26 -110 176 231 0
26 -110 -176 -231 0
-26 110 176 231 0
-26 110 -176 -231 0
-26 -110 176 -231 0
-26 -110 -176 231 0
10 142 162 -166 0
10 142 -162 166 0
10 -142 162 166 0
10 -142 -162 -166 0
-10 142 162 166 0
-10 142 -162 -166 0
-10 -142 162 -166 0
-10 -142 -162 166 0
206 234 -236 0
206 -234 236 0
-206 234 236 0
-206 -234 -236 0
124 137 -165 0
124 -137 165 0
-124 137 165 0
-124 -137 -165 0
11 139 172 -227 0
11 139 -172 227 0
11 -139 172 227 0
11 -139 -172 -227 0
-11 139 172 227 0
-11 139 -172 -227 0
-11 -139 172 -227 0
-11 -139 -172 227 0
54 55 126 -239 0
54 55 -126 239 0
54 -55 126 239 0
54 -55 -126 -239 0
-54 55 126 239 0
-54 55 -126 -239 0
-54 -55 126 -239 0
-54 -55 -126 239 0
5 91 139 158 0
5 91 -139 -158 0
5 -91 139 -158 0
5 -91 -139 158 0
-5 91 139 -158 0
-5 91 -139 158 0
-5 -91 139 158 0
-5 -91 -139 -158 0
109 133 -238 0
109 -133 238 0
-109 133 238 0
-109 -133 -238 0
35 57 60 0
35 -57 -60 0
-35 57 -60 0
-35 -57 60 0
21 25 142 -198 0
21 25 -142 198 0
21 -25 142 198 0
21 -25 -142 -198 0
-21 25 142 198 0
-21 25 -142 -198 0
-21 -25 142 -198 0
-21 -25 -142 198 0
74 78 156 0
74 -78 -156 0
-74 78 -156 0
-74 -78 156 0
16 35 -171 0
16 -35 171 0
-16 35 171 0
-16 -35 -171 0
63 69 -223 0
63 -69 223 0
-63 69 223 0
-63 -69 -223 0
21 135 201 -233 0
21 135 -201 233 0
21 -135 201 233 0
21 -135 -201 -233 0
-21 135 201 233 0
-21 135 -201 -233 0
-21 -135 201 -233 0
-21 -135 -201 233 0
20 152 224 -238 0
20 152 -224 238 0
20 -152 224 238 0
20 -152 -224 -238 0
-20 152 224 238 0
-20 152 -224 -238 0
-20 -152 224 -238 0
-20 -152 -224 238 0
59 75 127 154 0
59 75 -127 -154 0
59 -75 127 -154 0
59 -75 -127 154 0
-59 75 127 -154 0
-59 75 -127 154 0
-59 -75 127 154 0
-59 -75 -127 -154 0
58 71 -227 0
58 -71 227 0
-58 71 227 0
-58 -71 -227 0
37 117 -213 0
37 -117 213 0
-37 117 213 0
-37 -117 -213 0
48 201 -235 0
48 -201 235 0
-48 201 235 0
-48 -201 -235 0
42 116 189 0
42 -116 -189 0
-42 116 -189 0
-42 -116 189 0
37 64 -182 0
37 -64 182 0
-37 64 182 0
-37 -64 -182 0
55 144 187 0
55 -144 -187 0
-55 144 -187 0
-55 -144 187 0
85 169 215 0
85 -169 -215 0
-85 169 -215 0
-85 -169 215 0
2 24 105 150 0
2 24 -105 -150 0
2 -24 105 -150 0
2 -24 -105 150 0
-2 24 105 -150 0
-2 24 -105 150 0
-2 -24 105 150 0
-2 -24 -105 -150 0
22 96 186 0
22 -96 -186 0
-22 96 -186 0
-22 -96 186 0
51 86 173 -208 0
51 86 -173 208 0
51 -86 173 208 0
51 -86 -173 -208 0
-51 86 173 208 0
-51 86 -173 -208 0
-51 -86 173 -208 0
-51 -86 -173 208 0
20 178 232 234 0
20 178 -232 -234 0
20 -178 232 -234 0
20 -178 -232 234 0
-20 178 232 -234 0
-20 178 -232 234 0
-20 -178 232 234 0
-20 -178 -232 -234 0
36 57 -85 0
36 -57 85 0
-36 57 85 0
-36 -57 -85 0
47 101 -189 0
47 -101 189 0
-47 101 189 0
-47 -101 -189 0
40 80 122 141 0
40 80 -122 -141 0
40 -80 122 -141 0
40 -80 -122 141 0
-40 80 122 -141 0
-40 80 -122 141 0
-40 -80 122 141 0
-40 -80 -122 -141 0
42 105 176 0
42 -105 -176 0
-42 105 -176 0
-42 -105 176 0
168 197 224 -239 0
168 197 -224 239 0
168 -197 224 239 0
168 -197 -224 -239 0
-168 197 224 239 0
-168 197 -224 -239 0
-168 -197 224 -239 0
-168 -197 -224 239 0
39 45 120 155 0
39 45 -120 -155 0
39 -45 120 -155 0
39 -45 -120 155 0
-39 45 120 -155 0
-39 45 -120 155 0
-39 -45 120 155 0
-39 -45 -120 -155 0
164 190 200 232 0
164 190 -200 -232 0
164 -190 200 -232 0
164 -190 -200 232 0
-164 190 200 -232 0
-164 190 -200 232 0
-164 -190 200 232 0
-164 -190 -200 -232 0
26 38 203 -228 0
26 38 -203 228 0
26 -38 203 228 0
26 -38 -203 -228 0
-26 38 203 228 0
-26 38 -203 -228 0
-26 -38 203 -228 0
-26 -38 -203 228 0
74 83 134 0
74 -83 -134 0
-74 83 -134 0
-74 -83 134 0
8 84 215 -224 0
8 84 -215 224 0
8 -84 215 224 0
8 -84 -215 -224 0
-8 84 215 224 0
-8 84 -215 -224 0
-8 -84 215 -224 0
-8 -84 -215 224 0
52 179 218 0
52 -179 -218 0
-52 179 -218 0
-52 -179 218 0
44 159 -178 0
44 -159 178 0
-44 159 178 0
-44 -159 -178 0
33 159 208 -218 0
33 159 -208 218 0
33 -159 208 218 0
33 -159 -208 -218 0
-33 159 208 218 0
-33 159 -208 -218 0
-33 -159 208 -218 0
-33 -159 -208 218 0
6 49 -97 0
6 -49 97 0
-6 49 97 0
-6 -49 -97 0
26 122 226 0
26 -122 -226 0
-26 122 -226 0
-26 -122 226 0
70 138 210 0
70 -138 -210 0
-70 138 -210 0
-70 -138 210 0
11 80 97 164 0
11 80 -97 -164 0
11 -80 97 -164 0
11 -80 -97 164 0
-11 80 97 -164 0
-11 80 -97 164 0
-11 -80 97 164 0
-11 -80 -97 -164 0
8 84 219 0
8 -84 -219 0
-8 84 -219 0
-8 -84 219 0
120 121 155 158 0
120 121 -155 -158 0
120 -121 155 -158 0
120 -121 -155 158 0
-120 121 155 -158 0
-120 121 -155 158 0
-120 -121 155 158 0
-120 -121 -155 -158 0
55 62 100 181 0
55 62 -100 -181 0
55 -62 100 -181 0
55 -62 -100 181 0
-55 62 100 -181 0
-55 62 -100 181 0
-55 -62 100 181 0
-55 -62 -100 -181 0
19 35 51 86 0
19 35 -51 -86 0
19 -35 51 -86 0
19 -35 -51 86 0
-19 35 51 -86 0
-19 35 -51 86 0
-19 -35 51 86 0
-19 -35 -51 -86 0
43 90 127 -192 0
43 90 -127 192 0
43 -90 127 192 0
43 -90 -127 -192 0
-43 90 127 192 0
-43 90 -127 -192 0
-43 -90 127 -192 0
-43 -90 -127 192 0
26 31 80 -156 0
26 31 -80 156 0
26 -31 80 156 0
26 -31 -80 -156 0
-26 31 80 156 0
-26 31 -80 -156 0
-26 -31 80 -156 0
-26 -31 -80 156 0
112 153 169 216 0
112 153 -169 -216 0
112 -153 169 -216 0
112 -153 -169 216 0
-112 153 169 -216 0
-112 153 -169 216 0
-112 -153 169 216 0
-112 -153 -169 -216 0
68 172 201 -203 0
68 172 -201 203 0
68 -172 201 203 0
68 -172 -201 -203 0
-68 172 201 203 0
-68 172 -201 -203 0
-68 -172 201 -203 0
-68 -172 -201 203 0
89 162 171 -212 0
89 162 -171 212 0
89 -162 171 212 0
89 -162 -171 -212 0
-89 162 171 212 0
-89 162 -171 -212 0
-89 -162 171 -212 0
-89 -162 -171 212 0
167 211 -217 0
167 -211 217 0
-167 211 217 0
-167 -211 -217 0
54 57 138 -200 0
54 57 -138 200 0
54 -57 138 200 0
54 -57 -138 -200 0
-54 57 138 200 0
-54 57 -138 -200 0
-54 -57 138 -200 0
-54 -57 -138 200 0
3 68 129 176 0
3 68 -129 -176 0
3 -68 129 -176 0
3 -68 -129 176 0
-3 68 129 -176 0
-3 68 -129 176 0
-3 -68 129 176 0
-3 -68 -129 -176 0
26 94 101 109 0
26 94 -101 -109 0
26 -94 101 -109 0
26 -94 -101 109 0
-26 94 101 -109 0
-26 94 -101 109 0
-26 -94 101 109 0
-26 -94 -101 -109 0
78 168 186 -225 0
78 168 -186 225 0
78 -168 186 225 0
78 -168 -186 -225 0
-78 168 186 225 0
-78 168 -186 -225 0
-78 -168 186 -225 0
-78 -168 -186 225 0
180 205 -212 0
180 -205 212 0
-180 205 212 0
-180 -205 -212 0
25 30 155 166 0
25 30 -155 -166 0
25 -30 155 -166 0
25 -30 -155 166 0
-25 30 155 -166 0
-25 30 -155 166 0
-25 -30 155 166 0
-25 -30 -155 -166 0
55 66 -95 0
55 -66 95 0
-55 66 95 0
-55 -66 -95 0
16 68 211 -217 0
16 68 -211 217 0
16 -68 211 217 0
16 -68 -211 -217 0
-16 68 211 217 0
-16 68 -211 -217 0
-16 -68 211 -217 0
-16 -68 -211 217 0
62 139 153 0
62 -139 -153 0
-62 139 -153 0
-62 -139 153 0
11 12 166 185 0
11 12 -166 -185 0
11 -12 166 -185 0
11 -12 -166 185 0
-11 12 166 -185 0
-11 12 -166 185 0
-11 -12 166 185 0
-11 -12 -166 -185 0
79 161 -207 0
79 -161 207 0
-79 161 207 0
-79 -161 -207 0
21 107 156 -201 0
21 107 -156 201 0
21 -107 156 201 0
21 -107 -156 -201 0
-21 107 156 201 0
-21 107 -156 -201 0
-21 -107 156 -201 0
-21 -107 -156 201 0
95 98 -180 0
95 -98 180 0
-95 98 180 0
-95 -98 -180 0
44 102 -238 0
44 -102 238 0
-44 102 238 0
-44 -102 -238 0
3 108 -176 0
3 -108 176 0
-3 108 176 0
-3 -108 -176 0
6 59 238 0
6 -59 -238 0
-6 59 -238 0
-6 -59 238 0
47 54 -137 0
47 -54 137 0
-47 54 137 0
-47 -54 -137 0
4 14 116 214 0
4 14 -116 -214 0
4 -14 116 -214 0
4 -14 -116 214 0
-4 14 116 -214 0
-4 14 -116 214 0
-4 -14 116 214 0
-4 -14 -116 -214 0
64 66 218 235 0
64 66 -218 -235 0
64 -66 218 -235 0
64 -66 -218 235 0
-64 66 218 -235 0
-64 66 -218 235 0
-64 -66 218 235 0
-64 -66 -218 -235 0
65 77 102 139 0
65 77 -102 -139 0
65 -77 102 -139 0
65 -77 -102 139 0
-65 77 102 -139 0
-65 77 -102 139 0
-65 -77 102 139 0
-65 -77 -102 -139 0
14 42 68 224 0
14 42 -68 -224 0
14 -42 68 -224 0
14 -42 -68 224 0
-14 42 68 -224 0
-14 42 -68 224 0
-14 -42 68 224 0
-14 -42 -68 -224 0
22 80 174 0
22 -80 -174 0
-22 80 -174 0
-22 -80 174 0
152 180 -239 0
152 -180 239 0
-152 180 239 0
-152 -180 -239 0
72 131 172 -204 0
72 131 -172 204 0
72 -131 172 204 0
72 -131 -172 -204 0
-72 131 172 204 0
-72 131 -172 -204 0
-72 -131 172 -204 0
-72 -131 -172 204 0
13 36 -187 0
13 -36 187 0
-13 36 187 0
-13 -36 -187 0
41 118 151 -176 0
41 118 -151 176 0
41 -118 151 176 0
41 -118 -151 -176 0
-41 118 151 176 0
-41 118 -151 -176 0
-41 -118 151 -176 0
-41 -118 -151 176 0
32 113 149 -169 0
32 113 -149 169 0
32 -113 149 169 0
32 -113 -149 -169 0
-32 113 149 169 0
-32 113 -149 -169 0
-32 -113 149 -169 0
-32 -113 -149 169 0
102 203 235 0
102 -203 -235 0
-102 203 -235 0
-102 -203 235 0
7 112 129 -157 0
7 112 -129 157 0
7 -112 129 157 0
7 -112 -129 -157 0
-7 112 129 157 0
-7 112 -129 -157 0
-7 -112 129 -157 0
-7 -112 -129 157 0
113 206 -228 0
113 -206 228 0
-113 206 228 0
-113 -206 -228 0
50 133 177 0
50 -133 -177 0
-50 133 -177 0
-50 -133 177 0
124 146 147 0
124 -146 -147 0
-124 146 -147 0
-124 -146 147 0
89 98 101 0
89 -98 -101 0
-89 98 -101 0
-89 -98 101 0
75 192 214 -228 0
75 192 -214 228 0
75 -192 214 228 0
75 -192 -214 -228 0
-75 192 214 228 0
-75 192 -214 -228 0
-75 -192 214 -228 0
-75 -192 -214 228 0
114 129 170 0
114 -129 -170 0
-114 129 -170 0
-114 -129 170 0
64 189 227 0
64 -189 -227 0
-64 189 -227 0
-64 -189 227 0
2 57 198 -226 0
2 57 -198 226 0
2 -57 198 226 0
2 -57 -198 -226 0
-2 57 198 226 0
-2 57 -198 -226 0
-2 -57 198 -226 0
-2 -57 -198 226 0
62 210 -214 0
62 -210 214 0
-62 210 214 0
-62 -210 -214 0
121 183 201 0
121 -183 -201 0
-121 183 -201 0
-121 -183 201 0
42 64 191 -215 0
42 64 -191 215 0
42 -64 191 215 0
42 -64 -191 -215 0
-42 64 191 215 0
-42 64 -191 -215 0
-42 -64 191 -215 0
-42 -64 -191 215 0
35 91 163 -228 0
35 91 -163 228 0
35 -91 163 228 0
35 -91 -163 -228 0
-35 91 163 228 0
-35 91 -163 -228 0
-35 -91 163 -228 0
-35 -91 -163 228 0
39 134 153 -194 0
39 134 -153 194 0
39 -134 153 194 0
39 -134 -153 -194 0
-39 134 153 194 0
-39 134 -153 -194 0
-39 -134 153 -194 0
-39 -134 -153 194 0
26 120 135 210 0
26 120 -135 -210 0
26 -120 135 -210 0
26 -120 -135 210 0
-26 120 135 -210 0
-26 120 -135 210 0
-26 -120 135 210 0
-26 -120 -135 -210 0
15 176 -204 0
15 -176 204 0
-15 176 204 0
-15 -176 -204 0
97 123 -136 0
97 -123 136 0
-97 123 136 0
-97 -123 -136 0
41 155 -159 0
41 -155 159 0
-41 155 159 0
-41 -155 -159 0
46 62 187 -194 0
46 62 -187 194 0
46 -62 187 194 0
46 -62 -187 -194 0
-46 62 187 194 0
-46 62 -187 -194 0
-46 -62 187 -194 0
-46 -62 -187 194 0
16 47 -194 0
16 -47 194 0
-16 47 194 0
-16 -47 -194 0
12 140 173 219 0
12 140 -173 -219 0
12 -140 173 -219 0
12 -140 -173 219 0
-12 140 173 -219 0
-12 140 -173 219 0
-12 -140 173 219 0
-12 -140 -173 -219 0
24 30 101 125 0
24 30 -101 -125 0
24 -30 101 -125 0
24 -30 -101 125 0
-24 30 101 -125 0
-24 30 -101 125 0
-24 -30 101 125 0
-24 -30 -101 -125 0
10 25 133 -186 0
10 25 -133 186 0
10 -25 133 186 0
10 -25 -133 -186 0
-10 25 133 186 0
-10 25 -133 -186 0
-10 -25 133 -186 0
-10 -25 -133 186 0
26 30 153 -214 0
26 30 -153 214 0
26 -30 153 214 0
26 -30 -153 -214 0
-26 30 153 214 0
-26 30 -153 -214 0
-26 -30 153 -214 0
-26 -30 -153 214 0
103 178 198 0
103 -178 -198 0
-103 178 -198 0
-103 -178 198 0
87 118 162 -179 0
87 118 -162 179 0
87 -118 162 179 0
87 -118 -162 -179 0
-87 118 162 179 0
-87 118 -162 -179 0
-87 -118 162 -179 0
-87 -118 -162 179 0
79 162 194 0
79 -162 -194 0
-79 162 -194 0
-79 -162 194 0
37 49 111 185 0
37 49 -111 -185 0
37 -49 111 -185 0
37 -49 -111 185 0
-37 49 111 -185 0
-37 49 -111 185 0
-37 -49 111 185 0
-37 -49 -111 -185 0
68 71 204 0
68 -71 -204 0
-68 71 -204 0
-68 -71 204 0
8 136 188 -195 0
8 136 -188 195 0
8 -136 188 195 0
8 -136 -188 -195 0
-8 136 188 195 0
-8 136 -188 -195 0
-8 -136 188 -195 0
-8 -136 -188 195 0
25 49 231 0
25 -49 -231 0
-25 49 -231 0
-25 -49 231 0
49 180 -183 0
49 -180 183 0
-49 180 183 0
-49 -180 -183 0
27 83 -130 0
27 -83 130 0
-27 83 130 0
-27 -83 -130 0
53 203 208 0
53 -203 -208 0
-53 203 -208 0
-53 -203 208 0
28 32 -45 0
28 -32 45 0
-28 32 45 0
-28 -32 -45 0
13 121 168 -190 0
13 121 -168 190 0
13 -121 168 190 0
13 -121 -168 -190 0
-13 121 168 190 0
-13 121 -168 -190 0
-13 -121 168 -190 0
-13 -121 -168 190 0
54 81 -218 0
54 -81 218 0
-54 81 218 0
-54 -81 -218 0
8 105 129 139 0
8 105 -129 -139 0
8 -105 129 -139 0
8 -105 -129 139 0
-8 105 129 -139 0
-8 105 -129 139 0
-8 -105 129 139 0
-8 -105 -129 -139 0
29 141 205 0
29 -141 -205 0
-29 141 -205 0
-29 -141 205 0
11 50 236 0
11 -50 -236 0
-11 50 -236 0
-11 -50 236 0
11 70 -149 0
11 -70 149 0
-11 70 149 0
-11 -70 -149 0
71 135 149 232 0
71 135 -149 -232 0
71 -135 149 -232 0
71 -135 -149 232 0
-71 135 149 -232 0
-71 135 -149 232 0
-71 -135 149 232 0
-71 -135 -149 -232 0
103 157 167 0
103 -157 -167 0
-103 157 -167 0
-103 -157 167 0
21 182 -198 0
21 -182 198 0
-21 182 198 0
-21 -182 -198 0
1 76 201 0
1 -76 -201 0
-1 76 -201 0
-1 -76 201 0
55 72 89 211 0
55 72 -89 -211 0
55 -72 89 -211 0
55 -72 -89 211 0
-55 72 89 -211 0
-55 72 -89 211 0
-55 -72 89 211 0
-55 -72 -89 -211 0
50 53 85 -227 0
50 53 -85 227 0
50 -53 85 227 0
50 -53 -85 -227 0
-50 53 85 227 0
-50 53 -85 -227 0
-50 -53 85 -227 0
-50 -53 -85 227 0
113 154 161 228 0
113 154 -161 -228 0
113 -154 161 -228 0
113 -154 -161 228 0
-113 154 161 -228 0
-113 154 -161 228 0
-113 -154 161 228 0
-113 -154 -161 -228 0
129 132 -172 0
129 -132 172 0
-129 132 172 0
-129 -132 -172 0
125 155 160 -216 0
125 155 -160 216 0
125 -155 160 216 0
125 -155 -160 -216 0
-125 155 160 216 0
-125 155 -160 -216 0
-125 -155 160 -216 0
-125 -155 -160 216 0
23 106 119 199 0
23 106 -119 -199 0
23 -106 119 -199 0
23 -106 -119 199 0
-23 106 119 -199 0
-23 106 -119 199 0
-23 -106 119 199 0
-23 -106 -119 -199 0
52 83 136 -215 0
52 83 -136 215 0
52 -83 136 215 0
52 -83 -136 -215 0
-52 83 136 215 0
-52 83 -136 -215 0
-52 -83 136 -215 0
-52 -83 -136 215 0
12 156 -195 0
12 -156 195 0
-12 156 195 0
-12 -156 -195 0
30 58 73 -94 0
30 58 -73 94 0
30 -58 73 94 0
30 -58 -73 -94 0
-30 58 73 94 0
-30 58 -73 -94 0
-30 -58 73 -94 0
-30 -58 -73 94 0
38 108 128 214 0
38 108 -128 -214 0
38 -108 128 -214 0
38 -108 -128 214 0
-38 108 128 -214 0
-38 108 -128 214 0
-38 -108 128 214 0
-38 -108 -128 -214 0
40 74 171 194 0
40 74 -171 -194 0
40 -74 171 -194 0
40 -74 -171 194 0
-40 74 171 -194 0
-40 74 -171 194 0
-40 -74 171 194 0
-40 -74 -171 -194 0
113 146 172 173 0
113 146 -172 -173 0
113 -146 172 -173 0
113 -146 -172 173 0
-113 146 172 -173 0
-113 146 -172 173 0
-113 -146 172 173 0
-113 -146 -172 -173 0
60 81 149 -152 0
60 81 -149 152 0
60 -81 149 152 0
60 -81 -149 -152 0
-60 81 149 152 0
-60 81 -149 -152 0
-60 -81 149 -152 0
-60 -81 -149 152 0
8 87 195 0
8 -87 -195 0
-8 87 -195 0
-8 -87 195 0
44 130 173 216 0
44 130 -173 -216 0
44 -130 173 -216 0
44 -130 -173 216 0
-44 130 173 -216 0
-44 130 -173 216 0
-44 -130 173 216 0
-44 -130 -173 -216 0
5 43 -122 0
5 -43 122 0
-5 43 122 0
-5 -43 -122 0
11 85 -200 0
11 -85 200 0
-11 85 200 0
-11 -85 -200 0
3 4 59 -160 0
3 4 -59 160 0
3 -4 59 160 0
3 -4 -59 -160 0
-3 4 59 160 0
-3 4 -59 -160 0
-3 -4 59 -160 0
-3 -4 -59 160 0
130 139 150 -210 0
130 139 -150 210 0
130 -139 150 210 0
130 -139 -150 -210 0
-130 139 150 210 0
-130 139 -150 -210 0
-130 -139 150 -210 0
-130 -139 -150 210 0
8 87 -233 0
8 -87 233 0
-8 87 233 0
-8 -87 -233 0
66 186 218 0
66 -186 -218 0
-66 186 -218 0
-66 -186 218 0
36 169 234 0
36 -169 -234 0
-36 169 -234 0
-36 -169 234 0
33 153 192 0
33 -153 -192 0
-33 153 -192 0
-33 -153 192 0
23 27 76 -133 0
23 27 -76 133 0
23 -27 76 133 0
23 -27 -76 -133 0
-23 27 76 133 0
-23 27 -76 -133 0
-23 -27 76 -133 0
-23 -27 -76 133 0
1 28 109 -113 0
1 28 -109 113 0
1 -28 109 113 0
1 -28 -109 -113 0
-1 28 109 113 0
-1 28 -109 -113 0
-1 -28 109 -113 0
-1 -28 -109 113 0
43 117 122 171 0
43 117 -122 -171 0
43 -117 122 -171 0
43 -117 -122 171 0
-43 117 122 -171 0
-43 117 -122 171 0
-43 -117 122 171 0
-43 -117 -122 -171 0
34 124 157 0
34 -124 -157 0
-34 124 -157 0
-34 -124 157 0
11 42 94 -213 0
11 42 -94 213 0
11 -42 94 213 0
11 -42 -94 -213 0
-11 42 94 213 0
-11 42 -94 -213 0
-11 -42 94 -213 0
-11 -42 -94 213 0
25 45 -161 0
25 -45 161 0
-25 45 161 0
-25 -45 -161 0
33 87 170 233 0
33 87 -170 -233 0
33 -87 170 -233 0
33 -87 -170 233 0
-33 87 170 -233 0
-33 87 -170 233 0
-33 -87 170 233 0
-33 -87 -170 -233 0
67 105 191 -228 0
67 105 -191 228 0
67 -105 191 228 0
67 -105 -191 -228 0
-67 105 191 228 0
-67 105 -191 -228 0
-67 -105 191 -228 0
-67 -105 -191 228 0
40 148 183 0
40 -148 -183 0
-40 148 -183 0
-40 -148 183 0
9 14 -28 0
9 -14 28 0
-9 14 28 0
-9 -14 -28 0
99 130 171 0
99 -130 -171 0
-99 130 -171 0
-99 -130 171 0
45 171 221 0
45 -171 -221 0
-45 171 -221 0
-45 -171 221 0
50 95 184 -187 0
50 95 -184 187 0
50 -95 184 187 0
50 -95 -184 -187 0
-50 95 184 187 0
-50 95 -184 -187 0
-50 -95 184 -187 0
-50 -95 -184 187 0
214 237 240 0
214 -237 -240 0
-214 237 -240 0
-214 -237 240 0
18 115 196 226 0
18 115 -196 -226 0
18 -115 196 -226 0
18 -115 -196 226 0
-18 115 196 -226 0
-18 115 -196 226 0
-18 -115 196 226 0
-18 -115 -196 -226 0
50 63 196 0
50 -63 -196 0
-50 63 -196 0
-50 -63 196 0
44 157 -180 0
44 -157 180 0
-44 157 180 0
-44 -157 -180 0
33 132 186 198 0
33 132 -186 -198 0
33 -132 186 -198 0
33 -132 -186 198 0
-33 132 186 -198 0
-33 132 -186 198 0
-33 -132 186 198 0
-33 -132 -186 -198 0
20 52 194 209 0
20 52 -194 -209 0
20 -52 194 -209 0
20 -52 -194 209 0
-20 52 194 -209 0
-20 52 -194 209 0
-20 -52 194 209 0
-20 -52 -194 -209 0
122 134 196 227 0
122 134 -196 -227 0
122 -134 196 -227 0
122 -134 -196 227 0
-122 134 196 -227 0
-122 134 -196 227 0
-122 -134 196 227 0
-122 -134 -196 -227 0
83 128 171 -212 0
83 128 -171 212 0
83 -128 171 212 0
83 -128 -171 -212 0
-83 128 171 212 0
-83 128 -171 -212 0
-83 -128 171 -212 0
-83 -128 -171 212 0
36 52 107 0
36 -52 -107 0
-36 52 -107 0
-36 -52 107 0
36 143 -182 0
36 -143 182 0
-36 143 182 0
-36 -143 -182 0
150 178 -218 0
150 -178 218 0
-150 178 218 0
-150 -178 -218 0
51 121 189 215 0
51 121 -189 -215 0
51 -121 189 -215 0
51 -121 -189 215 0
-51 121 189 -215 0
-51 121 -189 215 0
-51 -121 189 215 0
-51 -121 -189 -215 0
40 62 107 207 0
40 62 -107 -207 0
40 -62 107 -207 0
40 -62 -107 207 0
-40 62 107 -207 0
-40 62 -107 207 0
-40 -62 107 207 0
-40 -62 -107 -207 0
22 92 142 -232 0
22 92 -142 232 0
22 -92 142 232 0
22 -92 -142 -232 0
-22 92 142 232 0
-22 92 -142 -232 0
-22 -92 142 -232 0
-22 -92 -142 232 0
88 206 215 0
88 -206 -215 0
-88 206 -215 0
-88 -206 215 0
35 138 184 219 0
35 138 -184 -219 0
35 -138 184 -219 0
35 -138 -184 219 0
-35 138 184 -219 0
-35 138 -184 219 0
-35 -138 184 219 0
-35 -138 -184 -219 0
48 141 218 219 0
48 141 -218 -219 0
48 -141 218 -219 0
48 -141 -218 219 0
-48 141 218 -219 0
-48 141 -218 219 0
-48 -141 218 219 0
-48 -141 -218 -219 0
25 115 152 0
25 -115 -152 0
-25 115 -152 0
-25 -115 152 0
127 180 -219 0
127 -180 219 0
-127 180 219 0
-127 -180 -219 0
90 115 156 0
90 -115 -156 0
-90 115 -156 0
-90 -115 156 0
14 26 37 143 0
14 26 -37 -143 0
14 -26 37 -143 0
14 -26 -37 143 0
-14 26 37 -143 0
-14 26 -37 143 0
-14 -26 37 143 0
-14 -26 -37 -143 0
41 60 114 186 0
41 60 -114 -186 0
41 -60 114 -186 0
41 -60 -114 186 0
-41 60 114 -186 0
-41 60 -114 186 0
-41 -60 114 186 0
-41 -60 -114 -186 0
1 51 -237 0
1 -51 237 0
-1 51 237 0
-1 -51 -237 0
72 118 140 -195 0
72 118 -140 195 0
72 -118 140 195 0
72 -118 -140 -195 0
-72 118 140 195 0
-72 118 -140 -195 0
-72 -118 140 -195 0
-72 -118 -140 195 0
16 134 165 -205 0
16 134 -165 205 0
16 -134 165 205 0
16 -134 -165 -205 0
-16 134 165 205 0
-16 134 -165 -205 0
-16 -134 165 -205 0
-16 -134 -165 205 0
56 150 -203 0
56 -150 203 0
-56 150 203 0
-56 -150 -203 0
76 168 -231 0
76 -168 231 0
-76 168 231 0
-76 -168 -231 0
35 44 -156 0
35 -44 156 0
-35 44 156 0
-35 -44 -156 0
52 92 95 -193 0
52 92 -95 193 0
52 -92 95 193 0
52 -92 -95 -193 0
-52 92 95 193 0
-52 92 -95 -193 0
-52 -92 95 -193 0
-52 -92 -95 193 0
123 142 157 -158 0
123 142 -157 158 0
123 -142 157 158 0
123 -142 -157 -158 0
-123 142 157 158 0
-123 142 -157 -158 0
-123 -142 157 -158 0
-123 -142 -157 158 0
105 177 232 0
105 -177 -232 0
-105 177 -232 0
-105 -177 232 0
1 158 -193 0
1 -158 193 0
-1 158 193 0
-1 -158 -193 0
170 187 229 0
170 -187 -229 0
-170 187 -229 0
-170 -187 229 0
67 197 218 237 0
67 197 -218 -237 0
67 -197 218 -237 0
67 -197 -218 237 0
-67 197 218 -237 0
-67 197 -218 237 0
-67 -197 218 237 0
-67 -197 -218 -237 0
17 131 -238 0
17 -131 238 0
-17 131 238 0
-17 -131 -238 0
26 57 133 0
26 -57 -133 0
-26 57 -133 0
-26 -57 133 0
26 66 86 -136 0
26 66 -86 136 0
26 -66 86 136 0
26 -66 -86 -136 0
-26 66 86 136 0
-26 66 -86 -136 0
-26 -66 86 -136 0
-26 -66 -86 136 0
14 120 182 230 0
14 120 -182 -230 0
14 -120 182 -230 0
14 -120 -182 230 0
-14 120 182 -230 0
-14 120 -182 230 0
-14 -120 182 230 0
-14 -120 -182 -230 0
21 70 108 -184 0
21 70 -108 184 0
21 -70 108 184 0
21 -70 -108 -184 0
-21 70 108 184 0
-21 70 -108 -184 0
-21 -70 108 -184 0
-21 -70 -108 184 0
29 95 156 -175 0
29 95 -156 175 0
29 -95 156 175 0
29 -95 -156 -175 0
-29 95 156 175 0
-29 95 -156 -175 0
-29 -95 156 -175 0
-29 -95 -156 175 0
97 132 167 224 0
97 132 -167 -224 0
97 -132 167 -224 0
97 -132 -167 224 0
-97 132 167 -224 0
-97 132 -167 224 0
-97 -132 167 224 0
-97 -132 -167 -224 0
24 87 -172 0
24 -87 172 0
-24 87 172 0
-24 -87 -172 0
8 60 -238 0
8 -60 238 0
-8 60 238 0
-8 -60 -238 0
152 155 -181 0
152 -155 181 0
-152 155 181 0
-152 -155 -181 0
138 156 197 235 0
138 156 -197 -235 0
138 -156 197 -235 0
138 -156 -197 235 0
-138 156 197 -235 0
-138 156 -197 235 0
-138 -156 197 235 0
-138 -156 -197 -235 0
19 23 164 0
19 -23 -164 0
-19 23 -164 0
-19 -23 164 0
10 101 191 -217 0
10 101 -191 217 0
10 -101 191 217 0
10 -101 -191 -217 0
-10 101 191 217 0
-10 101 -191 -217 0
-10 -101 191 -217 0
-10 -101 -191 217 0
27 92 -239 0
27 -92 239 0
-27 92 239 0
-27 -92 -239 0
83 106 151 0
83 -106 -151 0
-83 106 -151 0
-83 -106 151 0
37 48 84 125 0
37 48 -84 -125 0
37 -48 84 -125 0
37 -48 -84 125 0
-37 48 84 -125 0
-37 48 -84 125 0
-37 -48 84 125 0
-37 -48 -84 -125 0
2 65 -170 0
2 -65 170 0
-2 65 170 0
-2 -65 -170 0
72 162 211 223 0
72 162 -211 -223 0
72 -162 211 -223 0
72 -162 -211 223 0
-72 162 211 -223 0
-72 162 -211 223 0
-72 -162 211 223 0
-72 -162 -211 -223 0
8 66 -192 0
8 -66 192 0
-8 66 192 0
-8 -66 -192 0
57 169 198 -208 0
57 169 -198 208 0
57 -169 198 208 0
57 -169 -198 -208 0
-57 169 198 208 0
-57 169 -198 -208 0
-57 -169 198 -208 0
-57 -169 -198 208 0
63 154 -221 0
63 -154 221 0
-63 154 221 0
-63 -154 -221 0
68 94 104 -228 0
68 94 -104 228 0
68 -94 104 228 0
68 -94 -104 -228 0
-68 94 104 228 0
-68 94 -104 -228 0
-68 -94 104 -228 0
-68 -94 -104 228 0
143 154 187 232 0
143 154 -187 -232 0
143 -154 187 -232 0
143 -154 -187 232 0
-143 154 187 -232 0
-143 154 -187 232 0
-143 -154 187 232 0
-143 -154 -187 -232 0
20 90 -232 0
20 -90 232 0
-20 90 232 0
-20 -90 -232 0
28 46 59 147 0
28 46 -59 -147 0
28 -46 59 -147 0
28 -46 -59 147 0
-28 46 59 -147 0
-28 46 -59 147 0
-28 -46 59 147 0
-28 -46 -59 -147 0
13 16 18 -48 0
13 16 -18 48 0
13 -16 18 48 0
13 -16 -18 -48 0
-13 16 18 48 0
-13 16 -18 -48 0
-13 -16 18 -48 0
-13 -16 -18 48 0
75 85 148 -232 0
75 85 -148 232 0
75 -85 148 232 0
75 -85 -148 -232 0
-75 85 148 232 0
-75 85 -148 -232 0
-75 -85 148 -232 0
-75 -85 -148 232 0
1 40 138 188 0
1 40 -138 -188 0
1 -40 138 -188 0
1 -40 -138 188 0
-1 40 138 -188 0
-1 40 -138 188 0
-1 -40 138 188 0
-1 -40 -138 -188 0
106 133 -164 0
106 -133 164 0
-106 133 164 0
-106 -133 -164 0
28 30 233 0
28 -30 -233 0
-28 30 -233 0
-28 -30 233 0
147 195 225 0
147 -195 -225 0
-147 195 -225 0
-147 -195 225 0
79 116 199 226 0
79 116 -199 -226 0
79 -116 199 -226 0
79 -116 -199 226 0
-79 116 199 -226 0
-79 116 -199 226 0
-79 -116 199 226 0
-79 -116 -199 -226 0
120 167 174 200 0
120 167 -174 -200 0
120 -167 174 -200 0
120 -167 -174 200 0
-120 167 174 -200 0
-120 167 -174 200 0
-120 -167 174 200 0
-120 -167 -174 -200 0
112 174 -203 0
112 -174 203 0
-112 174 203 0
-112 -174 -203 0
15 141 -205 0
15 -141 205 0
-15 141 205 0
-15 -141 -205 0
35 40 72 115 0
35 40 -72 -115 0
35 -40 72 -115 0
35 -40 -72 115 0
-35 40 72 -115 0
-35 40 -72 115 0
-35 -40 72 115 0
-35 -40 -72 -115 0
111 120 -184 0
111 -120 184 0
-111 120 184 0
-111 -120 -184 0
3 9 21 -28 0
3 9 -21 28 0
3 -9 21 28 0
3 -9 -21 -28 0
-3 9 21 28 0
-3 9 -21 -28 0
-3 -9 21 -28 0
-3 -9 -21 28 0
81 116 168 237 0
81 116 -168 -237 0
81 -116 168 -237 0
81 -116 -168 237 0
-81 116 168 -237 0
-81 116 -168 237 0
-81 -116 168 237 0
-81 -116 -168 -237 0
8 12 130 -182 0
8 12 -130 182 0
8 -12 130 182 0
8 -12 -130 -182 0
-8 12 130 182 0
-8 12 -130 -182 0
-8 -12 130 -182 0
-8 -12 -130 182 0
15 75 113 -158 0
15 75 -113 158 0
15 -75 113 158 0
15 -75 -113 -158 0
-15 75 113 158 0
-15 75 -113 -158 0
-15 -75 113 -158 0
-15 -75 -113 158 0
40 50 70 96 0
40 50 -70 -96 0
40 -50 70 -96 0
40 -50 -70 96 0
-40 50 70 -96 0
-40 50 -70 96 0
-40 -50 70 96 0
-40 -50 -70 -96 0
135 151 -163 0
135 -151 163 0
-135 151 163 0
-135 -151 -163 0
202 207 -229 0
202 -207 229 0
-202 207 229 0
-202 -207 -229 0
14 150 233 0
14 -150 -233 0
-14 150 -233 0
-14 -150 233 0
62 132 157 185 0
62 132 -157 -185 0
62 -132 157 -185 0
62 -132 -157 185 0
-62 132 157 -185 0
-62 132 -157 185 0
-62 -132 157 185 0
-62 -132 -157 -185 0
21 43 75 142 0
21 43 -75 -142 0
21 -43 75 -142 0
21 -43 -75 142 0
-21 43 75 -142 0
-21 43 -75 142 0
-21 -43 75 142 0
-21 -43 -75 -142 0
184 220 -223 0
184 -220 223 0
-184 220 223 0
-184 -220 -223 0
60 159 236 0
60 -159 -236 0
-60 159 -236 0
-60 -159 236 0
55 69 177 189 0
55 69 -177 -189 0
55 -69 177 -189 0
55 -69 -177 189 0
-55 69 177 -189 0
-55 69 -177 189 0
-55 -69 177 189 0
-55 -69 -177 -189 0
70 123 129 152 0
70 123 -129 -152 0
70 -123 129 -152 0
70 -123 -129 152 0
-70 123 129 -152 0
-70 123 -129 152 0
-70 -123 129 152 0
-70 -123 -129 -152 0
25 54 76 -214 0
25 54 -76 214 0
25 -54 76 214 0
25 -54 -76 -214 0
-25 54 76 214 0
-25 54 -76 -214 0
-25 -54 76 -214 0
-25 -54 -76 214 0
53 72 233 0
53 -72 -233 0
-53 72 -233 0
-53 -72 233 0
57 158 228 0
57 -158 -228 0
-57 158 -228 0
-57 -158 228 0
93 158 210 216 0
93 158 -210 -216 0
93 -158 210 -216 0
93 -158 -210 216 0
-93 158 210 -216 0
-93 158 -210 216 0
-93 -158 210 216 0
-93 -158 -210 -216 0
179 183 225 0
179 -183 -225 0
-179 183 -225 0
-179 -183 225 0
5 18 117 118 0
5 18 -117 -118 0
5 -18 117 -118 0
5 -18 -117 118 0
-5 18 117 -118 0
-5 18 -117 118 0
-5 -18 117 118 0
-5 -18 -117 -118 0
9 66 124 -166 0
9 66 -124 166 0
9 -66 124 166 0
9 -66 -124 -166 0
-9 66 124 166 0
-9 66 -124 -166 0
-9 -66 124 -166 0
-9 -66 -124 166 0
110 116 150 0
110 -116 -150 0
-110 116 -150 0
-110 -116 150 0
47 73 220 229 0
47 73 -220 -229 0
47 -73 220 -229 0
47 -73 -220 229 0
-47 73 220 -229 0
-47 73 -220 229 0
-47 -73 220 229 0
-47 -73 -220 -229 0
68 132 158 167 0
68 132 -158 -167 0
68 -132 158 -167 0
68 -132 -158 167 0
-68 132 158 -167 0
-68 132 -158 167 0
-68 -132 158 167 0
-68 -132 -158 -167 0
8 94 -173 0
8 -94 173 0
-8 94 173 0
-8 -94 -173 0
25 68 113 168 0
25 68 -113 -168 0
25 -68 113 -168 0
25 -68 -113 168 0
-25 68 113 -168 0
-25 68 -113 168 0
-25 -68 113 168 0
-25 -68 -113 -168 0
62 129 195 0
62 -129 -195 0
-62 129 -195 0
-62 -129 195 0
7 55 108 0
7 -55 -108 0
-7 55 -108 0
-7 -55 108 0
108 164 -175 0
108 -164 175 0
-108 164 175 0
-108 -164 -175 0
83 102 145 162 0
83 102 -145 -162 0
83 -102 145 -162 0
83 -102 -145 162 0
-83 102 145 -162 0
-83 102 -145 162 0
-83 -102 145 162 0
-83 -102 -145 -162 0
72 138 -210 0
72 -138 210 0
-72 138 210 0
-72 -138 -210 0
126 174 177 -179 0
126 174 -177 179 0
126 -174 177 179 0
126 -174 -177 -179 0
-126 174 177 179 0
-126 174 -177 -179 0
-126 -174 177 -179 0
-126 -174 -177 179 0
15 124 -162 0
15 -124 162 0
-15 124 162 0
-15 -124 -162 0
52 84 105 0
52 -84 -105 0
-52 84 -105 0
-52 -84 105 0
34 123 164 -196 0
34 123 -164 196 0
34 -123 164 196 0
34 -123 -164 -196 0
-34 123 164 196 0
-34 123 -164 -196 0
-34 -123 164 -196 0
-34 -123 -164 196 0
28 228 239 0
28 -228 -239 0
-28 228 -239 0
-28 -228 239 0
26 192 231 0
26 -192 -231 0
-26 192 -231 0
-26 -192 231 0
56 64 73 0
56 -64 -73 0
-56 64 -73 0
-56 -64 73 0
118 127 225 0
118 -127 -225 0
-118 127 -225 0
-118 -127 225 0
95 163 -187 0
95 -163 187 0
-95 163 187 0
-95 -163 -187 0
78 96 -115 0
78 -96 115 0
-78 96 115 0
-78 -96 -115 0
26 40 127 -225 0
26 40 -127 225 0
26 -40 127 225 0
26 -40 -127 -225 0
-26 40 127 225 0
-26 40 -127 -225 0
-26 -40 127 -225 0
-26 -40 -127 225 0
6 77 141 218 0
6 77 -141 -218 0
6 -77 141 -218 0
6 -77 -141 218 0
-6 77 141 -218 0
-6 77 -141 218 0
-6 -77 141 218 0
-6 -77 -141 -218 0
50 133 210 -229 0
50 133 -210 229 0
50 -133 210 229 0
50 -133 -210 -229 0
-50 133 210 229 0
-50 133 -210 -229 0
-50 -133 210 -229 0
-50 -133 -210 229 0
15 84 155 175 0
15 84 -155 -175 0
15 -84 155 -175 0
15 -84 -155 175 0
-15 84 155 -175 0
-15 84 -155 175 0
-15 -84 155 175 0
-15 -84 -155 -175 0
13 81 121 196 0
13 81 -121 -196 0
13 -81 121 -196 0
13 -81 -121 196 0
-13 81 121 -196 0
-13 81 -121 196 0
-13 -81 121 196 0
-13 -81 -121 -196 0
42 74 -163 0
42 -74 163 0
-42 74 163 0
-42 -74 -163 0
50 79 186 192 0
50 79 -186 -192 0
50 -79 186 -192 0
50 -79 -186 192 0
-50 79 186 -192 0
-50 79 -186 192 0
-50 -79 186 192 0
-50 -79 -186 -192 0
53 88 168 0
53 -88 -168 0
-53 88 -168 0
-53 -88 168 0
204 211 223 0
204 -211 -223 0
-204 211 -223 0
-204 -211 223 0
