c generated_for satsolver training
c category exact_small_random_3sat
c expected UNSAT
c notes status brute-force checked during generation; safe for checker --bruteforce-var-limit 16
p cnf 15 80
8 13 2 0
-14 -8 -5 0
7 -9 6 0
10 -5 -2 0
-10 -9 5 0
-2 -9 13 0
9 12 -5 0
1 -8 2 0
-3 -5 -14 0
9 8 12 0
12 -13 8 0
13 -12 6 0
4 -12 -13 0
2 15 -8 0
-9 -10 -13 0
4 -6 10 0
11 5 12 0
-14 10 -6 0
-10 -5 12 0
-9 -1 4 0
4 13 -8 0
-15 -8 -14 0
8 11 -12 0
4 13 -9 0
6 2 4 0
15 12 13 0
-11 13 -4 0
13 10 2 0
7 -12 9 0
-1 -11 13 0
5 -13 8 0
5 1 -3 0
10 14 -3 0
6 12 -8 0
3 12 -5 0
-1 4 -10 0
10 9 -2 0
-15 2 -4 0
14 -6 15 0
-15 2 -8 0
-8 -4 9 0
-6 1 -15 0
11 12 -9 0
11 6 10 0
-8 1 -7 0
11 -4 5 0
12 15 14 0
-12 -7 4 0
-15 -5 -14 0
-5 -11 -15 0
2 -1 10 0
-15 13 9 0
-1 13 14 0
-2 -10 -14 0
4 -13 -5 0
-7 15 -4 0
-10 14 3 0
11 -12 15 0
-11 -6 10 0
-15 -13 14 0
-13 11 5 0
15 -12 -2 0
-10 -5 -9 0
6 5 -13 0
-4 -3 -9 0
-14 -9 10 0
-1 4 5 0
-2 11 -15 0
-10 -1 -4 0
2 -1 5 0
-4 -5 -9 0
-1 -9 8 0
-7 12 -9 0
-14 -8 6 0
13 -9 -15 0
15 -11 -2 0
12 -2 15 0
-10 -13 4 0
3 -14 1 0
-14 -15 1 0
