c generated_for satsolver training
c category exact_small_random_3sat
c expected UNSAT
c notes status brute-force checked during generation; safe for checker --bruteforce-var-limit 16
p cnf 16 78
14 -10 6 0
-16 8 -3 0
3 11 9 0
16 -2 7 0
13 -6 -3 0
10 5 2 0
-1 10 -3 0
-2 4 12 0
15 8 9 0
-11 4 -6 0
-1 -6 9 0
-5 3 7 0
9 -11 -3 0
11 -2 -10 0
6 -9 1 0
8 3 -9 0
11 -14 2 0
12 11 15 0
-7 12 1 0
-15 -16 2 0
10 -1 -11 0
2 -5 -3 0
-15 7 -13 0
9 -13 -11 0
-3 -8 -10 0
4 -9 -12 0
-7 14 10 0
-12 14 -6 0
-7 -12 6 0
-15 12 3 0
8 15 12 0
16 5 -11 0
10 12 9 0
-3 -13 15 0
7 -3 -12 0
6 12 15 0
-9 -6 15 0
-13 3 -12 0
9 2 7 0
-1 -10 12 0
-14 -5 -8 0
7 12 3 0
4 -3 -11 0
-16 -8 14 0
7 -16 15 0
4 12 14 0
-14 -15 10 0
-6 -3 -15 0
-8 -9 5 0
16 -10 -13 0
-1 -9 -8 0
-9 8 16 0
-2 -12 8 0
4 14 13 0
7 -14 -4 0
-11 -3 -14 0
1 14 -3 0
6 -11 5 0
4 -15 11 0
-2 8 14 0
-6 -5 -7 0
3 -16 -9 0
3 -14 12 0
-15 16 11 0
5 -14 13 0
-4 -1 -2 0
5 -9 12 0
-3 6 5 0
-5 14 -11 0
-9 15 -7 0
-14 2 -16 0
-16 -6 -5 0
15 -9 13 0
10 -14 5 0
-2 -5 1 0
4 12 -14 0
-7 -4 -11 0
-9 -14 16 0
