c generated_for satsolver training
c category exact_small_random_3sat
c expected SAT
c notes status brute-force checked during generation; safe for checker --bruteforce-var-limit 16
p cnf 16 72
14 8 -3 0
12 -2 13 0
-13 14 -8 0
-6 12 -5 0
2 1 -6 0
-9 -2 11 0
-6 -12 -16 0
4 -7 5 0
6 2 14 0
10 -2 -4 0
5 -12 -16 0
10 1 -8 0
-12 3 15 0
7 9 10 0
-2 9 -12 0
8 -1 -13 0
-13 -12 10 0
-1 15 -14 0
8 3 1 0
8 -11 1 0
8 9 11 0
-7 8 10 0
-16 -6 3 0
3 1 11 0
5 7 14 0
-10 8 -5 0
3 12 8 0
-12 -3 -10 0
-6 13 14 0
-13 -5 -8 0
8 3 -14 0
-11 4 6 0
1 -3 2 0
-12 -13 -2 0
14 10 4 0
-6 5 -12 0
-10 -2 -13 0
-12 -6 11 0
-4 10 9 0
-3 -8 2 0
-7 -2 -1 0
15 4 -10 0
-15 -5 16 0
-1 -8 -9 0
-6 3 -8 0
-16 -15 -9 0
-4 -2 3 0
12 10 -14 0
7 3 -10 0
-5 -6 -13 0
7 14 9 0
16 3 -1 0
-6 9 -15 0
14 10 -5 0
7 -5 8 0
-3 -13 -15 0
-16 -10 3 0
-11 16 4 0
-10 16 -3 0
10 9 11 0
5 -4 -16 0
-5 12 -11 0
-16 7 -3 0
-2 -3 -11 0
-12 -13 -11 0
-2 4 -12 0
-4 -1 9 0
11 -8 -13 0
8 -16 -15 0
9 -5 -13 0
10 15 2 0
-14 1 -4 0
