c generated_for satsolver training
c category graph_coloring
c expected SAT
c notes random graph generated to respect a hidden 3-coloring
p cnf 48 169
1 2 3 0
-1 -2 0
-1 -3 0
-2 -3 0
4 5 6 0
-4 -5 0
-4 -6 0
-5 -6 0
7 8 9 0
-7 -8 0
-7 -9 0
-8 -9 0
10 11 12 0
-10 -11 0
-10 -12 0
-11 -12 0
13 14 15 0
-13 -14 0
-13 -15 0
-14 -15 0
16 17 18 0
-16 -17 0
-16 -18 0
-17 -18 0
19 20 21 0
-19 -20 0
-19 -21 0
-20 -21 0
22 23 24 0
-22 -23 0
-22 -24 0
-23 -24 0
25 26 27 0
-25 -26 0
-25 -27 0
-26 -27 0
28 29 30 0
-28 -29 0
-28 -30 0
-29 -30 0
31 32 33 0
-31 -32 0
-31 -33 0
-32 -33 0
34 35 36 0
-34 -35 0
-34 -36 0
-35 -36 0
37 38 39 0
-37 -38 0
-37 -39 0
-38 -39 0
40 41 42 0
-40 -41 0
-40 -42 0
-41 -42 0
43 44 45 0
-43 -44 0
-43 -45 0
-44 -45 0
46 47 48 0
-46 -47 0
-46 -48 0
-47 -48 0
-1 -34 0
-2 -35 0
-3 -36 0
-13 -31 0
-14 -32 0
-15 -33 0
-4 -10 0
-5 -11 0
-6 -12 0
-34 -37 0
-35 -38 0
-36 -39 0
-7 -37 0
-8 -38 0
-9 -39 0
-7 -22 0
-8 -23 0
-9 -24 0
-10 -43 0
-11 -44 0
-12 -45 0
-16 -19 0
-17 -20 0
-18 -21 0
-22 -31 0
-23 -32 0
-24 -33 0
-4 -7 0
-5 -8 0
-6 -9 0
-1 -46 0
-2 -47 0
-3 -48 0
-1 -19 0
-2 -20 0
-3 -21 0
-1 -10 0
-2 -11 0
-3 -12 0
-13 -19 0
-14 -20 0
-15 -21 0
-7 -19 0
-8 -20 0
-9 -21 0
-19 -43 0
-20 -44 0
-21 -45 0
-4 -13 0
-5 -14 0
-6 -15 0
-1 -13 0
-2 -14 0
-3 -15 0
-7 -10 0
-8 -11 0
-9 -12 0
-31 -34 0
-32 -35 0
-33 -36 0
-16 -40 0
-17 -41 0
-18 -42 0
-1 -43 0
-2 -44 0
-3 -45 0
-22 -43 0
-23 -44 0
-24 -45 0
-1 -22 0
-2 -23 0
-3 -24 0
-4 -22 0
-5 -23 0
-6 -24 0
-7 -25 0
-8 -26 0
-9 -27 0
-19 -28 0
-20 -29 0
-21 -30 0
-10 -13 0
-11 -14 0
-12 -15 0
-28 -40 0
-29 -41 0
-30 -42 0
-22 -37 0
-23 -38 0
-24 -39 0
-19 -25 0
-20 -26 0
-21 -27 0
-25 -43 0
-26 -44 0
-27 -45 0
-28 -46 0
-29 -47 0
-30 -48 0
-40 -43 0
-41 -44 0
-42 -45 0
-28 -43 0
-29 -44 0
-30 -45 0
