c generated_for satsolver training
c category graph_coloring
c expected SAT
c notes random graph generated to respect a hidden 3-coloring
p cnf 90 318
1 2 3 0
-1 -2 0
-1 -3 0
-2 -3 0
4 5 6 0
-4 -5 0
-4 -6 0
-5 -6 0
7 8 9 0
-7 -8 0
-7 -9 0
-8 -9 0
10 11 12 0
-10 -11 0
-10 -12 0
-11 -12 0
13 14 15 0
-13 -14 0
-13 -15 0
-14 -15 0
16 17 18 0
-16 -17 0
-16 -18 0
-17 -18 0
19 20 21 0
-19 -20 0
-19 -21 0
-20 -21 0
22 23 24 0
-22 -23 0
-22 -24 0
-23 -24 0
25 26 27 0
-25 -26 0
-25 -27 0
-26 -27 0
28 29 30 0
-28 -29 0
-28 -30 0
-29 -30 0
31 32 33 0
-31 -32 0
-31 -33 0
-32 -33 0
34 35 36 0
-34 -35 0
-34 -36 0
-35 -36 0
37 38 39 0
-37 -38 0
-37 -39 0
-38 -39 0
40 41 42 0
-40 -41 0
-40 -42 0
-41 -42 0
43 44 45 0
-43 -44 0
-43 -45 0
-44 -45 0
46 47 48 0
-46 -47 0
-46 -48 0
-47 -48 0
49 50 51 0
-49 -50 0
-49 -51 0
-50 -51 0
52 53 54 0
-52 -53 0
-52 -54 0
-53 -54 0
55 56 57 0
-55 -56 0
-55 -57 0
-56 -57 0
58 59 60 0
-58 -59 0
-58 -60 0
-59 -60 0
61 62 63 0
-61 -62 0
-61 -63 0
-62 -63 0
64 65 66 0
-64 -65 0
-64 -66 0
-65 -66 0
67 68 69 0
-67 -68 0
-67 -69 0
-68 -69 0
70 71 72 0
-70 -71 0
-70 -72 0
-71 -72 0
73 74 75 0
-73 -74 0
-73 -75 0
-74 -75 0
76 77 78 0
-76 -77 0
-76 -78 0
-77 -78 0
79 80 81 0
-79 -80 0
-79 -81 0
-80 -81 0
82 83 84 0
-82 -83 0
-82 -84 0
-83 -84 0
85 86 87 0
-85 -86 0
-85 -87 0
-86 -87 0
88 89 90 0
-88 -89 0
-88 -90 0
-89 -90 0
-49 -64 0
-50 -65 0
-51 -66 0
-7 -46 0
-8 -47 0
-9 -48 0
-43 -76 0
-44 -77 0
-45 -78 0
-34 -37 0
-35 -38 0
-36 -39 0
-13 -28 0
-14 -29 0
-15 -30 0
-31 -70 0
-32 -71 0
-33 -72 0
-7 -82 0
-8 -83 0
-9 -84 0
-16 -43 0
-17 -44 0
-18 -45 0
-4 -34 0
-5 -35 0
-6 -36 0
-43 -46 0
-44 -47 0
-45 -48 0
-73 -82 0
-74 -83 0
-75 -84 0
-34 -55 0
-35 -56 0
-36 -57 0
-25 -43 0
-26 -44 0
-27 -45 0
-34 -58 0
-35 -59 0
-36 -60 0
-49 -88 0
-50 -89 0
-51 -90 0
-28 -61 0
-29 -62 0
-30 -63 0
-31 -46 0
-32 -47 0
-33 -48 0
-22 -25 0
-23 -26 0
-24 -27 0
-19 -82 0
-20 -83 0
-21 -84 0
-10 -43 0
-11 -44 0
-12 -45 0
-43 -64 0
-44 -65 0
-45 -66 0
-16 -34 0
-17 -35 0
-18 -36 0
-16 -85 0
-17 -86 0
-18 -87 0
-4 -7 0
-5 -8 0
-6 -9 0
-43 -88 0
-44 -89 0
-45 -90 0
-55 -58 0
-56 -59 0
-57 -60 0
-58 -73 0
-59 -74 0
-60 -75 0
-7 -70 0
-8 -71 0
-9 -72 0
-25 -40 0
-26 -41 0
-27 -42 0
-10 -52 0
-11 -53 0
-12 -54 0
-19 -58 0
-20 -59 0
-21 -60 0
-19 -46 0
-20 -47 0
-21 -48 0
-16 -52 0
-17 -53 0
-18 -54 0
-67 -76 0
-68 -77 0
-69 -78 0
-7 -28 0
-8 -29 0
-9 -30 0
-40 -76 0
-41 -77 0
-42 -78 0
-31 -73 0
-32 -74 0
-33 -75 0
-25 -85 0
-26 -86 0
-27 -87 0
-1 -67 0
-2 -68 0
-3 -69 0
-34 -46 0
-35 -47 0
-36 -48 0
-49 -67 0
-50 -68 0
-51 -69 0
-55 -76 0
-56 -77 0
-57 -78 0
-49 -82 0
-50 -83 0
-51 -84 0
-7 -76 0
-8 -77 0
-9 -78 0
-1 -40 0
-2 -41 0
-3 -42 0
-58 -61 0
-59 -62 0
-60 -63 0
-31 -85 0
-32 -86 0
-33 -87 0
-1 -16 0
-2 -17 0
-3 -18 0
-25 -70 0
-26 -71 0
-27 -72 0
-40 -70 0
-41 -71 0
-42 -72 0
-52 -70 0
-53 -71 0
-54 -72 0
-49 -73 0
-50 -74 0
-51 -75 0
-16 -79 0
-17 -80 0
-18 -81 0
-52 -73 0
-53 -74 0
-54 -75 0
-31 -67 0
-32 -68 0
-33 -69 0
-4 -49 0
-5 -50 0
-6 -51 0
-37 -82 0
-38 -83 0
-39 -84 0
-19 -37 0
-20 -38 0
-21 -39 0
-7 -13 0
-8 -14 0
-9 -15 0
-7 -16 0
-8 -17 0
-9 -18 0
-40 -64 0
-41 -65 0
-42 -66 0
-22 -82 0
-23 -83 0
-24 -84 0
-49 -76 0
-50 -77 0
-51 -78 0
-25 -49 0
-26 -50 0
-27 -51 0
-31 -64 0
-32 -65 0
-33 -66 0
-25 -46 0
-26 -47 0
-27 -48 0
