c generated_for satsolver training
c category graph_coloring
c expected SAT
c notes random graph generated to respect a hidden 3-coloring
p cnf 126 444
1 2 3 0
-1 -2 0
-1 -3 0
-2 -3 0
4 5 6 0
-4 -5 0
-4 -6 0
-5 -6 0
7 8 9 0
-7 -8 0
-7 -9 0
-8 -9 0
10 11 12 0
-10 -11 0
-10 -12 0
-11 -12 0
13 14 15 0
-13 -14 0
-13 -15 0
-14 -15 0
16 17 18 0
-16 -17 0
-16 -18 0
-17 -18 0
19 20 21 0
-19 -20 0
-19 -21 0
-20 -21 0
22 23 24 0
-22 -23 0
-22 -24 0
-23 -24 0
25 26 27 0
-25 -26 0
-25 -27 0
-26 -27 0
28 29 30 0
-28 -29 0
-28 -30 0
-29 -30 0
31 32 33 0
-31 -32 0
-31 -33 0
-32 -33 0
34 35 36 0
-34 -35 0
-34 -36 0
-35 -36 0
37 38 39 0
-37 -38 0
-37 -39 0
-38 -39 0
40 41 42 0
-40 -41 0
-40 -42 0
-41 -42 0
43 44 45 0
-43 -44 0
-43 -45 0
-44 -45 0
46 47 48 0
-46 -47 0
-46 -48 0
-47 -48 0
49 50 51 0
-49 -50 0
-49 -51 0
-50 -51 0
52 53 54 0
-52 -53 0
-52 -54 0
-53 -54 0
55 56 57 0
-55 -56 0
-55 -57 0
-56 -57 0
58 59 60 0
-58 -59 0
-58 -60 0
-59 -60 0
61 62 63 0
-61 -62 0
-61 -63 0
-62 -63 0
64 65 66 0
-64 -65 0
-64 -66 0
-65 -66 0
67 68 69 0
-67 -68 0
-67 -69 0
-68 -69 0
70 71 72 0
-70 -71 0
-70 -72 0
-71 -72 0
73 74 75 0
-73 -74 0
-73 -75 0
-74 -75 0
76 77 78 0
-76 -77 0
-76 -78 0
-77 -78 0
79 80 81 0
-79 -80 0
-79 -81 0
-80 -81 0
82 83 84 0
-82 -83 0
-82 -84 0
-83 -84 0
85 86 87 0
-85 -86 0
-85 -87 0
-86 -87 0
88 89 90 0
-88 -89 0
-88 -90 0
-89 -90 0
91 92 93 0
-91 -92 0
-91 -93 0
-92 -93 0
94 95 96 0
-94 -95 0
-94 -96 0
-95 -96 0
97 98 99 0
-97 -98 0
-97 -99 0
-98 -99 0
100 101 102 0
-100 -101 0
-100 -102 0
-101 -102 0
103 104 105 0
-103 -104 0
-103 -105 0
-104 -105 0
106 107 108 0
-106 -107 0
-106 -108 0
-107 -108 0
109 110 111 0
-109 -110 0
-109 -111 0
-110 -111 0
112 113 114 0
-112 -113 0
-112 -114 0
-113 -114 0
115 116 117 0
-115 -116 0
-115 -117 0
-116 -117 0
118 119 120 0
-118 -119 0
-118 -120 0
-119 -120 0
121 122 123 0
-121 -122 0
-121 -123 0
-122 -123 0
124 125 126 0
-124 -125 0
-124 -126 0
-125 -126 0
-1 -109 0
-2 -110 0
-3 -111 0
-31 -67 0
-32 -68 0
-33 -69 0
-22 -58 0
-23 -59 0
-24 -60 0
-64 -97 0
-65 -98 0
-66 -99 0
-82 -88 0
-83 -89 0
-84 -90 0
-7 -91 0
-8 -92 0
-9 -93 0
-73 -82 0
-74 -83 0
-75 -84 0
-46 -82 0
-47 -83 0
-48 -84 0
-16 -40 0
-17 -41 0
-18 -42 0
-91 -100 0
-92 -101 0
-93 -102 0
-25 -73 0
-26 -74 0
-27 -75 0
-67 -79 0
-68 -80 0
-69 -81 0
-97 -115 0
-98 -116 0
-99 -117 0
-13 -85 0
-14 -86 0
-15 -87 0
-7 -16 0
-8 -17 0
-9 -18 0
-10 -64 0
-11 -65 0
-12 -66 0
-19 -52 0
-20 -53 0
-21 -54 0
-58 -73 0
-59 -74 0
-60 -75 0
-85 -112 0
-86 -113 0
-87 -114 0
-43 -70 0
-44 -71 0
-45 -72 0
-7 -103 0
-8 -104 0
-9 -105 0
-19 -70 0
-20 -71 0
-21 -72 0
-43 -55 0
-44 -56 0
-45 -57 0
-58 -115 0
-59 -116 0
-60 -117 0
-4 -112 0
-5 -113 0
-6 -114 0
-70 -82 0
-71 -83 0
-72 -84 0
-37 -88 0
-38 -89 0
-39 -90 0
-58 -67 0
-59 -68 0
-60 -69 0
-91 -94 0
-92 -95 0
-93 -96 0
-1 -118 0
-2 -119 0
-3 -120 0
-79 -112 0
-80 -113 0
-81 -114 0
-55 -91 0
-56 -92 0
-57 -93 0
-49 -55 0
-50 -56 0
-51 -57 0
-16 -115 0
-17 -116 0
-18 -117 0
-1 -7 0
-2 -8 0
-3 -9 0
-4 -31 0
-5 -32 0
-6 -33 0
-43 -58 0
-44 -59 0
-45 -60 0
-43 -109 0
-44 -110 0
-45 -111 0
-67 -97 0
-68 -98 0
-69 -99 0
-49 -97 0
-50 -98 0
-51 -99 0
-19 -103 0
-20 -104 0
-21 -105 0
-43 -94 0
-44 -95 0
-45 -96 0
-19 -106 0
-20 -107 0
-21 -108 0
-97 -112 0
-98 -113 0
-99 -114 0
-13 -61 0
-14 -62 0
-15 -63 0
-70 -118 0
-71 -119 0
-72 -120 0
-79 -118 0
-80 -119 0
-81 -120 0
-52 -124 0
-53 -125 0
-54 -126 0
-43 -100 0
-44 -101 0
-45 -102 0
-16 -100 0
-17 -101 0
-18 -102 0
-70 -115 0
-71 -116 0
-72 -117 0
-10 -88 0
-11 -89 0
-12 -90 0
-61 -94 0
-62 -95 0
-63 -96 0
-49 -94 0
-50 -95 0
-51 -96 0
-112 -118 0
-113 -119 0
-114 -120 0
-1 -100 0
-2 -101 0
-3 -102 0
-13 -103 0
-14 -104 0
-15 -105 0
-37 -49 0
-38 -50 0
-39 -51 0
-34 -61 0
-35 -62 0
-36 -63 0
-85 -115 0
-86 -116 0
-87 -117 0
-16 -94 0
-17 -95 0
-18 -96 0
-55 -67 0
-56 -68 0
-57 -69 0
-13 -25 0
-14 -26 0
-15 -27 0
-49 -100 0
-50 -101 0
-51 -102 0
-34 -106 0
-35 -107 0
-36 -108 0
-85 -91 0
-86 -92 0
-87 -93 0
-7 -76 0
-8 -77 0
-9 -78 0
-7 -49 0
-8 -50 0
-9 -51 0
-82 -97 0
-83 -98 0
-84 -99 0
-31 -76 0
-32 -77 0
-33 -78 0
-4 -10 0
-5 -11 0
-6 -12 0
-52 -109 0
-53 -110 0
-54 -111 0
-37 -106 0
-38 -107 0
-39 -108 0
-67 -94 0
-68 -95 0
-69 -96 0
-19 -91 0
-20 -92 0
-21 -93 0
-4 -67 0
-5 -68 0
-6 -69 0
-28 -97 0
-29 -98 0
-30 -99 0
-43 -64 0
-44 -65 0
-45 -66 0
-79 -97 0
-80 -98 0
-81 -99 0
-31 -118 0
-32 -119 0
-33 -120 0
-55 -103 0
-56 -104 0
-57 -105 0
-46 -88 0
-47 -89 0
-48 -90 0
-73 -100 0
-74 -101 0
-75 -102 0
-13 -100 0
-14 -101 0
-15 -102 0
-67 -88 0
-68 -89 0
-69 -90 0
-13 -82 0
-14 -83 0
-15 -84 0
-73 -106 0
-74 -107 0
-75 -108 0
-64 -118 0
-65 -119 0
-66 -120 0
-52 -55 0
-53 -56 0
-54 -57 0
-4 -34 0
-5 -35 0
-6 -36 0
-7 -34 0
-8 -35 0
-9 -36 0
-1 -19 0
-2 -20 0
-3 -21 0
