c generated_for satsolver training
c category planted_random_3sat
c expected SAT
c notes near-threshold 3-SAT generated from a hidden satisfying assignment; seed=20260420 index=8
p cnf 20 85
-12 15 -8 0
4 5 18 0
-18 -2 -15 0
4 -8 9 0
-6 3 16 0
-16 -7 -14 0
19 -12 7 0
14 -2 -20 0
-14 10 -20 0
-18 8 -2 0
13 2 -5 0
-6 1 -9 0
-9 -13 14 0
-20 -10 -2 0
14 -20 -9 0
1 14 -2 0
18 -12 13 0
9 11 14 0
-11 -15 -7 0
11 -14 16 0
19 -10 -15 0
3 -11 -10 0
5 11 6 0
12 14 -3 0
-2 3 8 0
-8 20 -7 0
20 10 7 0
-12 -17 -19 0
-6 -8 -7 0
16 -17 -11 0
3 -16 -12 0
-1 8 13 0
-13 14 15 0
-12 20 18 0
-4 -12 5 0
6 -13 -12 0
19 2 16 0
20 2 11 0
-2 19 -16 0
15 11 3 0
-20 1 10 0
3 17 8 0
-12 15 -20 0
-12 16 -17 0
-12 4 -1 0
-6 15 5 0
15 4 -17 0
15 -13 19 0
-12 -19 15 0
-15 3 2 0
-4 -18 -8 0
9 -18 -20 0
12 13 5 0
-11 15 8 0
-19 13 9 0
10 11 -20 0
-7 -8 -4 0
16 2 6 0
20 3 -5 0
-11 -17 -10 0
-4 -6 3 0
9 -15 -12 0
13 9 -3 0
-6 -2 12 0
-3 -20 -11 0
20 -13 -8 0
-16 -17 -12 0
13 -1 15 0
11 -7 4 0
-17 -14 15 0
14 18 11 0
6 -4 1 0
8 20 3 0
-17 -11 -4 0
3 -13 19 0
16 -20 -7 0
10 17 12 0
-13 -6 10 0
19 -14 9 0
18 -15 3 0
13 12 4 0
19 -6 -15 0
-5 9 6 0
11 -8 -15 0
4 18 -6 0
