c generated_for satsolver training
c category planted_random_3sat
c expected SAT
c notes near-threshold 3-SAT generated from a hidden satisfying assignment; seed=20260420 index=4
p cnf 20 85
-13 11 -6 0
18 13 -4 0
-4 9 -17 0
18 8 -12 0
20 11 -2 0
3 14 1 0
-9 2 -16 0
-6 -20 -19 0
-19 -20 -2 0
-13 -11 -17 0
-9 -7 -14 0
-2 -18 -17 0
1 -6 15 0
19 13 11 0
3 1 -20 0
12 -9 -10 0
16 7 1 0
12 -6 14 0
-7 10 -20 0
-12 -6 -4 0
16 -11 -17 0
-15 -9 -19 0
5 -9 18 0
11 14 -16 0
11 8 -13 0
-13 -6 -14 0
6 14 -19 0
8 16 -9 0
6 3 13 0
18 15 14 0
-15 6 -18 0
-8 -10 3 0
8 12 -9 0
5 -19 8 0
9 15 1 0
-7 13 -12 0
-9 1 11 0
15 -20 14 0
-10 3 1 0
20 9 -18 0
-7 -9 17 0
6 -3 7 0
-5 4 -1 0
17 -10 -2 0
-18 -12 -9 0
15 -6 11 0
4 20 13 0
2 15 -19 0
-12 -14 18 0
-5 12 9 0
10 1 -17 0
-12 7 -10 0
3 -7 -15 0
18 1 -11 0
19 7 14 0
-3 -18 7 0
-3 -1 17 0
-10 14 -16 0
-10 -8 -20 0
-4 3 -2 0
-20 -15 -10 0
-20 -18 16 0
-7 10 17 0
12 13 7 0
-11 5 8 0
-13 -7 2 0
4 -7 10 0
9 10 -17 0
8 11 6 0
16 -2 13 0
-2 10 17 0
7 -2 12 0
11 4 -6 0
15 17 -3 0
-15 -20 -3 0
-2 1 -4 0
2 17 11 0
10 -7 19 0
1 9 8 0
5 -16 17 0
9 -1 -13 0
5 -18 -3 0
9 13 -1 0
1 18 -12 0
-14 16 -2 0
