c generated_for satsolver training
c category planted_random_3sat
c expected SAT
c notes near-threshold 3-SAT generated from a hidden satisfying assignment; seed=20260420 index=4
p cnf 40 170
7 8 -25 0
-18 -34 27 0
-3 28 7 0
-30 -24 -23 0
1 10 -40 0
12 20 5 0
4 -36 10 0
-21 15 -16 0
-18 38 27 0
15 -9 39 0
-11 -23 -5 0
33 20 25 0
-20 8 -23 0
1 -12 -29 0
23 -7 -29 0
-15 -24 -39 0
25 -24 -36 0
-15 33 36 0
18 2 10 0
-24 -26 35 0
29 -31 -4 0
36 -18 33 0
20 -40 24 0
33 -11 -19 0
-24 -27 1 0
5 39 -29 0
14 -7 27 0
-9 14 -37 0
1 22 -40 0
38 -22 34 0
6 13 -10 0
14 25 4 0
-6 28 -40 0
-18 -32 -2 0
4 -6 -2 0
23 17 24 0
-2 13 -18 0
40 18 16 0
9 26 17 0
22 -23 6 0
15 -37 29 0
-14 22 19 0
-19 -30 31 0
-10 8 29 0
-32 2 -12 0
18 -35 -36 0
-23 12 -27 0
-5 -28 -12 0
33 -11 1 0
40 -25 13 0
23 36 -9 0
-10 -19 9 0
8 -3 -1 0
16 -31 -32 0
-33 -39 28 0
-3 10 -4 0
32 7 -30 0
14 -34 6 0
-21 -23 -19 0
-33 -17 7 0
-2 16 -37 0
-31 -32 -12 0
18 17 24 0
39 31 26 0
-19 39 -2 0
18 26 -36 0
6 15 -18 0
-36 -24 -32 0
23 17 25 0
-28 -5 30 0
-24 21 19 0
15 18 22 0
38 8 -7 0
6 23 -28 0
28 24 8 0
-14 32 30 0
9 21 32 0
-21 14 2 0
37 2 -17 0
-32 28 16 0
29 -16 -39 0
-25 -12 24 0
33 -31 -23 0
-40 -39 -28 0
27 18 28 0
-27 -31 -3 0
8 -14 13 0
-26 -40 -19 0
22 8 -36 0
11 13 -22 0
37 -30 -6 0
-1 -21 19 0
-10 18 -33 0
-38 -2 26 0
27 13 22 0
-24 32 -27 0
30 18 33 0
-34 -17 9 0
38 36 33 0
9 29 -16 0
-18 -24 -23 0
-26 -37 -31 0
1 -11 -24 0
17 -10 -35 0
23 -11 -30 0
-16 39 -29 0
-36 -10 28 0
2 13 27 0
-34 -24 -18 0
-3 -39 -20 0
-33 8 -18 0
34 13 40 0
22 -3 -24 0
18 3 -4 0
14 -13 12 0
29 31 -13 0
35 -16 -7 0
-27 2 8 0
17 -18 28 0
-3 -32 1 0
-25 -22 -12 0
24 4 -32 0
-13 5 -21 0
19 6 -26 0
16 33 -22 0
6 28 -37 0
16 8 -19 0
-28 15 -3 0
30 -24 5 0
-21 -6 -24 0
7 26 -22 0
3 10 29 0
-1 39 -31 0
-30 31 2 0
8 24 35 0
-20 16 19 0
32 31 -10 0
-17 -11 37 0
-6 5 -17 0
28 -23 26 0
28 -4 -12 0
24 31 -26 0
19 18 -29 0
-15 26 -30 0
24 -35 40 0
-7 -29 -26 0
32 -35 -23 0
37 22 -6 0
9 -3 28 0
-34 -27 21 0
22 -7 -31 0
29 -16 -23 0
-28 24 -40 0
10 29 18 0
18 3 37 0
-35 2 22 0
-23 6 -1 0
3 -25 2 0
34 -24 -40 0
-40 39 -19 0
15 40 -31 0
-12 26 38 0
-7 -20 -29 0
-27 -21 -9 0
10 -40 19 0
-21 -31 -19 0
22 -37 13 0
40 -19 -30 0
-9 -26 -32 0
-19 30 -11 0
