c generated_for satsolver training
c category planted_random_3sat
c expected SAT
c notes near-threshold 3-SAT generated from a hidden satisfying assignment; seed=20260420 index=5
p cnf 80 340
-36 61 -58 0
-1 71 25 0
27 -26 40 0
-41 58 -55 0
-47 41 80 0
-13 15 -17 0
5 -71 79 0
1 -80 61 0
-2 -38 -19 0
43 59 50 0
71 -63 -15 0
56 -23 -51 0
3 39 -16 0
-53 -7 -17 0
31 -4 -59 0
-60 -19 -2 0
38 -62 -34 0
52 -27 -50 0
42 77 -7 0
-29 51 32 0
-46 10 61 0
-33 -23 -11 0
68 -60 20 0
-35 -65 -60 0
26 44 -13 0
-18 -56 -52 0
61 -31 -35 0
46 -62 56 0
43 -18 -28 0
-8 -16 -22 0
9 18 -68 0
-1 -45 -11 0
-30 7 46 0
37 31 11 0
-44 -14 -8 0
-26 55 15 0
59 26 -30 0
59 15 46 0
67 -5 45 0
11 39 8 0
71 12 -8 0
-34 -55 4 0
-79 54 -16 0
-53 29 -49 0
64 -43 -49 0
38 12 11 0
28 50 7 0
18 -45 50 0
-41 14 -79 0
11 -73 -78 0
29 48 -70 0
-43 -77 -74 0
-48 20 -16 0
45 -31 42 0
-51 60 -48 0
29 52 -72 0
12 62 -58 0
69 -49 -41 0
42 23 -53 0
35 -33 -30 0
67 -26 77 0
59 -64 -14 0
-46 31 32 0
-21 -32 57 0
-24 68 48 0
-64 12 55 0
-3 29 39 0
4 66 34 0
-3 -63 -4 0
-26 -22 -25 0
20 57 75 0
-28 52 -69 0
-47 36 -76 0
-18 28 77 0
-5 -17 -71 0
-9 79 76 0
-61 52 39 0
5 -69 -4 0
21 -77 47 0
42 -75 -34 0
-7 70 37 0
-25 -38 -6 0
-50 -19 -28 0
-59 -53 -22 0
66 54 50 0
44 3 -14 0
-67 54 37 0
-33 -59 -70 0
-56 -14 -44 0
-76 -7 49 0
42 -36 -60 0
21 -80 -73 0
-80 19 -74 0
-57 -8 -47 0
-41 -25 -10 0
77 -17 14 0
-17 -50 -44 0
63 -54 -3 0
60 -50 42 0
31 -50 8 0
44 58 -66 0
6 39 -69 0
60 -62 -65 0
-21 16 -7 0
20 63 -19 0
42 -50 75 0
14 -59 49 0
-51 -42 27 0
-35 -8 30 0
37 -77 74 0
75 34 -54 0
80 -26 33 0
21 5 28 0
-11 6 -22 0
-39 -38 -77 0
-14 -12 -52 0
17 33 8 0
-59 -35 -46 0
68 -7 67 0
57 58 -33 0
10 -71 33 0
-50 -71 1 0
-10 -9 -5 0
-18 61 -6 0
68 49 6 0
9 -77 68 0
-60 -25 -17 0
-52 22 3 0
26 56 3 0
-69 52 -56 0
55 -27 -53 0
-37 -53 -56 0
51 -72 -25 0
-45 11 -58 0
55 78 15 0
-45 28 -69 0
-43 -15 -17 0
-76 -75 -70 0
-70 21 53 0
58 -16 -76 0
37 2 73 0
-69 -21 44 0
-2 -33 -30 0
-80 13 5 0
-57 45 37 0
-79 69 -9 0
9 8 -41 0
47 58 13 0
39 -51 56 0
41 -75 7 0
-18 -55 -30 0
1 -21 -69 0
-2 46 61 0
-10 -27 -54 0
-11 -50 -18 0
-67 2 -61 0
-76 39 80 0
-19 40 -42 0
-6 14 -3 0
67 -9 -31 0
-78 -63 -46 0
5 4 -58 0
-14 -52 -11 0
-51 -29 21 0
67 -45 25 0
-2 -45 -80 0
64 41 53 0
-51 13 -67 0
12 72 18 0
-62 -29 -45 0
78 -42 9 0
42 5 -16 0
-60 56 51 0
45 43 -47 0
-71 -48 67 0
-16 69 62 0
-56 19 42 0
-53 30 -20 0
-53 -30 31 0
-66 28 -40 0
12 35 78 0
-40 20 -61 0
62 -69 38 0
32 74 49 0
55 -6 -78 0
72 -19 -39 0
-32 -9 -36 0
45 -47 -20 0
14 -20 -72 0
-61 -7 -57 0
-77 -28 17 0
38 59 -22 0
51 70 -48 0
25 -4 -24 0
-3 -18 38 0
65 -21 -50 0
-37 29 57 0
-34 -70 32 0
5 -31 -15 0
-43 76 -53 0
-14 -41 -22 0
52 23 -37 0
34 66 39 0
-46 71 -23 0
76 9 -21 0
-68 24 -65 0
66 34 44 0
-26 1 2 0
-33 61 -13 0
25 -48 -73 0
-53 -21 -78 0
17 69 44 0
-31 -70 80 0
76 33 35 0
-10 -25 24 0
-63 -26 76 0
53 -21 63 0
61 66 19 0
-35 -27 78 0
-68 -43 55 0
-42 -59 63 0
-5 39 -73 0
-67 -56 -63 0
-16 -43 -73 0
-19 64 -52 0
46 -55 -44 0
66 -26 69 0
-27 -47 18 0
15 56 67 0
-66 21 -60 0
28 -37 -35 0
-50 69 -54 0
-36 4 -58 0
-11 20 -69 0
-47 -71 68 0
-39 -80 -68 0
-19 -15 -76 0
-65 -29 -80 0
5 -9 4 0
-45 -44 48 0
63 38 26 0
-62 26 -60 0
26 -12 45 0
27 12 54 0
-6 72 -62 0
11 -8 41 0
-37 -56 76 0
63 46 -38 0
54 -65 -3 0
-43 31 -63 0
50 -20 27 0
-17 -54 -22 0
-5 -18 -4 0
-7 10 31 0
20 -16 72 0
47 42 73 0
65 31 -60 0
-60 19 57 0
-33 65 44 0
-51 41 -64 0
-65 20 79 0
-30 46 65 0
20 16 55 0
50 -24 9 0
42 -11 78 0
53 -30 65 0
32 12 35 0
24 15 -56 0
-73 -76 -16 0
15 11 -33 0
-5 40 15 0
66 44 -79 0
-16 39 -80 0
66 -33 -59 0
-11 5 12 0
29 79 -80 0
-38 -51 -27 0
59 -30 27 0
1 6 -3 0
66 24 76 0
-58 -61 72 0
22 44 -51 0
65 -11 -41 0
-78 -42 -1 0
-38 56 31 0
-34 35 -14 0
5 -30 38 0
-68 31 -66 0
-65 -66 55 0
73 33 20 0
-29 -25 -76 0
-55 -37 23 0
-56 -22 43 0
24 31 79 0
-80 34 43 0
27 -18 55 0
36 -67 23 0
26 6 -20 0
15 -31 -5 0
66 -40 -3 0
70 -43 33 0
20 -71 46 0
39 -75 -25 0
-80 50 -55 0
64 -20 -49 0
-11 48 80 0
-1 -41 -56 0
29 -38 -49 0
-59 38 -10 0
-44 -50 -62 0
64 -57 -16 0
-18 -17 24 0
53 -79 60 0
-35 -7 16 0
-62 -12 27 0
25 23 -45 0
47 68 -17 0
65 -62 30 0
12 2 40 0
60 72 -48 0
-30 5 60 0
-20 -36 46 0
-72 -3 18 0
31 -74 -80 0
-9 47 67 0
2 40 58 0
-36 -3 -19 0
73 -6 -64 0
47 77 -63 0
-15 -28 44 0
-5 19 28 0
-25 73 18 0
-44 -24 -77 0
27 65 4 0
58 -7 -25 0
-5 -52 -24 0
-63 -40 39 0
-1 75 -4 0
-31 -51 67 0
-27 44 53 0
