c generated_for satsolver training
c category planted_random_3sat
c expected SAT
c notes near-threshold 3-SAT generated from a hidden satisfying assignment; seed=20260420 index=2
p cnf 30 128
2 -30 17 0
5 2 22 0
-1 15 10 0
-12 14 19 0
14 22 24 0
-18 16 -23 0
-19 -13 -18 0
7 13 4 0
-21 -14 -23 0
2 10 22 0
19 7 26 0
1 -12 5 0
-26 -30 8 0
-13 3 7 0
-19 -28 10 0
9 -26 1 0
2 -10 6 0
10 -5 9 0
3 18 25 0
-15 -8 -16 0
14 30 10 0
-27 -30 20 0
3 30 11 0
-8 -4 -16 0
24 22 27 0
-20 11 7 0
-28 -3 19 0
1 -4 2 0
-13 -27 5 0
12 16 20 0
-4 -19 8 0
-15 1 5 0
-11 -5 -2 0
22 -6 24 0
-2 -29 -11 0
21 -16 -6 0
13 19 28 0
-4 -21 -6 0
-5 17 30 0
2 -24 16 0
-16 20 -28 0
11 -2 -15 0
-30 10 1 0
-15 -7 21 0
21 26 15 0
18 -23 -7 0
13 3 8 0
16 25 10 0
-11 29 -22 0
10 -8 30 0
-16 -12 11 0
21 6 -28 0
-16 25 20 0
-6 17 26 0
25 13 -17 0
-27 -26 30 0
-11 -22 27 0
30 -11 -25 0
-24 -18 -23 0
-30 -2 18 0
5 22 25 0
14 -29 11 0
-26 17 15 0
-14 -5 -6 0
-25 -11 3 0
28 -27 -24 0
-18 25 24 0
-10 -21 -27 0
6 8 -23 0
28 -9 -26 0
-23 -1 16 0
-4 1 -15 0
26 -30 -3 0
24 -6 13 0
-14 -23 -16 0
6 18 29 0
-15 -9 -29 0
8 -24 26 0
21 -12 -22 0
4 -15 21 0
20 -8 -25 0
5 4 -21 0
15 14 -4 0
12 -5 -11 0
-27 -16 20 0
-18 22 20 0
9 27 24 0
11 10 14 0
-9 -29 4 0
-19 13 12 0
-25 17 30 0
-15 24 26 0
-4 -10 9 0
-4 -25 13 0
23 -9 -5 0
18 -27 15 0
-30 8 15 0
-16 14 4 0
-17 7 19 0
1 -21 -28 0
24 -4 -18 0
-30 -4 7 0
19 13 18 0
30 10 -22 0
-10 -6 20 0
23 16 24 0
-5 9 -6 0
8 -11 -13 0
8 2 -27 0
22 16 17 0
-19 -9 -10 0
-16 -20 -11 0
14 -13 23 0
-13 -27 8 0
16 19 -25 0
-8 2 -19 0
-3 9 -28 0
-27 -4 13 0
7 -3 -29 0
16 -23 -22 0
-11 -10 -23 0
-4 -12 24 0
21 12 6 0
13 18 -9 0
-22 24 27 0
11 -9 -22 0
-15 -18 -9 0
26 -19 11 0
