c generated_for satsolver training
c category planted_random_3sat
c expected SAT
c notes near-threshold 3-SAT generated from a hidden satisfying assignment; seed=20260420 index=6
p cnf 60 255
41 -4 -17 0
54 38 -42 0
-23 -46 37 0
58 15 -49 0
22 13 -50 0
-42 45 -41 0
45 -52 10 0
-7 12 44 0
41 32 -12 0
29 -16 28 0
-50 34 3 0
-46 -12 50 0
-30 -50 25 0
25 -39 -12 0
-38 53 56 0
35 23 11 0
-32 -57 5 0
17 -45 -15 0
-20 -18 38 0
-20 51 -1 0
-22 -18 -45 0
16 4 -1 0
-32 42 60 0
13 -19 -29 0
39 -47 -21 0
-18 -50 10 0
-7 53 24 0
22 47 12 0
-5 -24 -55 0
55 31 -23 0
19 32 -9 0
-51 -47 -32 0
-28 36 25 0
-8 -3 -17 0
-47 -53 -52 0
54 35 -3 0
-17 -28 -1 0
-53 -56 55 0
39 -20 40 0
-30 3 34 0
3 1 -16 0
-50 -35 34 0
20 24 -32 0
-59 35 23 0
-57 13 -7 0
-8 48 -19 0
49 -47 -50 0
49 32 28 0
-43 48 -1 0
11 -49 -9 0
16 -30 -48 0
-58 -59 3 0
24 -58 21 0
26 -14 21 0
-25 24 16 0
-7 6 14 0
29 -24 58 0
23 18 -41 0
22 -24 -25 0
43 -31 -48 0
32 55 -20 0
-47 52 60 0
51 52 -45 0
-53 38 16 0
22 -27 -16 0
29 2 -21 0
-29 -27 7 0
-44 -2 -4 0
40 35 12 0
-40 -14 -59 0
-42 -21 23 0
-1 -54 4 0
34 36 41 0
-7 -41 -39 0
25 42 -17 0
19 -41 55 0
5 13 49 0
24 48 36 0
40 -17 58 0
-34 54 56 0
-22 25 -9 0
54 6 42 0
16 48 -44 0
-55 -9 30 0
-50 -36 -4 0
10 46 41 0
12 50 54 0
-4 13 56 0
19 -1 13 0
-13 -29 -52 0
51 22 6 0
-52 34 -47 0
-23 53 -58 0
-24 -57 -14 0
20 4 -60 0
-54 -31 41 0
-1 -57 -59 0
-21 28 53 0
-7 -18 -29 0
31 18 50 0
-47 50 53 0
-28 -23 58 0
-9 50 2 0
-24 -18 54 0
-21 58 -3 0
4 -3 -19 0
-24 12 57 0
-56 -22 -4 0
56 -45 44 0
-21 -56 25 0
45 44 25 0
-49 17 -29 0
-49 -34 55 0
-17 -48 46 0
53 -9 -58 0
19 -29 -60 0
45 -41 12 0
-43 -29 -24 0
-45 -30 -44 0
-11 49 -1 0
6 -3 -48 0
-2 -56 34 0
5 35 40 0
-42 -41 -15 0
8 -17 22 0
16 -8 -1 0
-28 10 -16 0
-46 59 -4 0
-18 -41 4 0
-58 31 -37 0
-23 -24 -50 0
38 29 -32 0
15 29 40 0
10 37 57 0
-3 -1 34 0
14 -34 -27 0
-49 -11 9 0
-24 19 3 0
54 -12 34 0
14 54 -3 0
-15 -60 -57 0
49 -24 -27 0
53 -1 59 0
-2 -46 -14 0
-40 -37 -6 0
-21 -45 55 0
-54 -42 -29 0
-12 -20 35 0
33 30 -25 0
25 -39 -26 0
-37 59 -52 0
-1 -46 47 0
26 -7 -25 0
33 -18 -41 0
51 47 4 0
-40 45 31 0
-44 -24 36 0
-36 -52 -49 0
-21 30 37 0
39 -29 -27 0
40 28 9 0
36 26 53 0
-40 -17 51 0
-39 -42 26 0
-27 -4 6 0
-15 -27 -34 0
-8 -7 50 0
24 20 32 0
2 29 19 0
-34 -60 58 0
-11 43 -53 0
53 34 -20 0
-53 -21 -24 0
24 -46 -5 0
-4 23 -30 0
49 -52 -7 0
-54 9 10 0
34 37 45 0
-45 -2 -11 0
45 25 24 0
19 -8 25 0
34 41 57 0
17 25 -6 0
-60 -34 2 0
-27 -23 -32 0
-7 -27 51 0
-53 43 13 0
16 7 18 0
-15 -19 44 0
6 7 16 0
23 -13 29 0
-34 -56 57 0
-19 -26 -36 0
-35 -21 20 0
6 -19 36 0
15 33 41 0
-42 -51 -11 0
-18 -33 -47 0
-10 37 16 0
29 -27 -37 0
-26 13 -47 0
25 4 35 0
-53 -26 10 0
56 -19 -21 0
26 38 37 0
-29 20 2 0
-53 33 54 0
14 25 32 0
-1 20 6 0
47 -4 -8 0
8 -41 43 0
32 30 -21 0
-48 -38 -24 0
35 40 -30 0
-14 -38 -60 0
-37 -17 -45 0
-7 -25 -36 0
-14 -7 58 0
-59 -1 28 0
-38 -23 22 0
-53 -6 54 0
36 -55 50 0
3 18 2 0
12 -7 -21 0
15 55 -38 0
21 -7 27 0
26 29 16 0
20 39 -53 0
19 -31 29 0
-51 -9 -43 0
-21 4 31 0
-59 -39 45 0
7 28 60 0
46 50 -44 0
34 -18 -47 0
36 -24 -50 0
-49 -9 -26 0
-51 7 -4 0
59 14 21 0
-30 -1 25 0
-28 49 -59 0
3 -30 14 0
4 57 -50 0
50 -11 47 0
45 13 -43 0
45 -50 -24 0
58 26 10 0
-59 -39 -19 0
46 -31 54 0
56 18 57 0
-33 15 -18 0
15 -54 -16 0
46 21 36 0
33 -2 30 0
15 -43 -44 0
