c generated_for satsolver training
c category planted_random_3sat
c expected SAT
c notes near-threshold 3-SAT generated from a hidden satisfying assignment; seed=20260420 index=2
p cnf 80 340
-15 54 44 0
71 5 36 0
-5 10 -63 0
-49 -76 -40 0
50 -74 12 0
-51 23 37 0
-49 15 47 0
72 78 11 0
-44 -3 -4 0
-14 -48 16 0
25 16 37 0
78 20 49 0
-30 -62 -2 0
-23 -22 -38 0
-6 -47 31 0
-57 -25 66 0
14 75 -43 0
-26 -11 78 0
74 75 -38 0
-64 42 3 0
-17 -49 -39 0
-19 28 77 0
-55 49 5 0
27 -37 -77 0
-26 13 75 0
-67 -46 70 0
-48 45 27 0
78 21 31 0
-15 -27 -68 0
33 -43 17 0
79 64 -17 0
17 30 37 0
27 -44 -45 0
-45 -23 1 0
43 -4 69 0
-52 -46 -32 0
65 34 -71 0
55 -23 -45 0
34 -53 14 0
13 1 71 0
-35 21 -79 0
-77 -8 43 0
32 -28 57 0
-1 -67 -49 0
4 46 -80 0
30 51 -33 0
-6 62 52 0
-38 -30 -45 0
-20 -41 -25 0
73 -31 -58 0
-1 -49 71 0
-77 -73 30 0
34 3 -62 0
45 46 -80 0
-66 57 4 0
-14 -61 27 0
19 -51 -17 0
-4 -12 30 0
-72 -3 80 0
40 -68 21 0
8 -51 -17 0
-39 70 61 0
-58 -47 30 0
50 -57 65 0
41 -73 71 0
11 80 54 0
-18 16 49 0
-22 -67 -55 0
26 56 -5 0
-76 -75 79 0
-69 51 -23 0
15 -28 53 0
-8 44 61 0
66 70 8 0
28 79 63 0
41 30 -29 0
17 -24 -18 0
79 -59 -48 0
-52 46 -58 0
-49 15 14 0
72 1 57 0
42 63 -29 0
29 -21 -60 0
-57 50 -44 0
-41 14 -39 0
-5 -28 -31 0
67 -7 80 0
-64 -15 -61 0
60 59 73 0
-19 -39 63 0
-31 -74 36 0
70 59 -44 0
56 12 -36 0
57 -31 -32 0
-33 -74 -11 0
-18 -24 66 0
70 21 8 0
-61 55 9 0
-20 39 76 0
4 49 -77 0
-78 45 12 0
-26 -51 -21 0
-75 28 16 0
-75 62 19 0
-73 -19 -10 0
2 45 72 0
43 -29 -2 0
-17 -27 32 0
-73 -75 52 0
-3 27 37 0
78 -25 57 0
58 -34 -5 0
-40 -30 -49 0
-74 77 63 0
77 64 30 0
-12 49 40 0
-18 74 62 0
-64 20 -57 0
-57 -74 -31 0
-23 68 -7 0
-75 61 33 0
26 29 5 0
-33 -16 50 0
10 -44 -56 0
-40 -73 52 0
13 32 33 0
77 29 -4 0
-19 50 13 0
80 53 6 0
72 -37 74 0
-20 70 13 0
68 51 -74 0
-57 -63 -50 0
-66 34 -24 0
18 -48 23 0
23 53 26 0
78 6 -38 0
-63 13 25 0
-32 -30 -35 0
51 75 -17 0
-11 67 32 0
5 69 66 0
-28 16 19 0
-23 14 24 0
-47 9 -56 0
-76 48 21 0
41 9 -40 0
-19 59 13 0
-15 80 28 0
28 -66 2 0
8 6 -80 0
-76 3 41 0
-2 44 -16 0
59 44 -42 0
-51 56 -28 0
-51 -24 -68 0
50 22 23 0
54 -4 1 0
-2 77 -35 0
10 -25 72 0
-15 -57 -5 0
78 20 -8 0
39 63 8 0
27 3 -80 0
50 43 32 0
-51 -14 -4 0
-20 76 -29 0
-46 31 -40 0
38 -3 -35 0
-52 13 -75 0
-43 -60 -38 0
-64 59 41 0
-72 -10 -38 0
19 53 23 0
-19 -41 17 0
-42 64 26 0
70 77 -51 0
-32 -77 -6 0
74 41 -75 0
28 57 12 0
-32 25 -35 0
79 -66 -72 0
-60 43 2 0
-17 -37 79 0
42 -39 -15 0
73 -20 -45 0
50 76 -56 0
71 8 74 0
65 8 39 0
-20 -49 72 0
54 60 -15 0
-63 42 31 0
71 -1 -30 0
37 60 21 0
57 16 -72 0
-62 -55 27 0
-44 59 -40 0
-71 52 -18 0
47 -5 -53 0
-46 -10 -5 0
-62 60 -40 0
42 -23 17 0
-31 -14 -38 0
-73 13 -42 0
-14 2 -3 0
26 30 2 0
-34 79 -62 0
-54 -74 44 0
-40 45 1 0
-51 63 28 0
-23 8 -46 0
-31 27 4 0
3 9 -59 0
-70 65 -47 0
76 55 -70 0
13 32 36 0
-11 -26 -80 0
21 -54 67 0
62 24 78 0
-60 12 -76 0
37 -1 -5 0
-19 46 -48 0
11 23 21 0
4 -43 -46 0
-39 66 31 0
-63 -25 -27 0
-77 -54 53 0
-44 -7 59 0
52 26 -72 0
27 -9 66 0
-59 -26 -53 0
-58 -18 13 0
-53 27 -23 0
74 72 -9 0
-28 5 -10 0
-2 -71 14 0
28 52 -69 0
-75 43 33 0
11 -56 77 0
29 42 67 0
4 -33 41 0
-60 51 34 0
15 -46 44 0
-48 34 -75 0
-49 4 -17 0
-13 22 44 0
60 43 11 0
-50 -7 44 0
35 61 -62 0
-56 -66 71 0
-37 20 -17 0
-36 -7 -27 0
11 -57 -42 0
34 -55 71 0
72 -46 -74 0
80 23 46 0
18 36 75 0
22 12 -41 0
49 -50 68 0
30 -54 65 0
30 8 20 0
-74 -30 54 0
-79 54 50 0
-31 52 -7 0
-9 -29 -3 0
57 46 64 0
-66 38 -57 0
-5 36 32 0
-13 55 75 0
31 55 8 0
-57 -25 61 0
-24 10 -75 0
-62 -16 26 0
-58 -71 -17 0
8 36 9 0
26 4 76 0
69 -17 -49 0
22 17 -2 0
33 69 -36 0
75 -62 -48 0
32 51 -67 0
-9 4 60 0
-26 -50 76 0
-31 -26 -33 0
-9 30 34 0
50 -59 25 0
2 -65 -1 0
61 -7 -21 0
77 46 59 0
-47 45 -56 0
3 31 1 0
54 -19 -69 0
58 51 78 0
-13 77 -5 0
-66 -36 -17 0
-25 61 37 0
-17 -58 -31 0
14 61 33 0
5 79 44 0
66 -9 -7 0
73 43 -78 0
-66 -47 -12 0
-80 61 23 0
-25 59 -54 0
10 1 -54 0
61 -9 66 0
-33 18 4 0
60 -7 52 0
-40 -10 23 0
71 -40 23 0
-70 15 -2 0
58 2 39 0
-61 48 -60 0
65 -42 -46 0
-3 55 51 0
21 -35 -9 0
41 25 56 0
-20 12 -59 0
37 2 20 0
-30 -28 -77 0
74 78 -17 0
-18 -33 -80 0
13 -5 -1 0
17 -43 -37 0
-59 -54 76 0
44 29 39 0
-10 -75 -48 0
-45 -17 55 0
62 -47 44 0
31 21 34 0
-72 48 49 0
-13 47 10 0
2 -47 67 0
-46 67 -56 0
-25 -39 -23 0
52 -32 -36 0
-59 -31 47 0
72 12 44 0
-9 -11 40 0
-52 -40 -68 0
