c generated_for satsolver training
c category planted_random_3sat
c expected SAT
c notes near-threshold 3-SAT generated from a hidden satisfying assignment; seed=20260420 index=2
p cnf 60 255
33 -10 -60 0
-34 -39 59 0
60 -4 -15 0
41 -23 49 0
59 -27 18 0
31 3 -49 0
-37 6 8 0
40 -39 -17 0
59 47 21 0
51 -35 -34 0
46 35 59 0
57 48 55 0
23 43 34 0
15 -18 57 0
5 36 -41 0
-28 20 -34 0
-44 43 -15 0
49 31 8 0
33 57 -14 0
-47 53 49 0
-21 57 47 0
-1 -19 4 0
-44 -35 -46 0
-5 -49 57 0
-23 -41 35 0
50 33 51 0
-15 24 -59 0
-28 -53 -46 0
-55 -3 -29 0
-43 -40 -4 0
58 -25 36 0
32 4 -2 0
-24 -54 21 0
-33 34 3 0
-46 -38 -51 0
-30 -53 34 0
51 41 27 0
-46 38 -13 0
58 -22 -21 0
-30 44 -53 0
-12 -53 -23 0
-24 21 -60 0
12 17 -4 0
49 -37 16 0
9 21 -31 0
30 -58 46 0
-43 30 -4 0
-40 10 25 0
26 -57 -55 0
-57 -32 -56 0
26 -53 -14 0
-20 -14 -49 0
30 20 45 0
6 -42 -23 0
1 10 27 0
-31 -6 30 0
27 31 52 0
35 -54 -6 0
29 -44 23 0
-36 -29 15 0
16 27 -11 0
-17 -20 -56 0
52 -31 -40 0
37 -44 -30 0
-9 28 -40 0
11 -36 53 0
38 24 -11 0
36 53 13 0
-50 -15 42 0
-36 24 12 0
-52 -2 -60 0
45 19 -46 0
50 -42 22 0
51 40 28 0
34 10 -44 0
-14 -41 -60 0
-23 -10 -18 0
30 -39 16 0
58 26 34 0
-57 -8 44 0
-60 46 -55 0
37 -16 44 0
-35 57 58 0
16 -15 -48 0
-32 -1 19 0
-60 31 -1 0
-29 -7 11 0
13 27 -9 0
1 4 -17 0
56 49 -10 0
10 49 -33 0
-12 -58 -18 0
-4 -3 36 0
-25 -27 -42 0
60 59 21 0
-59 -43 -40 0
15 5 -60 0
-49 53 47 0
1 14 -10 0
-53 26 -57 0
26 -48 40 0
8 -11 -48 0
53 51 -38 0
38 18 19 0
42 -31 -48 0
37 -9 49 0
-47 50 60 0
-41 -56 -13 0
57 59 23 0
-49 -41 -51 0
-21 -40 -23 0
-54 22 24 0
-25 -12 -37 0
-22 -12 35 0
-6 -53 14 0
13 -11 -50 0
-16 35 -28 0
-40 4 -27 0
17 -9 -31 0
-31 -22 -57 0
26 -30 -48 0
-33 -24 -37 0
24 -40 53 0
51 13 -40 0
17 -26 -47 0
21 -59 -54 0
-53 51 12 0
-8 5 53 0
-23 -35 -33 0
31 -15 12 0
-23 25 -47 0
-36 55 -2 0
-58 42 -26 0
-8 36 41 0
43 10 56 0
18 -36 -5 0
-14 43 22 0
-5 -35 -57 0
-30 -31 37 0
32 -43 16 0
-5 -32 -42 0
-51 27 -58 0
-51 19 31 0
-13 -4 -16 0
4 -20 -49 0
-23 36 60 0
-18 36 25 0
53 -43 -13 0
-5 -4 36 0
4 -55 17 0
-35 -43 59 0
24 25 50 0
18 7 30 0
51 -16 14 0
-19 24 31 0
14 58 20 0
44 10 -21 0
25 7 53 0
38 7 48 0
-33 20 59 0
-31 58 57 0
-35 -52 10 0
-23 -9 -11 0
-3 -26 -8 0
24 38 -50 0
-39 -32 60 0
37 -13 52 0
-23 -7 -39 0
-32 -48 -57 0
23 -37 45 0
-23 44 -48 0
51 11 5 0
-49 31 19 0
48 -22 -49 0
-41 -51 35 0
45 -22 30 0
45 -51 34 0
32 9 -1 0
-10 9 -16 0
44 -35 33 0
-13 3 -20 0
-60 17 -2 0
-32 -16 -54 0
-6 39 -41 0
-2 -11 36 0
9 59 51 0
-22 -37 -4 0
54 31 -46 0
-7 -43 -19 0
27 22 28 0
-51 53 -43 0
-21 -4 -15 0
-20 -45 -30 0
-14 -1 60 0
-29 53 18 0
-43 -42 -15 0
31 57 -17 0
42 -35 -56 0
56 11 -36 0
57 51 55 0
-22 -54 15 0
-45 51 3 0
-53 -25 44 0
-48 -46 -13 0
39 -50 24 0
1 4 15 0
29 52 49 0
-6 -15 28 0
-29 -6 -16 0
30 38 32 0
-44 10 -25 0
24 12 59 0
-4 7 29 0
-4 -53 1 0
54 19 -29 0
3 -6 -32 0
-7 34 -60 0
-59 5 19 0
50 27 6 0
34 30 10 0
-18 41 -30 0
-20 3 -45 0
18 45 9 0
49 59 45 0
-38 45 47 0
-15 40 -31 0
-11 13 21 0
10 -16 -19 0
-38 7 -47 0
-54 19 45 0
13 -47 4 0
3 50 -14 0
21 -2 57 0
41 23 -31 0
-28 22 -2 0
-27 -1 -22 0
5 18 36 0
49 57 -43 0
12 13 -4 0
-33 -34 28 0
10 -12 -2 0
58 19 13 0
35 -53 28 0
20 43 24 0
4 2 -50 0
8 9 -16 0
-27 57 19 0
10 -40 -25 0
-21 53 -57 0
23 -44 -36 0
21 -18 -3 0
2 -37 22 0
42 -14 47 0
-7 49 23 0
-59 -29 -60 0
