c generated_for satsolver training
c category planted_random_3sat
c expected SAT
c notes near-threshold 3-SAT generated from a hidden satisfying assignment; seed=20260420 index=9
p cnf 30 128
-10 -2 -21 0
-16 27 -9 0
11 -8 5 0
-17 3 24 0
-8 -28 -9 0
30 19 2 0
7 -25 14 0
25 -18 28 0
-17 26 -10 0
16 -1 20 0
11 27 -2 0
-25 12 -11 0
-15 -17 -12 0
14 -15 -30 0
-4 30 14 0
27 -26 -29 0
12 24 -3 0
-30 -1 13 0
-15 5 28 0
28 19 -10 0
10 3 2 0
14 -12 22 0
21 22 20 0
21 -15 17 0
-21 -27 7 0
12 2 27 0
-10 24 -12 0
-29 -16 17 0
7 25 -11 0
-13 -4 16 0
25 15 -21 0
22 -9 19 0
15 19 2 0
24 12 -21 0
-2 -20 26 0
-7 -2 -17 0
-7 21 -29 0
4 10 7 0
1 16 10 0
9 17 26 0
-18 10 -14 0
-13 24 8 0
24 -23 -19 0
-3 9 -21 0
-3 12 17 0
10 29 -7 0
7 -28 -14 0
22 -30 26 0
29 10 4 0
30 -3 29 0
-11 6 -15 0
8 -25 -17 0
-6 1 -20 0
30 17 -21 0
13 -18 -8 0
-1 -22 9 0
-8 23 7 0
-20 6 1 0
1 -29 10 0
29 -17 1 0
-1 13 -18 0
6 16 -9 0
-27 16 -2 0
-3 17 15 0
25 4 10 0
20 -5 -23 0
2 -8 -24 0
-19 -23 -8 0
28 -22 -12 0
-11 25 -18 0
14 -22 -20 0
10 -25 23 0
-13 26 -12 0
9 14 -16 0
-5 -24 -15 0
-17 25 10 0
-20 -3 -21 0
27 15 7 0
3 -28 16 0
-3 -16 19 0
7 -2 -8 0
-24 -13 17 0
10 -24 -23 0
-6 12 24 0
30 -2 -16 0
12 24 14 0
22 -23 -14 0
-21 11 28 0
21 -29 20 0
-27 -19 -2 0
-17 -2 -26 0
-29 -7 -19 0
-25 16 -15 0
-27 20 7 0
4 21 7 0
26 28 -8 0
-29 10 -26 0
21 23 22 0
4 -5 29 0
18 21 -7 0
12 -3 -24 0
-30 -23 14 0
-18 -11 -3 0
29 16 -25 0
-13 16 23 0
-17 -6 20 0
23 10 -1 0
21 15 7 0
-13 30 -7 0
-10 11 23 0
20 19 15 0
-15 28 12 0
-7 10 -13 0
19 10 16 0
-13 -18 -19 0
-19 14 -30 0
22 -7 -9 0
27 20 2 0
7 -28 12 0
-4 -30 12 0
16 9 -8 0
10 16 -2 0
23 -7 28 0
13 24 29 0
18 3 28 0
7 -1 19 0
8 -13 27 0
29 8 14 0
