c generated_for satsolver training
c category planted_random_3sat
c expected SAT
c notes near-threshold 3-SAT generated from a hidden satisfying assignment; seed=20260420 index=6
p cnf 80 340
-68 -11 67 0
48 62 -50 0
-3 -50 17 0
-65 -55 -46 0
13 37 -18 0
15 -12 11 0
34 -45 -5 0
48 2 73 0
-26 74 -72 0
24 80 21 0
53 77 -8 0
1 -2 -67 0
-14 -42 45 0
-16 -46 66 0
48 27 15 0
-7 38 -72 0
-17 -72 -74 0
-56 -52 32 0
20 34 -38 0
52 67 -21 0
43 19 -41 0
-66 65 -80 0
1 -8 34 0
10 -18 -31 0
49 -45 -3 0
-60 54 -65 0
-42 -31 -2 0
-39 -68 70 0
-77 -21 -68 0
-22 7 -19 0
-39 -29 48 0
46 5 45 0
-37 25 55 0
-7 -42 26 0
37 44 -67 0
-65 52 -73 0
13 7 10 0
73 -29 46 0
-61 -34 32 0
-72 -57 28 0
-16 -6 -60 0
-15 73 -48 0
34 -31 -35 0
-58 50 -61 0
-33 -58 -48 0
43 -27 -49 0
3 52 -68 0
-78 56 -42 0
-53 -9 -71 0
44 -38 -66 0
36 -37 -56 0
-28 59 -33 0
-47 23 56 0
-66 -63 50 0
-18 -64 75 0
24 13 15 0
-30 -26 47 0
20 69 -27 0
68 -46 40 0
32 10 70 0
61 14 9 0
4 -35 -72 0
-42 -28 -45 0
24 39 -40 0
-78 38 43 0
69 61 30 0
-43 -61 79 0
-24 -48 -1 0
-7 80 21 0
-42 79 -80 0
-41 2 34 0
-37 -11 -21 0
-3 66 37 0
34 65 2 0
44 62 -46 0
-9 24 32 0
73 -11 40 0
-68 -56 11 0
24 50 -45 0
6 -14 36 0
-6 -29 -3 0
-7 62 -73 0
26 75 62 0
-79 -9 -41 0
-54 -8 -11 0
14 35 45 0
-10 11 23 0
-47 -57 -63 0
-58 -50 -57 0
74 -43 7 0
-37 -75 -28 0
-28 19 1 0
-29 -37 -71 0
50 5 -2 0
-28 46 58 0
-25 30 46 0
79 73 -55 0
-26 73 6 0
59 -36 -8 0
62 -8 -50 0
20 -57 -7 0
78 -60 59 0
-76 74 57 0
61 5 40 0
4 -66 3 0
-15 -43 -16 0
23 -1 -72 0
31 -10 -18 0
17 -38 62 0
33 -38 52 0
43 -29 -50 0
14 -55 62 0
45 79 60 0
4 40 23 0
6 -37 -21 0
22 -76 14 0
-56 -36 20 0
-53 -2 1 0
-22 6 -29 0
7 31 -32 0
4 -7 -47 0
-24 -27 -6 0
-35 24 45 0
5 -77 -20 0
-32 -47 15 0
14 -33 57 0
79 -35 2 0
-65 -69 -18 0
-6 -54 -70 0
-76 -39 -72 0
1 70 -9 0
-4 -58 -51 0
-32 27 -63 0
-19 -69 -5 0
32 -1 31 0
-15 -71 54 0
-41 8 -43 0
-53 -6 36 0
-24 -42 11 0
-54 -78 80 0
-38 -49 -67 0
11 -38 -58 0
15 -10 -80 0
12 39 -52 0
36 -61 12 0
10 25 52 0
-76 -26 -71 0
35 -12 54 0
29 10 20 0
-25 -5 63 0
-25 -34 -80 0
-17 -47 27 0
28 -35 -42 0
-53 37 22 0
40 -5 -65 0
-35 75 58 0
-51 43 3 0
66 -8 -74 0
39 38 44 0
61 -42 50 0
-59 5 46 0
-15 -63 -35 0
-10 80 -70 0
-21 31 59 0
-18 -42 75 0
34 -12 -58 0
-46 -75 47 0
-40 -58 -69 0
-53 -49 -10 0
-39 1 -29 0
-52 -67 41 0
73 -76 -10 0
56 28 -17 0
-61 -35 -47 0
-5 -17 71 0
-59 -9 -43 0
-18 8 3 0
-59 -48 -52 0
78 76 -71 0
34 27 -23 0
12 -27 -80 0
46 16 -3 0
-47 3 52 0
72 -33 44 0
23 74 -59 0
-49 -55 29 0
68 -20 -42 0
5 -71 -67 0
-29 -26 76 0
-39 36 59 0
51 57 53 0
54 -2 9 0
25 51 -58 0
17 -59 76 0
35 -31 -5 0
40 -34 29 0
-46 -52 49 0
53 37 -12 0
-16 43 15 0
35 73 -31 0
22 9 -80 0
-7 63 -50 0
-62 61 -59 0
-1 48 40 0
73 -7 -45 0
-27 -3 56 0
12 -58 68 0
-12 -19 -8 0
68 22 -26 0
16 58 -49 0
-29 -62 -23 0
71 48 -3 0
7 75 67 0
67 42 11 0
-20 25 19 0
16 -3 -45 0
42 51 76 0
49 -36 -29 0
51 -59 -57 0
67 -55 -35 0
-35 4 75 0
-21 71 45 0
46 54 -2 0
23 48 -45 0
51 -50 54 0
17 51 -18 0
-30 17 -1 0
-26 -57 -51 0
23 39 51 0
33 38 -59 0
52 72 80 0
-15 33 34 0
-17 24 -47 0
51 -8 -70 0
-1 58 16 0
12 -6 10 0
50 75 28 0
-17 72 -7 0
69 -9 61 0
-3 -74 12 0
-63 34 48 0
-1 -42 38 0
29 78 -60 0
-15 29 -47 0
-6 -40 34 0
-57 8 31 0
36 47 -71 0
37 14 64 0
-19 20 -25 0
-43 13 45 0
-67 43 -38 0
-43 -21 -50 0
17 -25 36 0
32 -48 29 0
-10 5 -69 0
67 -6 -46 0
13 69 -80 0
7 -62 52 0
17 -62 -63 0
78 74 -46 0
5 48 14 0
-12 57 -58 0
39 76 -15 0
-64 39 -45 0
-53 -36 -60 0
-26 74 -33 0
-72 -16 45 0
-51 -14 41 0
-70 -61 55 0
-40 31 -39 0
77 19 51 0
55 -50 -4 0
-51 18 -14 0
27 -12 -65 0
61 -62 -58 0
-50 -62 8 0
42 -32 -58 0
-44 45 -68 0
-22 -74 3 0
73 -40 78 0
46 -10 -24 0
-51 -14 -6 0
-34 -77 35 0
76 -46 -49 0
33 24 -7 0
-43 47 -3 0
66 -61 23 0
-25 17 -55 0
14 -23 -50 0
31 46 -40 0
-24 60 66 0
35 -71 -14 0
23 60 75 0
-70 11 31 0
-35 3 -50 0
-18 56 67 0
15 47 -61 0
58 -52 57 0
80 71 45 0
-11 -56 49 0
50 22 73 0
63 77 -8 0
28 2 -62 0
51 -61 -45 0
43 -38 1 0
35 10 -16 0
-77 36 -78 0
-17 62 -28 0
50 14 -51 0
-46 21 60 0
-18 42 -64 0
4 -70 57 0
-26 -78 -30 0
40 -24 -37 0
-25 61 71 0
80 -10 47 0
-64 55 -17 0
39 -70 51 0
13 45 63 0
74 29 -34 0
-55 -58 73 0
-66 36 50 0
-36 -67 -37 0
-20 -16 -65 0
-32 -61 43 0
19 23 68 0
55 35 -50 0
-76 30 -20 0
44 -46 -63 0
-79 74 2 0
-29 -24 -65 0
-5 34 80 0
35 4 11 0
3 -18 10 0
-57 -43 -72 0
-67 30 60 0
-43 -25 -42 0
73 21 7 0
-29 37 -34 0
53 -78 -30 0
