c generated_for satsolver training
c category planted_random_3sat
c expected SAT
c notes near-threshold 3-SAT generated from a hidden satisfying assignment; seed=20260420 index=5
p cnf 40 170
-3 -34 -14 0
-35 31 29 0
-1 -23 13 0
-1 4 38 0
-28 -14 9 0
-28 -4 -15 0
23 9 -30 0
-19 -9 40 0
37 -22 -3 0
1 22 -19 0
-39 -9 19 0
-30 13 -23 0
-20 -30 -21 0
-29 -13 31 0
-16 2 -33 0
39 13 14 0
32 18 38 0
-40 -18 -36 0
-36 7 37 0
-40 -6 -26 0
-40 8 -35 0
-8 -15 6 0
-36 2 17 0
20 -28 -9 0
-16 -30 25 0
29 27 -11 0
17 24 36 0
-20 -10 15 0
-14 -6 38 0
37 -28 27 0
-5 -16 39 0
-20 28 -40 0
13 -17 29 0
17 -8 -40 0
12 36 22 0
37 23 -6 0
-8 20 -25 0
36 13 30 0
23 -32 17 0
-27 -7 -20 0
-27 35 -37 0
39 -30 2 0
-30 -14 -20 0
28 2 23 0
22 21 5 0
-19 -20 -15 0
-10 4 -25 0
17 15 4 0
37 -19 31 0
-32 3 17 0
19 -10 -36 0
37 -16 -3 0
40 21 27 0
-14 -6 -24 0
3 -30 -12 0
-18 24 26 0
6 32 18 0
-18 -26 -13 0
2 -15 10 0
33 -20 37 0
-9 -22 34 0
-24 4 -26 0
7 17 1 0
-11 40 8 0
6 -40 37 0
-6 24 -35 0
3 -40 -18 0
13 16 -24 0
13 -17 -30 0
36 -6 -24 0
-23 -22 -20 0
-16 6 40 0
-30 37 -28 0
-40 -28 -10 0
-6 -22 -2 0
-19 -32 -40 0
-14 22 -27 0
-7 -9 -27 0
-25 13 6 0
-12 9 10 0
-34 4 -37 0
-20 -12 -13 0
8 38 -16 0
34 -7 21 0
-7 3 22 0
-18 -5 4 0
29 7 -2 0
-28 4 20 0
8 25 7 0
30 -38 4 0
22 -4 -19 0
-23 5 -10 0
-35 -3 -11 0
-11 -29 21 0
8 29 39 0
37 9 -30 0
-25 -32 19 0
23 21 -1 0
-12 -38 5 0
-32 -10 1 0
20 -9 -30 0
-4 29 -35 0
24 31 23 0
30 -35 38 0
2 -35 -10 0
-39 -33 5 0
-9 -7 -8 0
-15 9 5 0
14 33 -25 0
10 -19 22 0
9 16 36 0
25 35 39 0
-31 21 -3 0
5 -34 -26 0
-27 13 2 0
-11 -35 31 0
-20 -12 -6 0
40 17 -37 0
-26 -6 4 0
-19 10 -36 0
4 35 39 0
29 -8 37 0
-35 22 -9 0
-8 39 -34 0
39 -23 17 0
-2 27 18 0
-28 21 -40 0
-3 19 -21 0
38 32 -3 0
-22 5 6 0
23 18 -29 0
-16 36 -23 0
35 14 -13 0
-28 27 30 0
20 13 15 0
2 25 -10 0
-2 -28 -6 0
-25 40 -10 0
-34 8 -3 0
16 -34 -3 0
-31 33 36 0
-9 36 33 0
33 19 38 0
-19 -27 5 0
36 7 -26 0
14 -7 18 0
-4 -20 -31 0
-19 -14 -20 0
28 2 -31 0
-11 -14 25 0
13 2 17 0
-12 -18 15 0
11 1 14 0
12 5 19 0
-4 -23 34 0
30 -15 -33 0
39 -7 -38 0
32 -2 34 0
1 13 -9 0
-20 -21 10 0
-24 32 -22 0
-3 35 -12 0
11 38 26 0
34 15 19 0
32 28 12 0
-38 14 22 0
-15 -19 4 0
-1 38 17 0
-5 -23 -34 0
8 39 28 0
