c generated_for satsolver training
c category xor_parity_cnf
c expected SAT
c notes XOR equations encoded to CNF; width=4; consistent with a hidden assignment
p cnf 48 224
4 13 24 -37 0
4 13 -24 37 0
4 -13 24 37 0
4 -13 -24 -37 0
-4 13 24 37 0
-4 13 -24 -37 0
-4 -13 24 -37 0
-4 -13 -24 37 0
5 22 35 44 0
5 22 -35 -44 0
5 -22 35 -44 0
5 -22 -35 44 0
-5 22 35 -44 0
-5 22 -35 44 0
-5 -22 35 44 0
-5 -22 -35 -44 0
3 4 9 34 0
3 4 -9 -34 0
3 -4 9 -34 0
3 -4 -9 34 0
-3 4 9 -34 0
-3 4 -9 34 0
-3 -4 9 34 0
-3 -4 -9 -34 0
4 11 15 -36 0
4 11 -15 36 0
4 -11 15 36 0
4 -11 -15 -36 0
-4 11 15 36 0
-4 11 -15 -36 0
-4 -11 15 -36 0
-4 -11 -15 36 0
10 28 31 -37 0
10 28 -31 37 0
10 -28 31 37 0
10 -28 -31 -37 0
-10 28 31 37 0
-10 28 -31 -37 0
-10 -28 31 -37 0
-10 -28 -31 37 0
7 20 33 -48 0
7 20 -33 48 0
7 -20 33 48 0
7 -20 -33 -48 0
-7 20 33 48 0
-7 20 -33 -48 0
-7 -20 33 -48 0
-7 -20 -33 48 0
3 7 17 -26 0
3 7 -17 26 0
3 -7 17 26 0
3 -7 -17 -26 0
-3 7 17 26 0
-3 7 -17 -26 0
-3 -7 17 -26 0
-3 -7 -17 26 0
2 4 20 27 0
2 4 -20 -27 0
2 -4 20 -27 0
2 -4 -20 27 0
-2 4 20 -27 0
-2 4 -20 27 0
-2 -4 20 27 0
-2 -4 -20 -27 0
13 15 20 48 0
13 15 -20 -48 0
13 -15 20 -48 0
13 -15 -20 48 0
-13 15 20 -48 0
-13 15 -20 48 0
-13 -15 20 48 0
-13 -15 -20 -48 0
6 7 24 43 0
6 7 -24 -43 0
6 -7 24 -43 0
6 -7 -24 43 0
-6 7 24 -43 0
-6 7 -24 43 0
-6 -7 24 43 0
-6 -7 -24 -43 0
25 26 27 -43 0
25 26 -27 43 0
25 -26 27 43 0
25 -26 -27 -43 0
-25 26 27 43 0
-25 26 -27 -43 0
-25 -26 27 -43 0
-25 -26 -27 43 0
3 4 45 48 0
3 4 -45 -48 0
3 -4 45 -48 0
3 -4 -45 48 0
-3 4 45 -48 0
-3 4 -45 48 0
-3 -4 45 48 0
-3 -4 -45 -48 0
5 13 14 -19 0
5 13 -14 19 0
5 -13 14 19 0
5 -13 -14 -19 0
-5 13 14 19 0
-5 13 -14 -19 0
-5 -13 14 -19 0
-5 -13 -14 19 0
11 12 24 -48 0
11 12 -24 48 0
11 -12 24 48 0
11 -12 -24 -48 0
-11 12 24 48 0
-11 12 -24 -48 0
-11 -12 24 -48 0
-11 -12 -24 48 0
7 14 15 -36 0
7 14 -15 36 0
7 -14 15 36 0
7 -14 -15 -36 0
-7 14 15 36 0
-7 14 -15 -36 0
-7 -14 15 -36 0
-7 -14 -15 36 0
3 31 36 47 0
3 31 -36 -47 0
3 -31 36 -47 0
3 -31 -36 47 0
-3 31 36 -47 0
-3 31 -36 47 0
-3 -31 36 47 0
-3 -31 -36 -47 0
2 4 41 -44 0
2 4 -41 44 0
2 -4 41 44 0
2 -4 -41 -44 0
-2 4 41 44 0
-2 4 -41 -44 0
-2 -4 41 -44 0
-2 -4 -41 44 0
9 15 42 47 0
9 15 -42 -47 0
9 -15 42 -47 0
9 -15 -42 47 0
-9 15 42 -47 0
-9 15 -42 47 0
-9 -15 42 47 0
-9 -15 -42 -47 0
1 8 12 33 0
1 8 -12 -33 0
1 -8 12 -33 0
1 -8 -12 33 0
-1 8 12 -33 0
-1 8 -12 33 0
-1 -8 12 33 0
-1 -8 -12 -33 0
16 17 37 -43 0
16 17 -37 43 0
16 -17 37 43 0
16 -17 -37 -43 0
-16 17 37 43 0
-16 17 -37 -43 0
-16 -17 37 -43 0
-16 -17 -37 43 0
5 9 28 -37 0
5 9 -28 37 0
5 -9 28 37 0
5 -9 -28 -37 0
-5 9 28 37 0
-5 9 -28 -37 0
-5 -9 28 -37 0
-5 -9 -28 37 0
7 15 25 37 0
7 15 -25 -37 0
7 -15 25 -37 0
7 -15 -25 37 0
-7 15 25 -37 0
-7 15 -25 37 0
-7 -15 25 37 0
-7 -15 -25 -37 0
13 25 29 -37 0
13 25 -29 37 0
13 -25 29 37 0
13 -25 -29 -37 0
-13 25 29 37 0
-13 25 -29 -37 0
-13 -25 29 -37 0
-13 -25 -29 37 0
14 21 22 -33 0
14 21 -22 33 0
14 -21 22 33 0
14 -21 -22 -33 0
-14 21 22 33 0
-14 21 -22 -33 0
-14 -21 22 -33 0
-14 -21 -22 33 0
17 18 22 -27 0
17 18 -22 27 0
17 -18 22 27 0
17 -18 -22 -27 0
-17 18 22 27 0
-17 18 -22 -27 0
-17 -18 22 -27 0
-17 -18 -22 27 0
2 8 19 25 0
2 8 -19 -25 0
2 -8 19 -25 0
2 -8 -19 25 0
-2 8 19 -25 0
-2 8 -19 25 0
-2 -8 19 25 0
-2 -8 -19 -25 0
10 12 14 -23 0
10 12 -14 23 0
10 -12 14 23 0
10 -12 -14 -23 0
-10 12 14 23 0
-10 12 -14 -23 0
-10 -12 14 -23 0
-10 -12 -14 23 0
20 24 31 37 0
20 24 -31 -37 0
20 -24 31 -37 0
20 -24 -31 37 0
-20 24 31 -37 0
-20 24 -31 37 0
-20 -24 31 37 0
-20 -24 -31 -37 0
