c generated_for satsolver training
c category xor_parity_cnf
c expected UNSAT
c notes contains contradictory XOR constraints on variables [1, 2, 3]
p cnf 18 48
9 10 -16 0
9 -10 16 0
-9 10 16 0
-9 -10 -16 0
7 13 17 0
7 -13 -17 0
-7 13 -17 0
-7 -13 17 0
4 8 -9 0
4 -8 9 0
-4 8 9 0
-4 -8 -9 0
2 15 17 0
2 -15 -17 0
-2 15 -17 0
-2 -15 17 0
2 3 16 0
2 -3 -16 0
-2 3 -16 0
-2 -3 16 0
3 13 -15 0
3 -13 15 0
-3 13 15 0
-3 -13 -15 0
6 15 17 0
6 -15 -17 0
-6 15 -17 0
-6 -15 17 0
2 15 -16 0
2 -15 16 0
-2 15 16 0
-2 -15 -16 0
1 2 6 0
1 -2 -6 0
-1 2 -6 0
-1 -2 6 0
5 7 15 0
5 -7 -15 0
-5 7 -15 0
-5 -7 15 0
1 2 -3 0
1 -2 3 0
-1 2 3 0
-1 -2 -3 0
1 2 3 0
1 -2 -3 0
-1 2 -3 0
-1 -2 3 0
