c generated_for satsolver training
c category xor_parity_cnf
c expected UNSAT
c notes contains contradictory XOR constraints on variables [1, 2, 3]
p cnf 30 80
19 21 -28 0
19 -21 28 0
-19 21 28 0
-19 -21 -28 0
3 11 24 0
3 -11 -24 0
-3 11 -24 0
-3 -11 24 0
23 26 30 0
23 -26 -30 0
-23 26 -30 0
-23 -26 30 0
5 16 19 0
5 -16 -19 0
-5 16 -19 0
-5 -16 19 0
2 12 -17 0
2 -12 17 0
-2 12 17 0
-2 -12 -17 0
19 25 29 0
19 -25 -29 0
-19 25 -29 0
-19 -25 29 0
2 21 26 0
2 -21 -26 0
-2 21 -26 0
-2 -21 26 0
3 6 -8 0
3 -6 8 0
-3 6 8 0
-3 -6 -8 0
4 18 -30 0
4 -18 30 0
-4 18 30 0
-4 -18 -30 0
1 8 -13 0
1 -8 13 0
-1 8 13 0
-1 -8 -13 0
11 12 -24 0
11 -12 24 0
-11 12 24 0
-11 -12 -24 0
1 5 -19 0
1 -5 19 0
-1 5 19 0
-1 -5 -19 0
5 9 -25 0
5 -9 25 0
-5 9 25 0
-5 -9 -25 0
9 18 30 0
9 -18 -30 0
-9 18 -30 0
-9 -18 30 0
15 17 -27 0
15 -17 27 0
-15 17 27 0
-15 -17 -27 0
7 10 -20 0
7 -10 20 0
-7 10 20 0
-7 -10 -20 0
3 17 -24 0
3 -17 24 0
-3 17 24 0
-3 -17 -24 0
14 18 -22 0
14 -18 22 0
-14 18 22 0
-14 -18 -22 0
1 2 -3 0
1 -2 3 0
-1 2 3 0
-1 -2 -3 0
1 2 3 0
1 -2 -3 0
-1 2 -3 0
-1 -2 3 0
