c generated_for formulae_like_variant benchmark
c dataset formulae_like_01
c variant 1
c seed_base 20270601
c family graph_coloring
c expected_status SAT
c notes 500-variable planted 4-coloring
p cnf 500 1875
1 2 3 4 0
-1 -2 0
-1 -3 0
-1 -4 0
-2 -3 0
-2 -4 0
-3 -4 0
5 6 7 8 0
-5 -6 0
-5 -7 0
-5 -8 0
-6 -7 0
-6 -8 0
-7 -8 0
9 10 11 12 0
-9 -10 0
-9 -11 0
-9 -12 0
-10 -11 0
-10 -12 0
-11 -12 0
13 14 15 16 0
-13 -14 0
-13 -15 0
-13 -16 0
-14 -15 0
-14 -16 0
-15 -16 0
17 18 19 20 0
-17 -18 0
-17 -19 0
-17 -20 0
-18 -19 0
-18 -20 0
-19 -20 0
21 22 23 24 0
-21 -22 0
-21 -23 0
-21 -24 0
-22 -23 0
-22 -24 0
-23 -24 0
25 26 27 28 0
-25 -26 0
-25 -27 0
-25 -28 0
-26 -27 0
-26 -28 0
-27 -28 0
29 30 31 32 0
-29 -30 0
-29 -31 0
-29 -32 0
-30 -31 0
-30 -32 0
-31 -32 0
33 34 35 36 0
-33 -34 0
-33 -35 0
-33 -36 0
-34 -35 0
-34 -36 0
-35 -36 0
37 38 39 40 0
-37 -38 0
-37 -39 0
-37 -40 0
-38 -39 0
-38 -40 0
-39 -40 0
41 42 43 44 0
-41 -42 0
-41 -43 0
-41 -44 0
-42 -43 0
-42 -44 0
-43 -44 0
45 46 47 48 0
-45 -46 0
-45 -47 0
-45 -48 0
-46 -47 0
-46 -48 0
-47 -48 0
49 50 51 52 0
-49 -50 0
-49 -51 0
-49 -52 0
-50 -51 0
-50 -52 0
-51 -52 0
53 54 55 56 0
-53 -54 0
-53 -55 0
-53 -56 0
-54 -55 0
-54 -56 0
-55 -56 0
57 58 59 60 0
-57 -58 0
-57 -59 0
-57 -60 0
-58 -59 0
-58 -60 0
-59 -60 0
61 62 63 64 0
-61 -62 0
-61 -63 0
-61 -64 0
-62 -63 0
-62 -64 0
-63 -64 0
65 66 67 68 0
-65 -66 0
-65 -67 0
-65 -68 0
-66 -67 0
-66 -68 0
-67 -68 0
69 70 71 72 0
-69 -70 0
-69 -71 0
-69 -72 0
-70 -71 0
-70 -72 0
-71 -72 0
73 74 75 76 0
-73 -74 0
-73 -75 0
-73 -76 0
-74 -75 0
-74 -76 0
-75 -76 0
77 78 79 80 0
-77 -78 0
-77 -79 0
-77 -80 0
-78 -79 0
-78 -80 0
-79 -80 0
81 82 83 84 0
-81 -82 0
-81 -83 0
-81 -84 0
-82 -83 0
-82 -84 0
-83 -84 0
85 86 87 88 0
-85 -86 0
-85 -87 0
-85 -88 0
-86 -87 0
-86 -88 0
-87 -88 0
89 90 91 92 0
-89 -90 0
-89 -91 0
-89 -92 0
-90 -91 0
-90 -92 0
-91 -92 0
93 94 95 96 0
-93 -94 0
-93 -95 0
-93 -96 0
-94 -95 0
-94 -96 0
-95 -96 0
97 98 99 100 0
-97 -98 0
-97 -99 0
-97 -100 0
-98 -99 0
-98 -100 0
-99 -100 0
101 102 103 104 0
-101 -102 0
-101 -103 0
-101 -104 0
-102 -103 0
-102 -104 0
-103 -104 0
105 106 107 108 0
-105 -106 0
-105 -107 0
-105 -108 0
-106 -107 0
-106 -108 0
-107 -108 0
109 110 111 112 0
-109 -110 0
-109 -111 0
-109 -112 0
-110 -111 0
-110 -112 0
-111 -112 0
113 114 115 116 0
-113 -114 0
-113 -115 0
-113 -116 0
-114 -115 0
-114 -116 0
-115 -116 0
117 118 119 120 0
-117 -118 0
-117 -119 0
-117 -120 0
-118 -119 0
-118 -120 0
-119 -120 0
121 122 123 124 0
-121 -122 0
-121 -123 0
-121 -124 0
-122 -123 0
-122 -124 0
-123 -124 0
125 126 127 128 0
-125 -126 0
-125 -127 0
-125 -128 0
-126 -127 0
-126 -128 0
-127 -128 0
129 130 131 132 0
-129 -130 0
-129 -131 0
-129 -132 0
-130 -131 0
-130 -132 0
-131 -132 0
133 134 135 136 0
-133 -134 0
-133 -135 0
-133 -136 0
-134 -135 0
-134 -136 0
-135 -136 0
137 138 139 140 0
-137 -138 0
-137 -139 0
-137 -140 0
-138 -139 0
-138 -140 0
-139 -140 0
141 142 143 144 0
-141 -142 0
-141 -143 0
-141 -144 0
-142 -143 0
-142 -144 0
-143 -144 0
145 146 147 148 0
-145 -146 0
-145 -147 0
-145 -148 0
-146 -147 0
-146 -148 0
-147 -148 0
149 150 151 152 0
-149 -150 0
-149 -151 0
-149 -152 0
-150 -151 0
-150 -152 0
-151 -152 0
153 154 155 156 0
-153 -154 0
-153 -155 0
-153 -156 0
-154 -155 0
-154 -156 0
-155 -156 0
157 158 159 160 0
-157 -158 0
-157 -159 0
-157 -160 0
-158 -159 0
-158 -160 0
-159 -160 0
161 162 163 164 0
-161 -162 0
-161 -163 0
-161 -164 0
-162 -163 0
-162 -164 0
-163 -164 0
165 166 167 168 0
-165 -166 0
-165 -167 0
-165 -168 0
-166 -167 0
-166 -168 0
-167 -168 0
169 170 171 172 0
-169 -170 0
-169 -171 0
-169 -172 0
-170 -171 0
-170 -172 0
-171 -172 0
173 174 175 176 0
-173 -174 0
-173 -175 0
-173 -176 0
-174 -175 0
-174 -176 0
-175 -176 0
177 178 179 180 0
-177 -178 0
-177 -179 0
-177 -180 0
-178 -179 0
-178 -180 0
-179 -180 0
181 182 183 184 0
-181 -182 0
-181 -183 0
-181 -184 0
-182 -183 0
-182 -184 0
-183 -184 0
185 186 187 188 0
-185 -186 0
-185 -187 0
-185 -188 0
-186 -187 0
-186 -188 0
-187 -188 0
189 190 191 192 0
-189 -190 0
-189 -191 0
-189 -192 0
-190 -191 0
-190 -192 0
-191 -192 0
193 194 195 196 0
-193 -194 0
-193 -195 0
-193 -196 0
-194 -195 0
-194 -196 0
-195 -196 0
197 198 199 200 0
-197 -198 0
-197 -199 0
-197 -200 0
-198 -199 0
-198 -200 0
-199 -200 0
201 202 203 204 0
-201 -202 0
-201 -203 0
-201 -204 0
-202 -203 0
-202 -204 0
-203 -204 0
205 206 207 208 0
-205 -206 0
-205 -207 0
-205 -208 0
-206 -207 0
-206 -208 0
-207 -208 0
209 210 211 212 0
-209 -210 0
-209 -211 0
-209 -212 0
-210 -211 0
-210 -212 0
-211 -212 0
213 214 215 216 0
-213 -214 0
-213 -215 0
-213 -216 0
-214 -215 0
-214 -216 0
-215 -216 0
217 218 219 220 0
-217 -218 0
-217 -219 0
-217 -220 0
-218 -219 0
-218 -220 0
-219 -220 0
221 222 223 224 0
-221 -222 0
-221 -223 0
-221 -224 0
-222 -223 0
-222 -224 0
-223 -224 0
225 226 227 228 0
-225 -226 0
-225 -227 0
-225 -228 0
-226 -227 0
-226 -228 0
-227 -228 0
229 230 231 232 0
-229 -230 0
-229 -231 0
-229 -232 0
-230 -231 0
-230 -232 0
-231 -232 0
233 234 235 236 0
-233 -234 0
-233 -235 0
-233 -236 0
-234 -235 0
-234 -236 0
-235 -236 0
237 238 239 240 0
-237 -238 0
-237 -239 0
-237 -240 0
-238 -239 0
-238 -240 0
-239 -240 0
241 242 243 244 0
-241 -242 0
-241 -243 0
-241 -244 0
-242 -243 0
-242 -244 0
-243 -244 0
245 246 247 248 0
-245 -246 0
-245 -247 0
-245 -248 0
-246 -247 0
-246 -248 0
-247 -248 0
249 250 251 252 0
-249 -250 0
-249 -251 0
-249 -252 0
-250 -251 0
-250 -252 0
-251 -252 0
253 254 255 256 0
-253 -254 0
-253 -255 0
-253 -256 0
-254 -255 0
-254 -256 0
-255 -256 0
257 258 259 260 0
-257 -258 0
-257 -259 0
-257 -260 0
-258 -259 0
-258 -260 0
-259 -260 0
261 262 263 264 0
-261 -262 0
-261 -263 0
-261 -264 0
-262 -263 0
-262 -264 0
-263 -264 0
265 266 267 268 0
-265 -266 0
-265 -267 0
-265 -268 0
-266 -267 0
-266 -268 0
-267 -268 0
269 270 271 272 0
-269 -270 0
-269 -271 0
-269 -272 0
-270 -271 0
-270 -272 0
-271 -272 0
273 274 275 276 0
-273 -274 0
-273 -275 0
-273 -276 0
-274 -275 0
-274 -276 0
-275 -276 0
277 278 279 280 0
-277 -278 0
-277 -279 0
-277 -280 0
-278 -279 0
-278 -280 0
-279 -280 0
281 282 283 284 0
-281 -282 0
-281 -283 0
-281 -284 0
-282 -283 0
-282 -284 0
-283 -284 0
285 286 287 288 0
-285 -286 0
-285 -287 0
-285 -288 0
-286 -287 0
-286 -288 0
-287 -288 0
289 290 291 292 0
-289 -290 0
-289 -291 0
-289 -292 0
-290 -291 0
-290 -292 0
-291 -292 0
293 294 295 296 0
-293 -294 0
-293 -295 0
-293 -296 0
-294 -295 0
-294 -296 0
-295 -296 0
297 298 299 300 0
-297 -298 0
-297 -299 0
-297 -300 0
-298 -299 0
-298 -300 0
-299 -300 0
301 302 303 304 0
-301 -302 0
-301 -303 0
-301 -304 0
-302 -303 0
-302 -304 0
-303 -304 0
305 306 307 308 0
-305 -306 0
-305 -307 0
-305 -308 0
-306 -307 0
-306 -308 0
-307 -308 0
309 310 311 312 0
-309 -310 0
-309 -311 0
-309 -312 0
-310 -311 0
-310 -312 0
-311 -312 0
313 314 315 316 0
-313 -314 0
-313 -315 0
-313 -316 0
-314 -315 0
-314 -316 0
-315 -316 0
317 318 319 320 0
-317 -318 0
-317 -319 0
-317 -320 0
-318 -319 0
-318 -320 0
-319 -320 0
321 322 323 324 0
-321 -322 0
-321 -323 0
-321 -324 0
-322 -323 0
-322 -324 0
-323 -324 0
325 326 327 328 0
-325 -326 0
-325 -327 0
-325 -328 0
-326 -327 0
-326 -328 0
-327 -328 0
329 330 331 332 0
-329 -330 0
-329 -331 0
-329 -332 0
-330 -331 0
-330 -332 0
-331 -332 0
333 334 335 336 0
-333 -334 0
-333 -335 0
-333 -336 0
-334 -335 0
-334 -336 0
-335 -336 0
337 338 339 340 0
-337 -338 0
-337 -339 0
-337 -340 0
-338 -339 0
-338 -340 0
-339 -340 0
341 342 343 344 0
-341 -342 0
-341 -343 0
-341 -344 0
-342 -343 0
-342 -344 0
-343 -344 0
345 346 347 348 0
-345 -346 0
-345 -347 0
-345 -348 0
-346 -347 0
-346 -348 0
-347 -348 0
349 350 351 352 0
-349 -350 0
-349 -351 0
-349 -352 0
-350 -351 0
-350 -352 0
-351 -352 0
353 354 355 356 0
-353 -354 0
-353 -355 0
-353 -356 0
-354 -355 0
-354 -356 0
-355 -356 0
357 358 359 360 0
-357 -358 0
-357 -359 0
-357 -360 0
-358 -359 0
-358 -360 0
-359 -360 0
361 362 363 364 0
-361 -362 0
-361 -363 0
-361 -364 0
-362 -363 0
-362 -364 0
-363 -364 0
365 366 367 368 0
-365 -366 0
-365 -367 0
-365 -368 0
-366 -367 0
-366 -368 0
-367 -368 0
369 370 371 372 0
-369 -370 0
-369 -371 0
-369 -372 0
-370 -371 0
-370 -372 0
-371 -372 0
373 374 375 376 0
-373 -374 0
-373 -375 0
-373 -376 0
-374 -375 0
-374 -376 0
-375 -376 0
377 378 379 380 0
-377 -378 0
-377 -379 0
-377 -380 0
-378 -379 0
-378 -380 0
-379 -380 0
381 382 383 384 0
-381 -382 0
-381 -383 0
-381 -384 0
-382 -383 0
-382 -384 0
-383 -384 0
385 386 387 388 0
-385 -386 0
-385 -387 0
-385 -388 0
-386 -387 0
-386 -388 0
-387 -388 0
389 390 391 392 0
-389 -390 0
-389 -391 0
-389 -392 0
-390 -391 0
-390 -392 0
-391 -392 0
393 394 395 396 0
-393 -394 0
-393 -395 0
-393 -396 0
-394 -395 0
-394 -396 0
-395 -396 0
397 398 399 400 0
-397 -398 0
-397 -399 0
-397 -400 0
-398 -399 0
-398 -400 0
-399 -400 0
401 402 403 404 0
-401 -402 0
-401 -403 0
-401 -404 0
-402 -403 0
-402 -404 0
-403 -404 0
405 406 407 408 0
-405 -406 0
-405 -407 0
-405 -408 0
-406 -407 0
-406 -408 0
-407 -408 0
409 410 411 412 0
-409 -410 0
-409 -411 0
-409 -412 0
-410 -411 0
-410 -412 0
-411 -412 0
413 414 415 416 0
-413 -414 0
-413 -415 0
-413 -416 0
-414 -415 0
-414 -416 0
-415 -416 0
417 418 419 420 0
-417 -418 0
-417 -419 0
-417 -420 0
-418 -419 0
-418 -420 0
-419 -420 0
421 422 423 424 0
-421 -422 0
-421 -423 0
-421 -424 0
-422 -423 0
-422 -424 0
-423 -424 0
425 426 427 428 0
-425 -426 0
-425 -427 0
-425 -428 0
-426 -427 0
-426 -428 0
-427 -428 0
429 430 431 432 0
-429 -430 0
-429 -431 0
-429 -432 0
-430 -431 0
-430 -432 0
-431 -432 0
433 434 435 436 0
-433 -434 0
-433 -435 0
-433 -436 0
-434 -435 0
-434 -436 0
-435 -436 0
437 438 439 440 0
-437 -438 0
-437 -439 0
-437 -440 0
-438 -439 0
-438 -440 0
-439 -440 0
441 442 443 444 0
-441 -442 0
-441 -443 0
-441 -444 0
-442 -443 0
-442 -444 0
-443 -444 0
445 446 447 448 0
-445 -446 0
-445 -447 0
-445 -448 0
-446 -447 0
-446 -448 0
-447 -448 0
449 450 451 452 0
-449 -450 0
-449 -451 0
-449 -452 0
-450 -451 0
-450 -452 0
-451 -452 0
453 454 455 456 0
-453 -454 0
-453 -455 0
-453 -456 0
-454 -455 0
-454 -456 0
-455 -456 0
457 458 459 460 0
-457 -458 0
-457 -459 0
-457 -460 0
-458 -459 0
-458 -460 0
-459 -460 0
461 462 463 464 0
-461 -462 0
-461 -463 0
-461 -464 0
-462 -463 0
-462 -464 0
-463 -464 0
465 466 467 468 0
-465 -466 0
-465 -467 0
-465 -468 0
-466 -467 0
-466 -468 0
-467 -468 0
469 470 471 472 0
-469 -470 0
-469 -471 0
-469 -472 0
-470 -471 0
-470 -472 0
-471 -472 0
473 474 475 476 0
-473 -474 0
-473 -475 0
-473 -476 0
-474 -475 0
-474 -476 0
-475 -476 0
477 478 479 480 0
-477 -478 0
-477 -479 0
-477 -480 0
-478 -479 0
-478 -480 0
-479 -480 0
481 482 483 484 0
-481 -482 0
-481 -483 0
-481 -484 0
-482 -483 0
-482 -484 0
-483 -484 0
485 486 487 488 0
-485 -486 0
-485 -487 0
-485 -488 0
-486 -487 0
-486 -488 0
-487 -488 0
489 490 491 492 0
-489 -490 0
-489 -491 0
-489 -492 0
-490 -491 0
-490 -492 0
-491 -492 0
493 494 495 496 0
-493 -494 0
-493 -495 0
-493 -496 0
-494 -495 0
-494 -496 0
-495 -496 0
497 498 499 500 0
-497 -498 0
-497 -499 0
-497 -500 0
-498 -499 0
-498 -500 0
-499 -500 0
-297 -305 0
-298 -306 0
-299 -307 0
-300 -308 0
-13 -153 0
-14 -154 0
-15 -155 0
-16 -156 0
-5 -61 0
-6 -62 0
-7 -63 0
-8 -64 0
-93 -257 0
-94 -258 0
-95 -259 0
-96 -260 0
-277 -317 0
-278 -318 0
-279 -319 0
-280 -320 0
-37 -269 0
-38 -270 0
-39 -271 0
-40 -272 0
-97 -217 0
-98 -218 0
-99 -219 0
-100 -220 0
-33 -189 0
-34 -190 0
-35 -191 0
-36 -192 0
-17 -173 0
-18 -174 0
-19 -175 0
-20 -176 0
-281 -317 0
-282 -318 0
-283 -319 0
-284 -320 0
-81 -261 0
-82 -262 0
-83 -263 0
-84 -264 0
-385 -413 0
-386 -414 0
-387 -415 0
-388 -416 0
-153 -261 0
-154 -262 0
-155 -263 0
-156 -264 0
-397 -441 0
-398 -442 0
-399 -443 0
-400 -444 0
-161 -217 0
-162 -218 0
-163 -219 0
-164 -220 0
-25 -437 0
-26 -438 0
-27 -439 0
-28 -440 0
-365 -393 0
-366 -394 0
-367 -395 0
-368 -396 0
-165 -461 0
-166 -462 0
-167 -463 0
-168 -464 0
-253 -337 0
-254 -338 0
-255 -339 0
-256 -340 0
-149 -225 0
-150 -226 0
-151 -227 0
-152 -228 0
-25 -373 0
-26 -374 0
-27 -375 0
-28 -376 0
-85 -433 0
-86 -434 0
-87 -435 0
-88 -436 0
-17 -377 0
-18 -378 0
-19 -379 0
-20 -380 0
-221 -345 0
-222 -346 0
-223 -347 0
-224 -348 0
-261 -377 0
-262 -378 0
-263 -379 0
-264 -380 0
-121 -273 0
-122 -274 0
-123 -275 0
-124 -276 0
-89 -181 0
-90 -182 0
-91 -183 0
-92 -184 0
-33 -173 0
-34 -174 0
-35 -175 0
-36 -176 0
-93 -449 0
-94 -450 0
-95 -451 0
-96 -452 0
-317 -417 0
-318 -418 0
-319 -419 0
-320 -420 0
-5 -249 0
-6 -250 0
-7 -251 0
-8 -252 0
-157 -197 0
-158 -198 0
-159 -199 0
-160 -200 0
-181 -365 0
-182 -366 0
-183 -367 0
-184 -368 0
-261 -345 0
-262 -346 0
-263 -347 0
-264 -348 0
-285 -297 0
-286 -298 0
-287 -299 0
-288 -300 0
-193 -377 0
-194 -378 0
-195 -379 0
-196 -380 0
-49 -237 0
-50 -238 0
-51 -239 0
-52 -240 0
-25 -477 0
-26 -478 0
-27 -479 0
-28 -480 0
-341 -345 0
-342 -346 0
-343 -347 0
-344 -348 0
-205 -393 0
-206 -394 0
-207 -395 0
-208 -396 0
-113 -381 0
-114 -382 0
-115 -383 0
-116 -384 0
-141 -277 0
-142 -278 0
-143 -279 0
-144 -280 0
-201 -417 0
-202 -418 0
-203 -419 0
-204 -420 0
-45 -345 0
-46 -346 0
-47 -347 0
-48 -348 0
-57 -269 0
-58 -270 0
-59 -271 0
-60 -272 0
-165 -329 0
-166 -330 0
-167 -331 0
-168 -332 0
-189 -321 0
-190 -322 0
-191 -323 0
-192 -324 0
-265 -485 0
-266 -486 0
-267 -487 0
-268 -488 0
-289 -301 0
-290 -302 0
-291 -303 0
-292 -304 0
-5 -449 0
-6 -450 0
-7 -451 0
-8 -452 0
-65 -397 0
-66 -398 0
-67 -399 0
-68 -400 0
-53 -265 0
-54 -266 0
-55 -267 0
-56 -268 0
-277 -301 0
-278 -302 0
-279 -303 0
-280 -304 0
-17 -29 0
-18 -30 0
-19 -31 0
-20 -32 0
-57 -497 0
-58 -498 0
-59 -499 0
-60 -500 0
-153 -433 0
-154 -434 0
-155 -435 0
-156 -436 0
-117 -333 0
-118 -334 0
-119 -335 0
-120 -336 0
-157 -389 0
-158 -390 0
-159 -391 0
-160 -392 0
-49 -121 0
-50 -122 0
-51 -123 0
-52 -124 0
-77 -325 0
-78 -326 0
-79 -327 0
-80 -328 0
-125 -389 0
-126 -390 0
-127 -391 0
-128 -392 0
-1 -157 0
-2 -158 0
-3 -159 0
-4 -160 0
-321 -461 0
-322 -462 0
-323 -463 0
-324 -464 0
-77 -165 0
-78 -166 0
-79 -167 0
-80 -168 0
-73 -273 0
-74 -274 0
-75 -275 0
-76 -276 0
-169 -369 0
-170 -370 0
-171 -371 0
-172 -372 0
-25 -481 0
-26 -482 0
-27 -483 0
-28 -484 0
-145 -409 0
-146 -410 0
-147 -411 0
-148 -412 0
-345 -373 0
-346 -374 0
-347 -375 0
-348 -376 0
-245 -305 0
-246 -306 0
-247 -307 0
-248 -308 0
-77 -129 0
-78 -130 0
-79 -131 0
-80 -132 0
-193 -413 0
-194 -414 0
-195 -415 0
-196 -416 0
-269 -401 0
-270 -402 0
-271 -403 0
-272 -404 0
-133 -269 0
-134 -270 0
-135 -271 0
-136 -272 0
-9 -81 0
-10 -82 0
-11 -83 0
-12 -84 0
-41 -245 0
-42 -246 0
-43 -247 0
-44 -248 0
-437 -493 0
-438 -494 0
-439 -495 0
-440 -496 0
-369 -457 0
-370 -458 0
-371 -459 0
-372 -460 0
-5 -477 0
-6 -478 0
-7 -479 0
-8 -480 0
-189 -277 0
-190 -278 0
-191 -279 0
-192 -280 0
-49 -381 0
-50 -382 0
-51 -383 0
-52 -384 0
-373 -393 0
-374 -394 0
-375 -395 0
-376 -396 0
-97 -233 0
-98 -234 0
-99 -235 0
-100 -236 0
-289 -437 0
-290 -438 0
-291 -439 0
-292 -440 0
-233 -341 0
-234 -342 0
-235 -343 0
-236 -344 0
-117 -221 0
-118 -222 0
-119 -223 0
-120 -224 0
-5 -17 0
-6 -18 0
-7 -19 0
-8 -20 0
-65 -173 0
-66 -174 0
-67 -175 0
-68 -176 0
-105 -357 0
-106 -358 0
-107 -359 0
-108 -360 0
-89 -213 0
-90 -214 0
-91 -215 0
-92 -216 0
-369 -425 0
-370 -426 0
-371 -427 0
-372 -428 0
-69 -425 0
-70 -426 0
-71 -427 0
-72 -428 0
-465 -477 0
-466 -478 0
-467 -479 0
-468 -480 0
-197 -417 0
-198 -418 0
-199 -419 0
-200 -420 0
-145 -389 0
-146 -390 0
-147 -391 0
-148 -392 0
-157 -185 0
-158 -186 0
-159 -187 0
-160 -188 0
-321 -405 0
-322 -406 0
-323 -407 0
-324 -408 0
-189 -485 0
-190 -486 0
-191 -487 0
-192 -488 0
-13 -229 0
-14 -230 0
-15 -231 0
-16 -232 0
-149 -153 0
-150 -154 0
-151 -155 0
-152 -156 0
-457 -469 0
-458 -470 0
-459 -471 0
-460 -472 0
-113 -485 0
-114 -486 0
-115 -487 0
-116 -488 0
-1 -265 0
-2 -266 0
-3 -267 0
-4 -268 0
-41 -97 0
-42 -98 0
-43 -99 0
-44 -100 0
-49 -73 0
-50 -74 0
-51 -75 0
-52 -76 0
-121 -445 0
-122 -446 0
-123 -447 0
-124 -448 0
-189 -469 0
-190 -470 0
-191 -471 0
-192 -472 0
-25 -301 0
-26 -302 0
-27 -303 0
-28 -304 0
-97 -437 0
-98 -438 0
-99 -439 0
-100 -440 0
-165 -269 0
-166 -270 0
-167 -271 0
-168 -272 0
-153 -165 0
-154 -166 0
-155 -167 0
-156 -168 0
-245 -257 0
-246 -258 0
-247 -259 0
-248 -260 0
-41 -325 0
-42 -326 0
-43 -327 0
-44 -328 0
-21 -257 0
-22 -258 0
-23 -259 0
-24 -260 0
-237 -421 0
-238 -422 0
-239 -423 0
-240 -424 0
-21 -321 0
-22 -322 0
-23 -323 0
-24 -324 0
-273 -309 0
-274 -310 0
-275 -311 0
-276 -312 0
-221 -249 0
-222 -250 0
-223 -251 0
-224 -252 0
-333 -437 0
-334 -438 0
-335 -439 0
-336 -440 0
-125 -161 0
-126 -162 0
-127 -163 0
-128 -164 0
-121 -385 0
-122 -386 0
-123 -387 0
-124 -388 0
-297 -325 0
-298 -326 0
-299 -327 0
-300 -328 0
-121 -493 0
-122 -494 0
-123 -495 0
-124 -496 0
-305 -365 0
-306 -366 0
-307 -367 0
-308 -368 0
-73 -305 0
-74 -306 0
-75 -307 0
-76 -308 0
-73 -373 0
-74 -374 0
-75 -375 0
-76 -376 0
-233 -241 0
-234 -242 0
-235 -243 0
-236 -244 0
-65 -409 0
-66 -410 0
-67 -411 0
-68 -412 0
-13 -69 0
-14 -70 0
-15 -71 0
-16 -72 0
-33 -125 0
-34 -126 0
-35 -127 0
-36 -128 0
-173 -433 0
-174 -434 0
-175 -435 0
-176 -436 0
-229 -317 0
-230 -318 0
-231 -319 0
-232 -320 0
-177 -329 0
-178 -330 0
-179 -331 0
-180 -332 0
-417 -473 0
-418 -474 0
-419 -475 0
-420 -476 0
-321 -357 0
-322 -358 0
-323 -359 0
-324 -360 0
-145 -269 0
-146 -270 0
-147 -271 0
-148 -272 0
-141 -345 0
-142 -346 0
-143 -347 0
-144 -348 0
-337 -469 0
-338 -470 0
-339 -471 0
-340 -472 0
-133 -285 0
-134 -286 0
-135 -287 0
-136 -288 0
-65 -365 0
-66 -366 0
-67 -367 0
-68 -368 0
-381 -473 0
-382 -474 0
-383 -475 0
-384 -476 0
-105 -445 0
-106 -446 0
-107 -447 0
-108 -448 0
-233 -437 0
-234 -438 0
-235 -439 0
-236 -440 0
-241 -489 0
-242 -490 0
-243 -491 0
-244 -492 0
-137 -145 0
-138 -146 0
-139 -147 0
-140 -148 0
-13 -417 0
-14 -418 0
-15 -419 0
-16 -420 0
-141 -225 0
-142 -226 0
-143 -227 0
-144 -228 0
-277 -393 0
-278 -394 0
-279 -395 0
-280 -396 0
-337 -377 0
-338 -378 0
-339 -379 0
-340 -380 0
-117 -121 0
-118 -122 0
-119 -123 0
-120 -124 0
-349 -489 0
-350 -490 0
-351 -491 0
-352 -492 0
-185 -401 0
-186 -402 0
-187 -403 0
-188 -404 0
-85 -105 0
-86 -106 0
-87 -107 0
-88 -108 0
-57 -413 0
-58 -414 0
-59 -415 0
-60 -416 0
-53 -365 0
-54 -366 0
-55 -367 0
-56 -368 0
-129 -421 0
-130 -422 0
-131 -423 0
-132 -424 0
-237 -437 0
-238 -438 0
-239 -439 0
-240 -440 0
-45 -473 0
-46 -474 0
-47 -475 0
-48 -476 0
-101 -329 0
-102 -330 0
-103 -331 0
-104 -332 0
-189 -417 0
-190 -418 0
-191 -419 0
-192 -420 0
-21 -145 0
-22 -146 0
-23 -147 0
-24 -148 0
-293 -481 0
-294 -482 0
-295 -483 0
-296 -484 0
-109 -321 0
-110 -322 0
-111 -323 0
-112 -324 0
-349 -353 0
-350 -354 0
-351 -355 0
-352 -356 0
-137 -369 0
-138 -370 0
-139 -371 0
-140 -372 0
-17 -265 0
-18 -266 0
-19 -267 0
-20 -268 0
-393 -497 0
-394 -498 0
-395 -499 0
-396 -500 0
-5 -285 0
-6 -286 0
-7 -287 0
-8 -288 0
-65 -237 0
-66 -238 0
-67 -239 0
-68 -240 0
-17 -425 0
-18 -426 0
-19 -427 0
-20 -428 0
-133 -233 0
-134 -234 0
-135 -235 0
-136 -236 0
-165 -285 0
-166 -286 0
-167 -287 0
-168 -288 0
-57 -173 0
-58 -174 0
-59 -175 0
-60 -176 0
-277 -461 0
-278 -462 0
-279 -463 0
-280 -464 0
-333 -405 0
-334 -406 0
-335 -407 0
-336 -408 0
-101 -273 0
-102 -274 0
-103 -275 0
-104 -276 0
-121 -401 0
-122 -402 0
-123 -403 0
-124 -404 0
-45 -289 0
-46 -290 0
-47 -291 0
-48 -292 0
-169 -481 0
-170 -482 0
-171 -483 0
-172 -484 0
-433 -469 0
-434 -470 0
-435 -471 0
-436 -472 0
-185 -417 0
-186 -418 0
-187 -419 0
-188 -420 0
-9 -333 0
-10 -334 0
-11 -335 0
-12 -336 0
-89 -117 0
-90 -118 0
-91 -119 0
-92 -120 0
-105 -289 0
-106 -290 0
-107 -291 0
-108 -292 0
-285 -469 0
-286 -470 0
-287 -471 0
-288 -472 0
-81 -461 0
-82 -462 0
-83 -463 0
-84 -464 0
-329 -461 0
-330 -462 0
-331 -463 0
-332 -464 0
-1 -221 0
-2 -222 0
-3 -223 0
-4 -224 0
-25 -177 0
-26 -178 0
-27 -179 0
-28 -180 0
-253 -409 0
-254 -410 0
-255 -411 0
-256 -412 0
-61 -137 0
-62 -138 0
-63 -139 0
-64 -140 0
-229 -285 0
-230 -286 0
-231 -287 0
-232 -288 0
-93 -137 0
-94 -138 0
-95 -139 0
-96 -140 0
-257 -333 0
-258 -334 0
-259 -335 0
-260 -336 0
-169 -213 0
-170 -214 0
-171 -215 0
-172 -216 0
-293 -393 0
-294 -394 0
-295 -395 0
-296 -396 0
-29 -433 0
-30 -434 0
-31 -435 0
-32 -436 0
-225 -345 0
-226 -346 0
-227 -347 0
-228 -348 0
-461 -465 0
-462 -466 0
-463 -467 0
-464 -468 0
-353 -421 0
-354 -422 0
-355 -423 0
-356 -424 0
-177 -237 0
-178 -238 0
-179 -239 0
-180 -240 0
-257 -425 0
-258 -426 0
-259 -427 0
-260 -428 0
-33 -149 0
-34 -150 0
-35 -151 0
-36 -152 0
-261 -449 0
-262 -450 0
-263 -451 0
-264 -452 0
-197 -393 0
-198 -394 0
-199 -395 0
-200 -396 0
-101 -221 0
-102 -222 0
-103 -223 0
-104 -224 0
-29 -233 0
-30 -234 0
-31 -235 0
-32 -236 0
-313 -477 0
-314 -478 0
-315 -479 0
-316 -480 0
-113 -345 0
-114 -346 0
-115 -347 0
-116 -348 0
-229 -409 0
-230 -410 0
-231 -411 0
-232 -412 0
-41 -129 0
-42 -130 0
-43 -131 0
-44 -132 0
-65 -249 0
-66 -250 0
-67 -251 0
-68 -252 0
-177 -221 0
-178 -222 0
-179 -223 0
-180 -224 0
-41 -209 0
-42 -210 0
-43 -211 0
-44 -212 0
-145 -365 0
-146 -366 0
-147 -367 0
-148 -368 0
-137 -177 0
-138 -178 0
-139 -179 0
-140 -180 0
-29 -129 0
-30 -130 0
-31 -131 0
-32 -132 0
-185 -189 0
-186 -190 0
-187 -191 0
-188 -192 0
-49 -69 0
-50 -70 0
-51 -71 0
-52 -72 0
-329 -365 0
-330 -366 0
-331 -367 0
-332 -368 0
-321 -329 0
-322 -330 0
-323 -331 0
-324 -332 0
-37 -113 0
-38 -114 0
-39 -115 0
-40 -116 0
-213 -365 0
-214 -366 0
-215 -367 0
-216 -368 0
-189 -289 0
-190 -290 0
-191 -291 0
-192 -292 0
-45 -393 0
-46 -394 0
-47 -395 0
-48 -396 0
-29 -161 0
-30 -162 0
-31 -163 0
-32 -164 0
-93 -337 0
-94 -338 0
-95 -339 0
-96 -340 0
-45 -321 0
-46 -322 0
-47 -323 0
-48 -324 0
-325 -465 0
-326 -466 0
-327 -467 0
-328 -468 0
-97 -333 0
-98 -334 0
-99 -335 0
-100 -336 0
-57 -405 0
-58 -406 0
-59 -407 0
-60 -408 0
-41 -277 0
-42 -278 0
-43 -279 0
-44 -280 0
-221 -257 0
-222 -258 0
-223 -259 0
-224 -260 0
-85 -269 0
-86 -270 0
-87 -271 0
-88 -272 0
-53 -417 0
-54 -418 0
-55 -419 0
-56 -420 0
-133 -329 0
-134 -330 0
-135 -331 0
-136 -332 0
-37 -489 0
-38 -490 0
-39 -491 0
-40 -492 0
-145 -221 0
-146 -222 0
-147 -223 0
-148 -224 0
-25 -77 0
-26 -78 0
-27 -79 0
-28 -80 0
-93 -297 0
-94 -298 0
-95 -299 0
-96 -300 0
-337 -409 0
-338 -410 0
-339 -411 0
-340 -412 0
-177 -325 0
-178 -326 0
-179 -327 0
-180 -328 0
-41 -417 0
-42 -418 0
-43 -419 0
-44 -420 0
-397 -405 0
-398 -406 0
-399 -407 0
-400 -408 0
-5 -253 0
-6 -254 0
-7 -255 0
-8 -256 0
-213 -269 0
-214 -270 0
-215 -271 0
-216 -272 0
-21 -393 0
-22 -394 0
-23 -395 0
-24 -396 0
-389 -397 0
-390 -398 0
-391 -399 0
-392 -400 0
-109 -197 0
-110 -198 0
-111 -199 0
-112 -200 0
-161 -437 0
-162 -438 0
-163 -439 0
-164 -440 0
