c generated_for formulae_like_variant benchmark
c dataset formulae_like_01
c variant 1
c seed_base 20270601
c family planted_3sat_dense
c expected_status SAT
c notes dense hidden-assignment 3-SAT
p cnf 200 1300
-69 130 -167 0
89 106 -181 0
-17 94 -159 0
16 -64 -86 0
-7 105 137 0
-30 -100 -171 0
14 -62 81 0
-123 137 -178 0
107 -145 174 0
-54 72 -147 0
-88 137 197 0
-14 108 191 0
-40 -64 -67 0
-49 64 192 0
25 -56 160 0
62 85 136 0
-90 167 177 0
-75 -97 -193 0
38 -48 -56 0
49 -103 112 0
4 -55 105 0
-83 -96 -177 0
-42 -72 173 0
-99 -122 177 0
11 -19 39 0
4 -80 -163 0
43 130 -182 0
-80 186 -193 0
-12 57 -63 0
62 -125 130 0
-11 128 -174 0
-11 40 -59 0
-143 -164 175 0
17 -34 168 0
26 -71 -100 0
23 85 113 0
17 128 187 0
-74 -95 187 0
3 147 -189 0
-37 -81 -182 0
-50 -83 -103 0
-20 -75 -178 0
57 58 143 0
8 -106 -131 0
-27 96 171 0
11 -108 172 0
-65 76 99 0
-10 -147 159 0
-10 -145 174 0
-1 122 193 0
-83 -177 -189 0
-37 -85 144 0
90 -99 -186 0
-13 162 187 0
-79 107 -156 0
51 98 -168 0
-20 -92 -121 0
13 -72 84 0
9 48 60 0
137 148 -159 0
28 -168 -180 0
32 -40 -126 0
-64 133 -161 0
60 76 -131 0
5 33 184 0
32 -108 -127 0
15 -63 -133 0
-74 85 -177 0
22 -31 -79 0
-83 -92 -130 0
110 181 188 0
-3 192 -193 0
-97 -112 -113 0
44 60 -72 0
-80 92 -128 0
-57 -89 -97 0
7 -117 122 0
15 -31 -169 0
95 -120 138 0
53 -121 127 0
-22 -57 -116 0
-12 -32 110 0
-18 -21 161 0
-18 114 124 0
18 -130 177 0
120 154 176 0
65 -82 87 0
152 -154 197 0
-113 -114 115 0
33 -117 162 0
-107 -168 -172 0
28 -130 -155 0
40 170 -195 0
89 117 -161 0
-1 -37 -69 0
-39 -118 172 0
-40 -75 -174 0
181 -190 200 0
-28 127 164 0
151 -159 -191 0
16 73 -157 0
77 -79 -84 0
18 65 -162 0
-16 76 -196 0
171 177 -188 0
62 153 163 0
-7 172 -188 0
-16 20 62 0
34 -99 -115 0
-57 -111 182 0
34 122 -128 0
-94 -179 -198 0
47 -55 198 0
111 131 194 0
161 -170 177 0
-56 -91 -149 0
53 81 96 0
-44 104 -171 0
70 -119 -181 0
-10 32 98 0
-9 -83 -166 0
-41 57 -96 0
67 150 -175 0
16 94 100 0
2 -50 90 0
-34 -88 -159 0
-79 108 173 0
58 157 -186 0
-14 95 -143 0
140 144 145 0
-61 -90 162 0
18 -54 101 0
-7 98 183 0
39 64 -148 0
-17 138 -147 0
55 93 -117 0
-82 120 -188 0
51 113 -128 0
18 -97 174 0
-34 37 156 0
22 35 98 0
40 69 179 0
18 -29 37 0
33 101 175 0
93 144 188 0
-38 53 106 0
-122 125 163 0
23 164 200 0
50 -70 -146 0
-141 -187 192 0
54 118 -197 0
-20 -24 -153 0
120 133 -187 0
-4 14 -62 0
-81 -124 156 0
101 -137 179 0
-24 -114 -149 0
69 -74 -80 0
-7 -14 -54 0
30 -77 -78 0
136 -156 -162 0
-14 23 -124 0
-27 126 -186 0
136 149 198 0
-41 79 -132 0
-49 158 200 0
-2 -110 146 0
-17 -40 76 0
5 43 179 0
-46 105 113 0
-51 52 -148 0
83 -133 168 0
17 -131 146 0
21 -127 131 0
-120 -155 -191 0
4 134 -140 0
20 83 -179 0
96 134 189 0
-143 147 -176 0
-48 68 178 0
-23 -34 -120 0
129 -130 -140 0
27 -80 -112 0
82 -103 -107 0
106 -119 -194 0
-104 105 -192 0
15 53 180 0
-94 132 154 0
-3 -17 194 0
72 153 183 0
31 -53 178 0
-34 155 -199 0
-106 -129 -179 0
110 -154 -160 0
38 -63 69 0
65 88 -120 0
19 -71 86 0
-17 38 -43 0
12 -121 -170 0
14 83 133 0
164 166 -188 0
85 131 137 0
82 -106 199 0
-23 55 -138 0
-8 -92 -192 0
-104 -152 167 0
-6 34 99 0
-53 161 180 0
-27 -168 173 0
22 -45 -162 0
-25 -125 160 0
19 -24 114 0
-60 155 165 0
72 -126 193 0
14 98 -133 0
12 84 -147 0
82 126 -132 0
53 -60 -141 0
-40 60 167 0
65 -180 -196 0
61 129 151 0
51 -120 -129 0
53 -74 -115 0
36 100 113 0
43 56 -192 0
-41 -148 -179 0
-57 -76 165 0
-45 -72 -100 0
45 82 -148 0
-25 -71 -134 0
-34 42 67 0
-57 -181 197 0
-8 66 118 0
161 162 -197 0
23 79 139 0
-67 -75 -152 0
14 -31 170 0
84 -176 200 0
-81 105 -106 0
58 -69 -76 0
-18 33 143 0
-50 93 179 0
-57 140 149 0
-13 -143 -195 0
-101 122 131 0
42 90 -189 0
-14 112 -123 0
20 -36 -171 0
107 149 -183 0
151 173 198 0
139 -174 178 0
-78 136 -157 0
-50 -100 124 0
71 -124 139 0
69 107 120 0
-99 -169 170 0
-11 -79 127 0
-2 -123 161 0
20 35 -136 0
-15 68 -78 0
-20 81 -123 0
51 -107 132 0
85 -167 -200 0
-55 -176 180 0
123 136 191 0
78 -103 -160 0
-133 161 175 0
73 -108 -132 0
-149 184 -189 0
102 104 -129 0
-87 -90 -100 0
140 154 175 0
-9 -61 152 0
-34 152 -180 0
-61 189 -200 0
95 -154 -200 0
136 -167 177 0
86 -135 -196 0
-13 -80 172 0
-38 -91 -189 0
112 163 -172 0
-17 113 -200 0
90 -142 188 0
39 168 -171 0
53 -125 186 0
38 140 -191 0
58 69 -174 0
85 -139 -190 0
-65 98 -190 0
29 135 -193 0
7 152 194 0
-52 -101 -150 0
94 -142 186 0
-74 -109 183 0
-28 -42 93 0
-28 -145 156 0
30 -63 146 0
-54 -103 -138 0
-10 -28 -119 0
-58 -130 -149 0
112 -131 -176 0
-77 -103 127 0
22 61 -119 0
-67 87 -103 0
-20 -121 -149 0
-4 -29 124 0
-13 164 175 0
-12 -83 -107 0
-49 -117 -144 0
96 138 -174 0
-10 -107 160 0
37 143 -164 0
-82 -154 169 0
26 132 -177 0
83 -98 174 0
-141 145 156 0
-91 113 183 0
-38 54 -91 0
125 148 176 0
151 -182 -186 0
106 -183 -191 0
174 181 194 0
8 -156 -158 0
-66 72 134 0
66 -119 -172 0
-145 149 -179 0
-31 52 132 0
-10 -146 -178 0
45 -155 -169 0
-50 97 -159 0
77 -87 -111 0
-1 16 -58 0
77 -167 -185 0
16 -33 74 0
-83 101 147 0
102 161 174 0
82 117 -118 0
-2 -59 -140 0
72 143 150 0
-20 -34 191 0
-92 131 186 0
-81 93 -150 0
78 -133 -198 0
22 -181 -193 0
-9 23 120 0
-41 68 72 0
2 -25 -149 0
141 162 -184 0
33 -114 -199 0
36 -147 -176 0
-34 52 -136 0
167 170 -175 0
57 102 157 0
51 -67 -169 0
88 -115 -170 0
5 27 -124 0
77 -90 161 0
49 98 -103 0
-50 -55 -182 0
28 146 174 0
38 -114 -195 0
-41 -108 122 0
24 81 -164 0
-31 -79 -105 0
-117 -129 -185 0
-92 99 137 0
30 -80 84 0
-9 -93 132 0
-4 -34 99 0
-11 -76 -102 0
-50 -61 200 0
7 -107 117 0
44 94 -153 0
22 149 180 0
72 142 172 0
81 -109 195 0
-28 -144 166 0
-52 59 140 0
85 -95 -178 0
-93 108 150 0
16 -104 188 0
-41 134 -163 0
25 -29 -199 0
40 129 -167 0
17 92 -158 0
78 192 -193 0
49 -111 149 0
67 -100 180 0
-2 -74 -96 0
-3 80 -176 0
113 -165 -173 0
-11 -71 84 0
-116 -132 146 0
-23 -27 122 0
4 -24 173 0
136 153 -161 0
-101 -104 -157 0
105 112 155 0
-8 -80 134 0
54 97 126 0
46 -56 -193 0
-55 -71 -88 0
-10 54 -136 0
8 148 -167 0
74 144 164 0
11 152 -156 0
91 129 186 0
48 160 -198 0
-29 67 -177 0
16 -51 -99 0
-66 143 198 0
-3 -36 175 0
38 135 -196 0
-121 133 197 0
47 -105 171 0
-72 146 158 0
16 -66 174 0
-59 -157 191 0
-96 -100 -153 0
-1 12 -37 0
20 87 -165 0
106 -154 197 0
25 -91 148 0
-12 146 -176 0
-47 77 178 0
29 -81 102 0
-151 -176 -199 0
-6 -7 164 0
75 83 -192 0
26 -28 -121 0
-6 164 -197 0
72 100 -122 0
29 93 191 0
61 65 -138 0
-87 -149 195 0
63 68 128 0
-11 -165 175 0
-16 -47 131 0
-101 110 139 0
133 -199 200 0
36 -67 144 0
-55 153 -186 0
-9 120 -124 0
1 118 123 0
73 -83 -121 0
34 45 -66 0
-99 103 191 0
55 -80 105 0
-104 134 190 0
-39 60 148 0
4 86 -103 0
120 124 162 0
-3 119 171 0
165 -168 180 0
158 160 -184 0
64 74 106 0
133 148 172 0
88 135 165 0
22 30 -48 0
-58 62 -106 0
-126 144 -151 0
116 -133 183 0
-15 25 80 0
10 -72 77 0
-9 -55 161 0
60 -112 -148 0
111 -130 177 0
-5 -74 189 0
32 156 -198 0
-2 154 186 0
64 107 -146 0
24 -36 -83 0
-1 38 -127 0
64 121 -161 0
86 -151 172 0
15 97 155 0
-114 130 -177 0
61 100 130 0
-81 113 -173 0
14 81 -191 0
-91 98 147 0
31 34 -52 0
51 110 165 0
-24 -42 135 0
-9 -67 -89 0
47 -72 114 0
-8 -128 157 0
-75 99 136 0
-11 43 118 0
73 121 122 0
-28 -29 -190 0
45 48 -200 0
68 123 -155 0
111 179 -190 0
38 -95 171 0
-56 -63 94 0
-3 14 -159 0
-72 82 86 0
-111 -125 -194 0
-158 191 -195 0
-23 -136 -138 0
-65 -96 144 0
-93 -119 191 0
-42 70 107 0
48 -86 108 0
126 150 -171 0
62 113 -116 0
-11 98 -154 0
5 -29 119 0
-12 -114 -198 0
-57 131 176 0
-10 -29 168 0
-32 78 82 0
27 -153 178 0
-22 55 175 0
98 107 197 0
114 -165 -183 0
135 154 192 0
-68 90 184 0
48 -76 -180 0
64 -123 -193 0
-36 -98 173 0
23 -66 -84 0
-3 -6 22 0
47 -58 -98 0
53 117 -184 0
57 -58 68 0
-10 -29 41 0
61 -88 -133 0
-2 -44 -185 0
21 -73 -181 0
21 -129 166 0
30 -46 85 0
165 -176 185 0
101 -134 -165 0
38 88 104 0
17 -20 132 0
-14 -31 -166 0
40 71 162 0
115 -139 164 0
-79 -104 111 0
45 109 113 0
-53 148 -174 0
-6 91 136 0
-108 145 157 0
-57 90 161 0
67 -87 92 0
6 -57 -100 0
7 -154 -180 0
-43 47 153 0
38 69 193 0
-21 58 183 0
-8 47 -109 0
-133 -170 -183 0
-10 -83 -200 0
-69 121 158 0
-80 -82 140 0
-42 -146 163 0
4 9 -192 0
-52 163 175 0
10 -110 157 0
56 57 111 0
52 -137 -146 0
-83 157 -167 0
16 -39 120 0
6 58 73 0
67 -168 -184 0
-74 -107 138 0
-30 -41 72 0
113 125 -144 0
34 -53 83 0
-3 45 164 0
-77 150 -193 0
23 -110 -198 0
72 -116 -174 0
-68 75 177 0
95 171 172 0
23 -32 -56 0
-44 -93 119 0
-35 75 85 0
-51 71 162 0
-18 -67 -146 0
-110 181 -192 0
-11 66 77 0
-33 42 -131 0
30 -70 177 0
-83 -127 142 0
128 -147 190 0
-47 -133 -170 0
21 -41 119 0
14 18 -40 0
41 -69 136 0
-96 110 158 0
-8 -94 106 0
-52 105 179 0
-52 -78 149 0
-54 123 154 0
49 -123 162 0
-78 -83 -119 0
-70 -84 -196 0
49 -62 -149 0
-105 151 -180 0
158 -176 -184 0
26 -124 -199 0
-6 -70 -95 0
23 -47 97 0
7 12 102 0
129 -184 197 0
41 168 199 0
7 -27 -159 0
-123 -126 -157 0
21 45 48 0
-7 -10 -101 0
4 -6 -187 0
5 -44 100 0
1 71 -188 0
-79 -87 89 0
-71 72 192 0
77 79 -126 0
-85 150 -174 0
-27 -154 157 0
14 62 -84 0
-43 -111 -141 0
-77 -149 165 0
58 121 -172 0
75 124 -200 0
-1 -88 190 0
-119 -124 165 0
91 -146 -163 0
83 -97 -107 0
25 30 -49 0
-16 101 157 0
2 39 -177 0
36 -85 159 0
-10 150 163 0
31 170 -190 0
-82 89 92 0
26 -109 132 0
-46 91 169 0
37 -47 189 0
-12 35 -165 0
-10 33 -101 0
135 -136 171 0
73 -160 -169 0
9 -51 92 0
-91 -106 -137 0
-43 -44 -51 0
-50 96 174 0
35 -67 158 0
-15 33 59 0
2 8 28 0
-11 53 -157 0
-108 117 -151 0
-34 63 72 0
-133 162 -169 0
-4 -75 154 0
20 -52 -91 0
-132 -139 141 0
-6 63 162 0
-2 11 13 0
129 145 -158 0
85 160 180 0
-38 68 169 0
72 108 -198 0
-128 -178 -183 0
-112 -141 181 0
51 -157 180 0
-59 160 200 0
98 144 162 0
-24 -76 -112 0
-39 -117 -121 0
-33 -47 113 0
-113 128 146 0
-77 134 -140 0
-57 112 177 0
-2 61 -172 0
-94 -149 -181 0
-10 -14 26 0
-27 92 -158 0
-52 69 -147 0
-11 36 48 0
-4 154 175 0
33 136 -149 0
30 62 117 0
7 -187 189 0
-139 -176 184 0
-28 -95 128 0
-78 -127 -141 0
-49 -127 190 0
-58 105 -184 0
26 66 -101 0
-34 151 172 0
-41 -85 -100 0
37 -145 198 0
2 27 189 0
-43 53 70 0
-135 177 -195 0
-23 -44 -99 0
-79 89 -191 0
-36 147 -166 0
6 -88 -190 0
78 93 -100 0
18 -35 -108 0
19 63 -143 0
-11 25 35 0
3 34 139 0
11 27 -142 0
-7 93 -119 0
48 -49 173 0
2 -6 -147 0
-34 -103 -147 0
68 151 158 0
154 170 171 0
19 -75 112 0
-118 129 142 0
81 -129 151 0
-34 -101 115 0
-49 -91 133 0
54 -129 162 0
-42 -60 145 0
129 162 -185 0
-28 -102 160 0
72 120 -160 0
-61 -64 -196 0
-113 -186 -200 0
5 151 168 0
-59 -132 -199 0
-23 -78 -157 0
-38 -61 132 0
-90 -121 -147 0
-83 109 198 0
14 -109 185 0
-151 -180 198 0
175 193 -198 0
-76 154 -199 0
31 -54 -180 0
-10 71 79 0
-95 -128 145 0
-33 -107 186 0
-5 59 80 0
70 -107 157 0
6 93 176 0
-45 -96 144 0
-42 -57 -80 0
-94 -127 -135 0
-17 136 160 0
-31 181 198 0
-7 -158 -166 0
-33 -99 148 0
41 -93 -131 0
124 -134 191 0
30 -51 -111 0
-14 -84 142 0
-78 102 -140 0
-8 113 135 0
36 -91 -132 0
-30 72 -111 0
84 -170 -181 0
29 -96 197 0
12 -82 84 0
-73 182 -187 0
113 143 149 0
151 153 160 0
29 114 178 0
119 163 -196 0
-26 -91 141 0
-38 106 152 0
8 -14 47 0
51 52 -190 0
-41 159 -173 0
-20 -81 -108 0
38 -81 -113 0
-31 104 -167 0
2 100 -109 0
99 121 -200 0
26 59 140 0
108 -151 178 0
84 -151 194 0
115 -127 -171 0
28 -45 -168 0
60 86 136 0
-89 -142 -149 0
107 -131 -176 0
4 21 -97 0
-94 -151 -194 0
-72 165 -169 0
4 -98 153 0
129 -138 -147 0
-7 91 -155 0
-34 -36 -87 0
76 138 157 0
-31 -34 148 0
3 -45 133 0
101 107 155 0
-120 159 167 0
-18 -76 -199 0
87 -100 132 0
-1 -38 127 0
52 66 -74 0
54 66 102 0
-94 -170 184 0
13 -85 -194 0
-16 -51 60 0
-44 71 148 0
-86 187 193 0
60 -90 108 0
53 54 -173 0
-171 -173 177 0
29 -73 -181 0
-7 -167 -197 0
-81 133 174 0
16 -180 -181 0
-29 58 -63 0
-52 63 -199 0
-25 -137 -198 0
47 -88 -126 0
132 -141 -164 0
-127 190 197 0
-42 63 -72 0
23 146 172 0
-72 112 -115 0
29 155 -156 0
72 -135 154 0
12 64 130 0
-73 -150 178 0
64 128 -166 0
36 43 -137 0
137 -165 186 0
-7 26 -114 0
145 -171 -183 0
-42 -91 198 0
37 -58 190 0
45 124 -157 0
3 111 156 0
15 72 -120 0
-11 -24 -161 0
-24 -76 125 0
-64 138 -154 0
90 165 175 0
21 -78 -103 0
86 -166 -188 0
-86 -111 187 0
27 -187 -190 0
-1 -16 -46 0
-49 153 162 0
15 29 96 0
-78 -118 -184 0
-63 -134 -193 0
-91 -134 174 0
115 -123 180 0
71 108 -160 0
-77 -153 184 0
-27 153 -200 0
54 178 198 0
89 162 179 0
-46 -106 -131 0
2 -17 -43 0
-4 -21 -111 0
56 149 166 0
73 81 133 0
-23 -88 99 0
43 60 158 0
97 -156 175 0
118 140 -190 0
77 -84 116 0
90 102 -134 0
56 73 -146 0
39 -99 -152 0
-25 -60 79 0
-21 -148 -149 0
-49 152 198 0
-18 -110 120 0
-66 -97 147 0
27 -51 156 0
25 38 -166 0
62 93 109 0
-16 -49 -51 0
-157 173 194 0
-16 103 177 0
97 145 -179 0
46 -162 -164 0
29 56 66 0
27 28 170 0
-24 -55 139 0
-7 -66 129 0
91 148 178 0
24 -41 -87 0
6 63 -67 0
-24 -79 148 0
99 154 185 0
54 -151 191 0
72 -148 -189 0
6 50 72 0
7 122 150 0
-7 -175 -181 0
64 -120 -197 0
65 -73 -113 0
-27 156 -183 0
-42 -104 -120 0
-50 -62 140 0
-89 -104 -166 0
38 129 -138 0
79 116 139 0
-35 134 141 0
32 -89 -135 0
-46 -75 200 0
31 107 172 0
92 -121 192 0
-4 -89 156 0
71 77 -164 0
-38 -133 -185 0
-1 36 164 0
88 124 -160 0
-11 -128 154 0
-18 -72 -160 0
-74 129 148 0
-124 129 -195 0
-66 74 -174 0
73 146 194 0
-5 47 76 0
-57 -78 -181 0
-10 49 -182 0
47 -122 136 0
38 168 199 0
68 -81 -138 0
33 -156 170 0
123 -127 167 0
-71 84 102 0
48 -81 -148 0
-72 -164 186 0
38 59 -166 0
-98 115 195 0
3 -23 -83 0
-28 -49 83 0
-136 158 -200 0
11 -158 -187 0
85 132 -197 0
23 -114 165 0
39 111 123 0
-134 -180 -190 0
-56 71 -99 0
-26 -104 143 0
40 61 71 0
-91 -141 -168 0
66 134 -190 0
35 87 182 0
-9 -47 -191 0
53 116 -147 0
-10 -30 180 0
-59 77 134 0
-84 -105 189 0
-58 -81 184 0
-67 101 -131 0
16 -70 -107 0
56 -166 -179 0
-110 131 -137 0
77 142 164 0
-114 123 189 0
-35 -50 -156 0
41 -157 194 0
7 125 181 0
-146 -156 158 0
72 94 155 0
-65 102 -188 0
-18 -138 -156 0
64 -97 120 0
-56 62 69 0
16 -28 190 0
39 103 197 0
-43 86 -114 0
3 -87 103 0
10 -35 -43 0
-100 101 -102 0
-93 -163 174 0
23 -26 176 0
-14 132 -143 0
-60 73 -175 0
-69 -72 198 0
6 90 165 0
8 62 -102 0
11 -145 194 0
99 -116 172 0
58 179 200 0
38 79 80 0
77 -80 156 0
61 121 162 0
5 20 -106 0
-58 69 76 0
-56 -156 157 0
-31 72 -76 0
-48 -68 -91 0
-135 -166 190 0
-9 -91 -190 0
-135 145 -186 0
71 -114 -133 0
4 -11 126 0
26 -145 181 0
-35 139 160 0
34 -82 159 0
8 -9 27 0
-122 -168 -199 0
-8 -58 -179 0
3 -90 -144 0
55 67 87 0
-65 84 -151 0
75 80 180 0
125 -147 -189 0
-53 -107 -115 0
3 147 152 0
-27 47 134 0
9 26 80 0
60 -129 200 0
48 -111 151 0
-64 125 -177 0
-95 -127 -196 0
68 -104 120 0
41 64 103 0
-47 -55 64 0
11 46 -185 0
-99 -126 160 0
164 -174 188 0
74 113 153 0
3 54 -151 0
51 80 -120 0
108 -190 -198 0
129 -136 143 0
-71 -73 181 0
24 100 177 0
33 -173 -192 0
64 110 198 0
-32 -74 -156 0
-18 61 -163 0
-4 -12 16 0
23 91 -185 0
23 -76 100 0
9 -110 162 0
48 76 -196 0
-58 -101 115 0
26 27 -90 0
-7 -8 91 0
47 69 -177 0
57 -141 -198 0
-36 76 175 0
-29 153 -177 0
30 -75 88 0
-108 -137 -189 0
55 108 134 0
146 148 176 0
-21 -71 159 0
14 16 96 0
69 -166 -171 0
-49 146 163 0
-72 93 -184 0
-10 -120 -172 0
-59 118 145 0
91 129 197 0
56 -91 -148 0
62 95 -140 0
53 74 198 0
-116 -147 -196 0
-15 -112 -133 0
2 13 22 0
29 39 139 0
-90 -147 178 0
-8 22 44 0
-106 165 200 0
58 -64 -169 0
112 185 200 0
-40 90 162 0
63 -133 -151 0
77 87 -101 0
-67 158 193 0
5 36 -155 0
-15 79 -104 0
-8 38 188 0
-15 -136 -138 0
33 61 -87 0
20 -70 -168 0
-55 129 -157 0
-161 193 196 0
28 -66 -180 0
-3 -98 -110 0
-71 139 -142 0
68 118 -122 0
-58 75 -124 0
-121 140 161 0
-104 129 164 0
39 -104 -107 0
25 62 179 0
53 -138 149 0
164 185 186 0
-1 3 98 0
-32 143 -200 0
-5 60 -66 0
19 26 -55 0
-127 137 -193 0
19 -116 157 0
84 -188 200 0
62 89 107 0
140 -161 190 0
43 48 -70 0
-130 151 -162 0
-110 111 129 0
28 -123 198 0
13 88 111 0
67 143 179 0
9 -40 -187 0
-64 135 -155 0
102 115 -185 0
103 117 -136 0
-40 109 160 0
33 -83 -166 0
54 -182 197 0
-136 -141 183 0
-11 -74 -196 0
-67 88 -92 0
70 82 132 0
29 149 -161 0
-62 -161 178 0
50 -86 186 0
-55 67 -173 0
32 -57 -133 0
-98 133 200 0
-39 125 -141 0
-108 181 182 0
-18 36 -121 0
19 -46 65 0
43 58 -85 0
75 144 -160 0
46 104 -161 0
109 -146 -167 0
76 -84 181 0
18 -164 195 0
86 174 -178 0
-21 -96 180 0
41 75 105 0
12 20 150 0
40 66 144 0
-11 196 -198 0
-32 107 181 0
-1 84 191 0
80 86 -110 0
-102 -124 140 0
52 -159 191 0
10 -139 152 0
-97 145 -150 0
-112 171 -181 0
25 -65 -123 0
78 -98 174 0
112 120 193 0
53 -92 -188 0
71 -83 92 0
7 104 110 0
-9 38 72 0
-23 -40 191 0
-8 -28 -116 0
61 161 -183 0
45 -64 -153 0
25 39 -54 0
-72 -161 180 0
63 -103 -195 0
72 107 -156 0
127 -142 167 0
10 110 -157 0
-86 142 163 0
-28 -54 175 0
96 -100 124 0
156 182 187 0
-10 14 -188 0
-92 -130 170 0
-8 -33 112 0
-22 52 86 0
2 -164 -192 0
-51 -150 181 0
1 -44 -194 0
-16 35 108 0
-42 102 -185 0
-23 32 -105 0
-94 168 174 0
-2 58 107 0
76 106 -112 0
74 -107 -183 0
56 -151 -200 0
-29 70 113 0
45 -84 -159 0
59 85 195 0
-13 90 -126 0
110 -163 -195 0
17 -74 186 0
99 -166 173 0
-9 95 -166 0
1 -43 -186 0
-44 -186 -195 0
-12 -17 125 0
45 47 180 0
32 -126 -194 0
-4 26 -191 0
-33 -48 146 0
15 -114 -137 0
48 -116 -172 0
66 -85 150 0
40 -112 155 0
68 101 187 0
-126 141 169 0
-77 -156 -187 0
-37 45 59 0
32 57 164 0
-26 -100 -169 0
-24 46 48 0
-145 149 -176 0
-40 -174 -175 0
97 -99 -139 0
42 -123 196 0
15 -47 -62 0
-41 -146 -195 0
30 -126 141 0
-91 -146 -155 0
84 -122 197 0
-122 -147 171 0
77 -84 200 0
-70 146 174 0
38 -87 -148 0
52 -122 -191 0
16 82 83 0
106 139 -140 0
2 -180 191 0
3 -9 153 0
-20 25 -159 0
112 185 -196 0
-2 43 106 0
71 172 187 0
35 -54 -64 0
3 29 -190 0
77 133 -187 0
-5 -25 182 0
-7 134 196 0
-106 131 -168 0
-86 -113 -170 0
45 -46 -98 0
8 -28 -109 0
-49 -174 188 0
-27 63 -151 0
-12 -69 152 0
88 109 -192 0
-51 -137 -182 0
-146 -159 161 0
-46 73 -97 0
-86 -118 189 0
144 164 -172 0
94 -174 -189 0
133 -181 -185 0
-27 89 92 0
-18 137 -167 0
-6 106 -131 0
75 136 -179 0
67 104 134 0
16 -153 -200 0
62 145 163 0
27 -60 180 0
-79 114 -191 0
-13 -33 -138 0
-20 37 156 0
-26 96 -174 0
63 115 -123 0
-66 124 -137 0
36 81 110 0
-26 33 105 0
80 127 128 0
-3 -26 -111 0
-12 86 131 0
-7 160 199 0
73 131 157 0
-41 -86 98 0
-103 109 143 0
51 74 188 0
6 82 93 0
-5 -109 -185 0
-110 127 148 0
-10 50 192 0
-74 91 -151 0
-78 137 173 0
-32 -125 -196 0
5 27 -185 0
30 113 170 0
-120 -123 -149 0
8 -151 -160 0
-43 -111 162 0
127 173 -194 0
-90 -180 -188 0
-52 -75 -145 0
-28 -164 -200 0
-99 105 131 0
28 137 -143 0
20 24 -36 0
15 30 38 0
-101 -124 -189 0
53 69 155 0
56 74 -83 0
-29 38 189 0
32 -33 -172 0
