c generated_for formulae_like_variant benchmark
c dataset formulae_like_01
c variant 1
c seed_base 20270601
c family xor_parity
c expected_status UNSAT
c notes large sparse contradictory parity system
p cnf 300 1680
15 159 -216 0
15 -159 216 0
-15 159 216 0
-15 -159 -216 0
15 159 216 0
15 -159 -216 0
-15 159 -216 0
-15 -159 216 0
115 188 251 0
115 -188 -251 0
-115 188 -251 0
-115 -188 251 0
23 48 171 0
23 -48 -171 0
-23 48 -171 0
-23 -48 171 0
39 127 253 0
39 -127 -253 0
-39 127 -253 0
-39 -127 253 0
49 131 -207 0
49 -131 207 0
-49 131 207 0
-49 -131 -207 0
230 241 -297 0
230 -241 297 0
-230 241 297 0
-230 -241 -297 0
141 205 -246 0
141 -205 246 0
-141 205 246 0
-141 -205 -246 0
113 130 -297 0
113 -130 297 0
-113 130 297 0
-113 -130 -297 0
63 154 217 0
63 -154 -217 0
-63 154 -217 0
-63 -154 217 0
46 142 278 0
46 -142 -278 0
-46 142 -278 0
-46 -142 278 0
72 211 -297 0
72 -211 297 0
-72 211 297 0
-72 -211 -297 0
42 43 96 0
42 -43 -96 0
-42 43 -96 0
-42 -43 96 0
6 260 291 0
6 -260 -291 0
-6 260 -291 0
-6 -260 291 0
86 172 200 0
86 -172 -200 0
-86 172 -200 0
-86 -172 200 0
43 64 140 0
43 -64 -140 0
-43 64 -140 0
-43 -64 140 0
101 145 155 0
101 -145 -155 0
-101 145 -155 0
-101 -145 155 0
31 119 -269 0
31 -119 269 0
-31 119 269 0
-31 -119 -269 0
3 81 -213 0
3 -81 213 0
-3 81 213 0
-3 -81 -213 0
23 108 291 0
23 -108 -291 0
-23 108 -291 0
-23 -108 291 0
214 251 276 0
214 -251 -276 0
-214 251 -276 0
-214 -251 276 0
8 90 185 0
8 -90 -185 0
-8 90 -185 0
-8 -90 185 0
22 31 79 0
22 -31 -79 0
-22 31 -79 0
-22 -31 79 0
37 123 -242 0
37 -123 242 0
-37 123 242 0
-37 -123 -242 0
25 79 -240 0
25 -79 240 0
-25 79 240 0
-25 -79 -240 0
56 94 -244 0
56 -94 244 0
-56 94 244 0
-56 -94 -244 0
127 180 -254 0
127 -180 254 0
-127 180 254 0
-127 -180 -254 0
31 85 -159 0
31 -85 159 0
-31 85 159 0
-31 -85 -159 0
62 66 127 0
62 -66 -127 0
-62 66 -127 0
-62 -66 127 0
64 251 -261 0
64 -251 261 0
-64 251 261 0
-64 -251 -261 0
39 183 -235 0
39 -183 235 0
-39 183 235 0
-39 -183 -235 0
159 164 228 0
159 -164 -228 0
-159 164 -228 0
-159 -164 228 0
24 36 110 0
24 -36 -110 0
-24 36 -110 0
-24 -36 110 0
68 89 91 0
68 -89 -91 0
-68 89 -91 0
-68 -89 91 0
69 232 297 0
69 -232 -297 0
-69 232 -297 0
-69 -232 297 0
35 124 259 0
35 -124 -259 0
-35 124 -259 0
-35 -124 259 0
119 133 -143 0
119 -133 143 0
-119 133 143 0
-119 -133 -143 0
7 201 -219 0
7 -201 219 0
-7 201 219 0
-7 -201 -219 0
76 152 -189 0
76 -152 189 0
-76 152 189 0
-76 -152 -189 0
49 51 255 0
49 -51 -255 0
-49 51 -255 0
-49 -51 255 0
13 102 190 0
13 -102 -190 0
-13 102 -190 0
-13 -102 190 0
54 64 -75 0
54 -64 75 0
-54 64 75 0
-54 -64 -75 0
28 46 -163 0
28 -46 163 0
-28 46 163 0
-28 -46 -163 0
3 278 -279 0
3 -278 279 0
-3 278 279 0
-3 -278 -279 0
74 163 -281 0
74 -163 281 0
-74 163 281 0
-74 -163 -281 0
29 265 -280 0
29 -265 280 0
-29 265 280 0
-29 -265 -280 0
20 74 -87 0
20 -74 87 0
-20 74 87 0
-20 -74 -87 0
25 106 -268 0
25 -106 268 0
-25 106 268 0
-25 -106 -268 0
154 195 233 0
154 -195 -233 0
-154 195 -233 0
-154 -195 233 0
56 187 271 0
56 -187 -271 0
-56 187 -271 0
-56 -187 271 0
63 272 -292 0
63 -272 292 0
-63 272 292 0
-63 -272 -292 0
26 157 -266 0
26 -157 266 0
-26 157 266 0
-26 -157 -266 0
255 259 -267 0
255 -259 267 0
-255 259 267 0
-255 -259 -267 0
132 163 -223 0
132 -163 223 0
-132 163 223 0
-132 -163 -223 0
48 63 -164 0
48 -63 164 0
-48 63 164 0
-48 -63 -164 0
92 164 295 0
92 -164 -295 0
-92 164 -295 0
-92 -164 295 0
110 169 -234 0
110 -169 234 0
-110 169 234 0
-110 -169 -234 0
85 194 235 0
85 -194 -235 0
-85 194 -235 0
-85 -194 235 0
231 256 289 0
231 -256 -289 0
-231 256 -289 0
-231 -256 289 0
64 161 -177 0
64 -161 177 0
-64 161 177 0
-64 -161 -177 0
12 135 -148 0
12 -135 148 0
-12 135 148 0
-12 -135 -148 0
25 31 35 0
25 -31 -35 0
-25 31 -35 0
-25 -31 35 0
14 118 -217 0
14 -118 217 0
-14 118 217 0
-14 -118 -217 0
72 202 -261 0
72 -202 261 0
-72 202 261 0
-72 -202 -261 0
29 169 -197 0
29 -169 197 0
-29 169 197 0
-29 -169 -197 0
41 274 -286 0
41 -274 286 0
-41 274 286 0
-41 -274 -286 0
4 157 211 0
4 -157 -211 0
-4 157 -211 0
-4 -157 211 0
106 161 -224 0
106 -161 224 0
-106 161 224 0
-106 -161 -224 0
166 204 -230 0
166 -204 230 0
-166 204 230 0
-166 -204 -230 0
12 172 225 0
12 -172 -225 0
-12 172 -225 0
-12 -172 225 0
11 244 -284 0
11 -244 284 0
-11 244 284 0
-11 -244 -284 0
13 83 -164 0
13 -83 164 0
-13 83 164 0
-13 -83 -164 0
152 220 -292 0
152 -220 292 0
-152 220 292 0
-152 -220 -292 0
97 225 -285 0
97 -225 285 0
-97 225 285 0
-97 -225 -285 0
63 207 281 0
63 -207 -281 0
-63 207 -281 0
-63 -207 281 0
122 136 205 0
122 -136 -205 0
-122 136 -205 0
-122 -136 205 0
158 172 -238 0
158 -172 238 0
-158 172 238 0
-158 -172 -238 0
100 135 190 0
100 -135 -190 0
-100 135 -190 0
-100 -135 190 0
23 117 -120 0
23 -117 120 0
-23 117 120 0
-23 -117 -120 0
59 61 -128 0
59 -61 128 0
-59 61 128 0
-59 -61 -128 0
12 105 -228 0
12 -105 228 0
-12 105 228 0
-12 -105 -228 0
95 139 298 0
95 -139 -298 0
-95 139 -298 0
-95 -139 298 0
124 130 -221 0
124 -130 221 0
-124 130 221 0
-124 -130 -221 0
222 291 294 0
222 -291 -294 0
-222 291 -294 0
-222 -291 294 0
36 109 114 0
36 -109 -114 0
-36 109 -114 0
-36 -109 114 0
73 90 -230 0
73 -90 230 0
-73 90 230 0
-73 -90 -230 0
120 196 -265 0
120 -196 265 0
-120 196 265 0
-120 -196 -265 0
50 91 -198 0
50 -91 198 0
-50 91 198 0
-50 -91 -198 0
7 161 -182 0
7 -161 182 0
-7 161 182 0
-7 -161 -182 0
26 49 281 0
26 -49 -281 0
-26 49 -281 0
-26 -49 281 0
102 206 282 0
102 -206 -282 0
-102 206 -282 0
-102 -206 282 0
53 293 -298 0
53 -293 298 0
-53 293 298 0
-53 -293 -298 0
28 126 214 0
28 -126 -214 0
-28 126 -214 0
-28 -126 214 0
143 155 -292 0
143 -155 292 0
-143 155 292 0
-143 -155 -292 0
5 76 -255 0
5 -76 255 0
-5 76 255 0
-5 -76 -255 0
2 30 -193 0
2 -30 193 0
-2 30 193 0
-2 -30 -193 0
40 57 208 0
40 -57 -208 0
-40 57 -208 0
-40 -57 208 0
203 234 -272 0
203 -234 272 0
-203 234 272 0
-203 -234 -272 0
32 53 282 0
32 -53 -282 0
-32 53 -282 0
-32 -53 282 0
27 69 257 0
27 -69 -257 0
-27 69 -257 0
-27 -69 257 0
1 38 -42 0
1 -38 42 0
-1 38 42 0
-1 -38 -42 0
3 14 -83 0
3 -14 83 0
-3 14 83 0
-3 -14 -83 0
11 95 -219 0
11 -95 219 0
-11 95 219 0
-11 -95 -219 0
6 11 -133 0
6 -11 133 0
-6 11 133 0
-6 -11 -133 0
64 145 -209 0
64 -145 209 0
-64 145 209 0
-64 -145 -209 0
85 162 255 0
85 -162 -255 0
-85 162 -255 0
-85 -162 255 0
192 253 293 0
192 -253 -293 0
-192 253 -293 0
-192 -253 293 0
92 174 -294 0
92 -174 294 0
-92 174 294 0
-92 -174 -294 0
193 263 267 0
193 -263 -267 0
-193 263 -267 0
-193 -263 267 0
220 240 300 0
220 -240 -300 0
-220 240 -300 0
-220 -240 300 0
216 235 263 0
216 -235 -263 0
-216 235 -263 0
-216 -235 263 0
47 96 -242 0
47 -96 242 0
-47 96 242 0
-47 -96 -242 0
35 134 227 0
35 -134 -227 0
-35 134 -227 0
-35 -134 227 0
180 248 295 0
180 -248 -295 0
-180 248 -295 0
-180 -248 295 0
60 149 177 0
60 -149 -177 0
-60 149 -177 0
-60 -149 177 0
84 138 196 0
84 -138 -196 0
-84 138 -196 0
-84 -138 196 0
45 66 -122 0
45 -66 122 0
-45 66 122 0
-45 -66 -122 0
64 115 211 0
64 -115 -211 0
-64 115 -211 0
-64 -115 211 0
149 163 -294 0
149 -163 294 0
-149 163 294 0
-149 -163 -294 0
28 194 215 0
28 -194 -215 0
-28 194 -215 0
-28 -194 215 0
46 223 -241 0
46 -223 241 0
-46 223 241 0
-46 -223 -241 0
39 50 -224 0
39 -50 224 0
-39 50 224 0
-39 -50 -224 0
137 236 269 0
137 -236 -269 0
-137 236 -269 0
-137 -236 269 0
171 206 -274 0
171 -206 274 0
-171 206 274 0
-171 -206 -274 0
63 158 -199 0
63 -158 199 0
-63 158 199 0
-63 -158 -199 0
42 126 221 0
42 -126 -221 0
-42 126 -221 0
-42 -126 221 0
66 98 218 0
66 -98 -218 0
-66 98 -218 0
-66 -98 218 0
73 196 260 0
73 -196 -260 0
-73 196 -260 0
-73 -196 260 0
84 101 246 0
84 -101 -246 0
-84 101 -246 0
-84 -101 246 0
66 93 280 0
66 -93 -280 0
-66 93 -280 0
-66 -93 280 0
2 98 190 0
2 -98 -190 0
-2 98 -190 0
-2 -98 190 0
83 155 240 0
83 -155 -240 0
-83 155 -240 0
-83 -155 240 0
68 88 -133 0
68 -88 133 0
-68 88 133 0
-68 -88 -133 0
158 170 228 0
158 -170 -228 0
-158 170 -228 0
-158 -170 228 0
62 238 -274 0
62 -238 274 0
-62 238 274 0
-62 -238 -274 0
117 261 300 0
117 -261 -300 0
-117 261 -300 0
-117 -261 300 0
124 132 154 0
124 -132 -154 0
-124 132 -154 0
-124 -132 154 0
44 202 -215 0
44 -202 215 0
-44 202 215 0
-44 -202 -215 0
1 39 -162 0
1 -39 162 0
-1 39 162 0
-1 -39 -162 0
59 130 -224 0
59 -130 224 0
-59 130 224 0
-59 -130 -224 0
70 230 295 0
70 -230 -295 0
-70 230 -295 0
-70 -230 295 0
48 259 300 0
48 -259 -300 0
-48 259 -300 0
-48 -259 300 0
32 135 202 0
32 -135 -202 0
-32 135 -202 0
-32 -135 202 0
157 248 -291 0
157 -248 291 0
-157 248 291 0
-157 -248 -291 0
13 276 288 0
13 -276 -288 0
-13 276 -288 0
-13 -276 288 0
51 63 -261 0
51 -63 261 0
-51 63 261 0
-51 -63 -261 0
87 238 -267 0
87 -238 267 0
-87 238 267 0
-87 -238 -267 0
126 179 -254 0
126 -179 254 0
-126 179 254 0
-126 -179 -254 0
58 189 239 0
58 -189 -239 0
-58 189 -239 0
-58 -189 239 0
90 156 241 0
90 -156 -241 0
-90 156 -241 0
-90 -156 241 0
145 254 283 0
145 -254 -283 0
-145 254 -283 0
-145 -254 283 0
30 157 -192 0
30 -157 192 0
-30 157 192 0
-30 -157 -192 0
14 135 165 0
14 -135 -165 0
-14 135 -165 0
-14 -135 165 0
11 39 -174 0
11 -39 174 0
-11 39 174 0
-11 -39 -174 0
23 66 144 0
23 -66 -144 0
-23 66 -144 0
-23 -66 144 0
47 123 251 0
47 -123 -251 0
-47 123 -251 0
-47 -123 251 0
56 77 119 0
56 -77 -119 0
-56 77 -119 0
-56 -77 119 0
172 190 -256 0
172 -190 256 0
-172 190 256 0
-172 -190 -256 0
65 119 229 0
65 -119 -229 0
-65 119 -229 0
-65 -119 229 0
85 92 283 0
85 -92 -283 0
-85 92 -283 0
-85 -92 283 0
101 202 261 0
101 -202 -261 0
-101 202 -261 0
-101 -202 261 0
71 126 -197 0
71 -126 197 0
-71 126 197 0
-71 -126 -197 0
139 141 271 0
139 -141 -271 0
-139 141 -271 0
-139 -141 271 0
60 189 282 0
60 -189 -282 0
-60 189 -282 0
-60 -189 282 0
50 112 -116 0
50 -112 116 0
-50 112 116 0
-50 -112 -116 0
53 164 286 0
53 -164 -286 0
-53 164 -286 0
-53 -164 286 0
53 235 -245 0
53 -235 245 0
-53 235 245 0
-53 -235 -245 0
53 116 155 0
53 -116 -155 0
-53 116 -155 0
-53 -116 155 0
31 37 271 0
31 -37 -271 0
-31 37 -271 0
-31 -37 271 0
167 173 -267 0
167 -173 267 0
-167 173 267 0
-167 -173 -267 0
117 242 -277 0
117 -242 277 0
-117 242 277 0
-117 -242 -277 0
87 96 195 0
87 -96 -195 0
-87 96 -195 0
-87 -96 195 0
42 49 -186 0
42 -49 186 0
-42 49 186 0
-42 -49 -186 0
87 258 -271 0
87 -258 271 0
-87 258 271 0
-87 -258 -271 0
136 156 290 0
136 -156 -290 0
-136 156 -290 0
-136 -156 290 0
15 135 293 0
15 -135 -293 0
-15 135 -293 0
-15 -135 293 0
153 220 231 0
153 -220 -231 0
-153 220 -231 0
-153 -220 231 0
68 236 -298 0
68 -236 298 0
-68 236 298 0
-68 -236 -298 0
5 79 -193 0
5 -79 193 0
-5 79 193 0
-5 -79 -193 0
258 268 -288 0
258 -268 288 0
-258 268 288 0
-258 -268 -288 0
40 187 198 0
40 -187 -198 0
-40 187 -198 0
-40 -187 198 0
2 244 -267 0
2 -244 267 0
-2 244 267 0
-2 -244 -267 0
158 246 280 0
158 -246 -280 0
-158 246 -280 0
-158 -246 280 0
45 96 -218 0
45 -96 218 0
-45 96 218 0
-45 -96 -218 0
12 31 -202 0
12 -31 202 0
-12 31 202 0
-12 -31 -202 0
259 279 -291 0
259 -279 291 0
-259 279 291 0
-259 -279 -291 0
167 206 255 0
167 -206 -255 0
-167 206 -255 0
-167 -206 255 0
26 214 246 0
26 -214 -246 0
-26 214 -246 0
-26 -214 246 0
7 103 -105 0
7 -103 105 0
-7 103 105 0
-7 -103 -105 0
123 212 -260 0
123 -212 260 0
-123 212 260 0
-123 -212 -260 0
48 64 216 0
48 -64 -216 0
-48 64 -216 0
-48 -64 216 0
16 167 172 0
16 -167 -172 0
-16 167 -172 0
-16 -167 172 0
159 235 279 0
159 -235 -279 0
-159 235 -279 0
-159 -235 279 0
97 116 277 0
97 -116 -277 0
-97 116 -277 0
-97 -116 277 0
63 156 -166 0
63 -156 166 0
-63 156 166 0
-63 -156 -166 0
167 186 225 0
167 -186 -225 0
-167 186 -225 0
-167 -186 225 0
105 264 274 0
105 -264 -274 0
-105 264 -274 0
-105 -264 274 0
75 173 -181 0
75 -173 181 0
-75 173 181 0
-75 -173 -181 0
112 118 -299 0
112 -118 299 0
-112 118 299 0
-112 -118 -299 0
211 222 -259 0
211 -222 259 0
-211 222 259 0
-211 -222 -259 0
16 151 -260 0
16 -151 260 0
-16 151 260 0
-16 -151 -260 0
4 219 298 0
4 -219 -298 0
-4 219 -298 0
-4 -219 298 0
218 259 292 0
218 -259 -292 0
-218 259 -292 0
-218 -259 292 0
124 216 -277 0
124 -216 277 0
-124 216 277 0
-124 -216 -277 0
45 133 143 0
45 -133 -143 0
-45 133 -143 0
-45 -133 143 0
8 68 -245 0
8 -68 245 0
-8 68 245 0
-8 -68 -245 0
21 28 -207 0
21 -28 207 0
-21 28 207 0
-21 -28 -207 0
14 64 -259 0
14 -64 259 0
-14 64 259 0
-14 -64 -259 0
90 100 116 0
90 -100 -116 0
-90 100 -116 0
-90 -100 116 0
195 230 269 0
195 -230 -269 0
-195 230 -269 0
-195 -230 269 0
65 122 130 0
65 -122 -130 0
-65 122 -130 0
-65 -122 130 0
109 199 -282 0
109 -199 282 0
-109 199 282 0
-109 -199 -282 0
189 209 243 0
189 -209 -243 0
-189 209 -243 0
-189 -209 243 0
9 85 -133 0
9 -85 133 0
-9 85 133 0
-9 -85 -133 0
5 256 -261 0
5 -256 261 0
-5 256 261 0
-5 -256 -261 0
49 98 -177 0
49 -98 177 0
-49 98 177 0
-49 -98 -177 0
11 45 154 0
11 -45 -154 0
-11 45 -154 0
-11 -45 154 0
180 188 -258 0
180 -188 258 0
-180 188 258 0
-180 -188 -258 0
103 256 264 0
103 -256 -264 0
-103 256 -264 0
-103 -256 264 0
127 179 247 0
127 -179 -247 0
-127 179 -247 0
-127 -179 247 0
109 187 288 0
109 -187 -288 0
-109 187 -288 0
-109 -187 288 0
78 163 -220 0
78 -163 220 0
-78 163 220 0
-78 -163 -220 0
210 221 -279 0
210 -221 279 0
-210 221 279 0
-210 -221 -279 0
86 174 -205 0
86 -174 205 0
-86 174 205 0
-86 -174 -205 0
39 142 -258 0
39 -142 258 0
-39 142 258 0
-39 -142 -258 0
98 104 222 0
98 -104 -222 0
-98 104 -222 0
-98 -104 222 0
105 275 -290 0
105 -275 290 0
-105 275 290 0
-105 -275 -290 0
147 197 -222 0
147 -197 222 0
-147 197 222 0
-147 -197 -222 0
2 136 -284 0
2 -136 284 0
-2 136 284 0
-2 -136 -284 0
125 172 287 0
125 -172 -287 0
-125 172 -287 0
-125 -172 287 0
31 277 290 0
31 -277 -290 0
-31 277 -290 0
-31 -277 290 0
63 79 -106 0
63 -79 106 0
-63 79 106 0
-63 -79 -106 0
174 183 294 0
174 -183 -294 0
-174 183 -294 0
-174 -183 294 0
33 115 123 0
33 -115 -123 0
-33 115 -123 0
-33 -115 123 0
141 229 272 0
141 -229 -272 0
-141 229 -272 0
-141 -229 272 0
38 87 -182 0
38 -87 182 0
-38 87 182 0
-38 -87 -182 0
209 268 -279 0
209 -268 279 0
-209 268 279 0
-209 -268 -279 0
45 181 284 0
45 -181 -284 0
-45 181 -284 0
-45 -181 284 0
37 94 294 0
37 -94 -294 0
-37 94 -294 0
-37 -94 294 0
46 131 -238 0
46 -131 238 0
-46 131 238 0
-46 -131 -238 0
24 52 -166 0
24 -52 166 0
-24 52 166 0
-24 -52 -166 0
240 271 -291 0
240 -271 291 0
-240 271 291 0
-240 -271 -291 0
12 163 232 0
12 -163 -232 0
-12 163 -232 0
-12 -163 232 0
18 21 -80 0
18 -21 80 0
-18 21 80 0
-18 -21 -80 0
252 269 300 0
252 -269 -300 0
-252 269 -300 0
-252 -269 300 0
167 170 229 0
167 -170 -229 0
-167 170 -229 0
-167 -170 229 0
12 172 209 0
12 -172 -209 0
-12 172 -209 0
-12 -172 209 0
73 270 -273 0
73 -270 273 0
-73 270 273 0
-73 -270 -273 0
167 252 262 0
167 -252 -262 0
-167 252 -262 0
-167 -252 262 0
80 95 -226 0
80 -95 226 0
-80 95 226 0
-80 -95 -226 0
4 228 -247 0
4 -228 247 0
-4 228 247 0
-4 -228 -247 0
50 67 290 0
50 -67 -290 0
-50 67 -290 0
-50 -67 290 0
96 114 -229 0
96 -114 229 0
-96 114 229 0
-96 -114 -229 0
77 136 -205 0
77 -136 205 0
-77 136 205 0
-77 -136 -205 0
232 252 266 0
232 -252 -266 0
-232 252 -266 0
-232 -252 266 0
94 214 232 0
94 -214 -232 0
-94 214 -232 0
-94 -214 232 0
14 245 -270 0
14 -245 270 0
-14 245 270 0
-14 -245 -270 0
68 99 -162 0
68 -99 162 0
-68 99 162 0
-68 -99 -162 0
107 126 291 0
107 -126 -291 0
-107 126 -291 0
-107 -126 291 0
112 240 -271 0
112 -240 271 0
-112 240 271 0
-112 -240 -271 0
22 164 190 0
22 -164 -190 0
-22 164 -190 0
-22 -164 190 0
30 265 295 0
30 -265 -295 0
-30 265 -295 0
-30 -265 295 0
45 246 292 0
45 -246 -292 0
-45 246 -292 0
-45 -246 292 0
84 184 278 0
84 -184 -278 0
-84 184 -278 0
-84 -184 278 0
70 91 -230 0
70 -91 230 0
-70 91 230 0
-70 -91 -230 0
169 239 281 0
169 -239 -281 0
-169 239 -281 0
-169 -239 281 0
75 162 255 0
75 -162 -255 0
-75 162 -255 0
-75 -162 255 0
3 152 -163 0
3 -152 163 0
-3 152 163 0
-3 -152 -163 0
45 280 -289 0
45 -280 289 0
-45 280 289 0
-45 -280 -289 0
70 93 131 0
70 -93 -131 0
-70 93 -131 0
-70 -93 131 0
116 188 244 0
116 -188 -244 0
-116 188 -244 0
-116 -188 244 0
36 261 -284 0
36 -261 284 0
-36 261 284 0
-36 -261 -284 0
52 158 -271 0
52 -158 271 0
-52 158 271 0
-52 -158 -271 0
122 221 249 0
122 -221 -249 0
-122 221 -249 0
-122 -221 249 0
41 255 -295 0
41 -255 295 0
-41 255 295 0
-41 -255 -295 0
65 90 -263 0
65 -90 263 0
-65 90 263 0
-65 -90 -263 0
21 155 -259 0
21 -155 259 0
-21 155 259 0
-21 -155 -259 0
29 61 152 0
29 -61 -152 0
-29 61 -152 0
-29 -61 152 0
96 110 -154 0
96 -110 154 0
-96 110 154 0
-96 -110 -154 0
67 239 -287 0
67 -239 287 0
-67 239 287 0
-67 -239 -287 0
77 96 156 0
77 -96 -156 0
-77 96 -156 0
-77 -96 156 0
64 123 -248 0
64 -123 248 0
-64 123 248 0
-64 -123 -248 0
77 110 254 0
77 -110 -254 0
-77 110 -254 0
-77 -110 254 0
4 83 -211 0
4 -83 211 0
-4 83 211 0
-4 -83 -211 0
127 153 -247 0
127 -153 247 0
-127 153 247 0
-127 -153 -247 0
215 261 -299 0
215 -261 299 0
-215 261 299 0
-215 -261 -299 0
16 93 -126 0
16 -93 126 0
-16 93 126 0
-16 -93 -126 0
185 194 -274 0
185 -194 274 0
-185 194 274 0
-185 -194 -274 0
212 223 -285 0
212 -223 285 0
-212 223 285 0
-212 -223 -285 0
265 269 283 0
265 -269 -283 0
-265 269 -283 0
-265 -269 283 0
28 67 -184 0
28 -67 184 0
-28 67 184 0
-28 -67 -184 0
66 186 -221 0
66 -186 221 0
-66 186 221 0
-66 -186 -221 0
3 259 -276 0
3 -259 276 0
-3 259 276 0
-3 -259 -276 0
103 211 290 0
103 -211 -290 0
-103 211 -290 0
-103 -211 290 0
3 64 115 0
3 -64 -115 0
-3 64 -115 0
-3 -64 115 0
14 91 -178 0
14 -91 178 0
-14 91 178 0
-14 -91 -178 0
28 48 -151 0
28 -48 151 0
-28 48 151 0
-28 -48 -151 0
3 112 -257 0
3 -112 257 0
-3 112 257 0
-3 -112 -257 0
134 206 -211 0
134 -206 211 0
-134 206 211 0
-134 -206 -211 0
168 220 -251 0
168 -220 251 0
-168 220 251 0
-168 -220 -251 0
101 159 -182 0
101 -159 182 0
-101 159 182 0
-101 -159 -182 0
62 73 -236 0
62 -73 236 0
-62 73 236 0
-62 -73 -236 0
121 167 -223 0
121 -167 223 0
-121 167 223 0
-121 -167 -223 0
97 150 159 0
97 -150 -159 0
-97 150 -159 0
-97 -150 159 0
159 240 -248 0
159 -240 248 0
-159 240 248 0
-159 -240 -248 0
10 147 226 0
10 -147 -226 0
-10 147 -226 0
-10 -147 226 0
169 288 -291 0
169 -288 291 0
-169 288 291 0
-169 -288 -291 0
70 100 -156 0
70 -100 156 0
-70 100 156 0
-70 -100 -156 0
185 203 -207 0
185 -203 207 0
-185 203 207 0
-185 -203 -207 0
194 264 -284 0
194 -264 284 0
-194 264 284 0
-194 -264 -284 0
103 138 -152 0
103 -138 152 0
-103 138 152 0
-103 -138 -152 0
22 264 285 0
22 -264 -285 0
-22 264 -285 0
-22 -264 285 0
149 189 -268 0
149 -189 268 0
-149 189 268 0
-149 -189 -268 0
132 250 296 0
132 -250 -296 0
-132 250 -296 0
-132 -250 296 0
16 160 -181 0
16 -160 181 0
-16 160 181 0
-16 -160 -181 0
166 186 197 0
166 -186 -197 0
-166 186 -197 0
-166 -186 197 0
115 129 285 0
115 -129 -285 0
-115 129 -285 0
-115 -129 285 0
101 203 287 0
101 -203 -287 0
-101 203 -287 0
-101 -203 287 0
17 131 239 0
17 -131 -239 0
-17 131 -239 0
-17 -131 239 0
141 182 -266 0
141 -182 266 0
-141 182 266 0
-141 -182 -266 0
18 24 -168 0
18 -24 168 0
-18 24 168 0
-18 -24 -168 0
68 216 -220 0
68 -216 220 0
-68 216 220 0
-68 -216 -220 0
77 131 -254 0
77 -131 254 0
-77 131 254 0
-77 -131 -254 0
42 241 299 0
42 -241 -299 0
-42 241 -299 0
-42 -241 299 0
106 145 283 0
106 -145 -283 0
-106 145 -283 0
-106 -145 283 0
44 83 -121 0
44 -83 121 0
-44 83 121 0
-44 -83 -121 0
22 212 -237 0
22 -212 237 0
-22 212 237 0
-22 -212 -237 0
53 87 96 0
53 -87 -96 0
-53 87 -96 0
-53 -87 96 0
211 230 273 0
211 -230 -273 0
-211 230 -273 0
-211 -230 273 0
5 86 155 0
5 -86 -155 0
-5 86 -155 0
-5 -86 155 0
62 213 221 0
62 -213 -221 0
-62 213 -221 0
-62 -213 221 0
36 62 -201 0
36 -62 201 0
-36 62 201 0
-36 -62 -201 0
67 156 199 0
67 -156 -199 0
-67 156 -199 0
-67 -156 199 0
62 237 -298 0
62 -237 298 0
-62 237 298 0
-62 -237 -298 0
145 220 -229 0
145 -220 229 0
-145 220 229 0
-145 -220 -229 0
124 207 -243 0
124 -207 243 0
-124 207 243 0
-124 -207 -243 0
87 269 284 0
87 -269 -284 0
-87 269 -284 0
-87 -269 284 0
31 156 215 0
31 -156 -215 0
-31 156 -215 0
-31 -156 215 0
70 122 -142 0
70 -122 142 0
-70 122 142 0
-70 -122 -142 0
62 63 -141 0
62 -63 141 0
-62 63 141 0
-62 -63 -141 0
79 140 -234 0
79 -140 234 0
-79 140 234 0
-79 -140 -234 0
119 136 -191 0
119 -136 191 0
-119 136 191 0
-119 -136 -191 0
129 179 -216 0
129 -179 216 0
-129 179 216 0
-129 -179 -216 0
209 240 298 0
209 -240 -298 0
-209 240 -298 0
-209 -240 298 0
39 177 230 0
39 -177 -230 0
-39 177 -230 0
-39 -177 230 0
32 230 -261 0
32 -230 261 0
-32 230 261 0
-32 -230 -261 0
53 106 -137 0
53 -106 137 0
-53 106 137 0
-53 -106 -137 0
100 132 207 0
100 -132 -207 0
-100 132 -207 0
-100 -132 207 0
212 252 -276 0
212 -252 276 0
-212 252 276 0
-212 -252 -276 0
48 271 278 0
48 -271 -278 0
-48 271 -278 0
-48 -271 278 0
21 100 131 0
21 -100 -131 0
-21 100 -131 0
-21 -100 131 0
8 136 229 0
8 -136 -229 0
-8 136 -229 0
-8 -136 229 0
44 55 -81 0
44 -55 81 0
-44 55 81 0
-44 -55 -81 0
20 46 188 0
20 -46 -188 0
-20 46 -188 0
-20 -46 188 0
81 241 266 0
81 -241 -266 0
-81 241 -266 0
-81 -241 266 0
17 190 -241 0
17 -190 241 0
-17 190 241 0
-17 -190 -241 0
51 93 -154 0
51 -93 154 0
-51 93 154 0
-51 -93 -154 0
143 225 -291 0
143 -225 291 0
-143 225 291 0
-143 -225 -291 0
127 172 -236 0
127 -172 236 0
-127 172 236 0
-127 -172 -236 0
133 186 -187 0
133 -186 187 0
-133 186 187 0
-133 -186 -187 0
15 37 175 0
15 -37 -175 0
-15 37 -175 0
-15 -37 175 0
84 96 104 0
84 -96 -104 0
-84 96 -104 0
-84 -96 104 0
209 210 295 0
209 -210 -295 0
-209 210 -295 0
-209 -210 295 0
75 142 169 0
75 -142 -169 0
-75 142 -169 0
-75 -142 169 0
59 96 140 0
59 -96 -140 0
-59 96 -140 0
-59 -96 140 0
32 197 251 0
32 -197 -251 0
-32 197 -251 0
-32 -197 251 0
105 144 165 0
105 -144 -165 0
-105 144 -165 0
-105 -144 165 0
108 121 163 0
108 -121 -163 0
-108 121 -163 0
-108 -121 163 0
20 79 -145 0
20 -79 145 0
-20 79 145 0
-20 -79 -145 0
18 119 219 0
18 -119 -219 0
-18 119 -219 0
-18 -119 219 0
14 129 -236 0
14 -129 236 0
-14 129 236 0
-14 -129 -236 0
55 144 -216 0
55 -144 216 0
-55 144 216 0
-55 -144 -216 0
9 23 -279 0
9 -23 279 0
-9 23 279 0
-9 -23 -279 0
41 47 -145 0
41 -47 145 0
-41 47 145 0
-41 -47 -145 0
82 193 240 0
82 -193 -240 0
-82 193 -240 0
-82 -193 240 0
163 231 -244 0
163 -231 244 0
-163 231 244 0
-163 -231 -244 0
55 183 -260 0
55 -183 260 0
-55 183 260 0
-55 -183 -260 0
23 95 134 0
23 -95 -134 0
-23 95 -134 0
-23 -95 134 0
127 178 -245 0
127 -178 245 0
-127 178 245 0
-127 -178 -245 0
172 198 297 0
172 -198 -297 0
-172 198 -297 0
-172 -198 297 0
112 132 186 0
112 -132 -186 0
-112 132 -186 0
-112 -132 186 0
35 96 146 0
35 -96 -146 0
-35 96 -146 0
-35 -96 146 0
86 237 -297 0
86 -237 297 0
-86 237 297 0
-86 -237 -297 0
144 213 -254 0
144 -213 254 0
-144 213 254 0
-144 -213 -254 0
43 187 -229 0
43 -187 229 0
-43 187 229 0
-43 -187 -229 0
174 250 -259 0
174 -250 259 0
-174 250 259 0
-174 -250 -259 0
115 206 -231 0
115 -206 231 0
-115 206 231 0
-115 -206 -231 0
27 81 -241 0
27 -81 241 0
-27 81 241 0
-27 -81 -241 0
123 125 -254 0
123 -125 254 0
-123 125 254 0
-123 -125 -254 0
76 195 274 0
76 -195 -274 0
-76 195 -274 0
-76 -195 274 0
12 37 221 0
12 -37 -221 0
-12 37 -221 0
-12 -37 221 0
45 66 219 0
45 -66 -219 0
-45 66 -219 0
-45 -66 219 0
51 164 259 0
51 -164 -259 0
-51 164 -259 0
-51 -164 259 0
15 204 274 0
15 -204 -274 0
-15 204 -274 0
-15 -204 274 0
23 32 -170 0
23 -32 170 0
-23 32 170 0
-23 -32 -170 0
8 165 -172 0
8 -165 172 0
-8 165 172 0
-8 -165 -172 0
118 152 -300 0
118 -152 300 0
-118 152 300 0
-118 -152 -300 0
63 222 -276 0
63 -222 276 0
-63 222 276 0
-63 -222 -276 0
23 58 91 0
23 -58 -91 0
-23 58 -91 0
-23 -58 91 0
49 68 123 0
49 -68 -123 0
-49 68 -123 0
-49 -68 123 0
141 222 -274 0
141 -222 274 0
-141 222 274 0
-141 -222 -274 0
50 126 -234 0
50 -126 234 0
-50 126 234 0
-50 -126 -234 0
47 139 -144 0
47 -139 144 0
-47 139 144 0
-47 -139 -144 0
56 193 280 0
56 -193 -280 0
-56 193 -280 0
-56 -193 280 0
38 52 -265 0
38 -52 265 0
-38 52 265 0
-38 -52 -265 0
6 168 169 0
6 -168 -169 0
-6 168 -169 0
-6 -168 169 0
193 244 -286 0
193 -244 286 0
-193 244 286 0
-193 -244 -286 0
44 290 296 0
44 -290 -296 0
-44 290 -296 0
-44 -290 296 0
88 102 -205 0
88 -102 205 0
-88 102 205 0
-88 -102 -205 0
106 268 -296 0
106 -268 296 0
-106 268 296 0
-106 -268 -296 0
74 220 268 0
74 -220 -268 0
-74 220 -268 0
-74 -220 268 0
10 88 262 0
10 -88 -262 0
-10 88 -262 0
-10 -88 262 0
78 112 -145 0
78 -112 145 0
-78 112 145 0
-78 -112 -145 0
191 203 -219 0
191 -203 219 0
-191 203 219 0
-191 -203 -219 0
27 205 231 0
27 -205 -231 0
-27 205 -231 0
-27 -205 231 0
21 35 -68 0
21 -35 68 0
-21 35 68 0
-21 -35 -68 0
100 137 161 0
100 -137 -161 0
-100 137 -161 0
-100 -137 161 0
52 77 -124 0
52 -77 124 0
-52 77 124 0
-52 -77 -124 0
5 33 84 0
5 -33 -84 0
-5 33 -84 0
-5 -33 84 0
113 151 292 0
113 -151 -292 0
-113 151 -292 0
-113 -151 292 0
