c description: Binary Pigeonhole Principle for 9 pigeons and 8 holes
c generator: CNFgen (0.9.5)
c copyright: (C) 2012-2026 Massimo Lauria <massimo.lauria@uniroma1.it>
c url: https://massimolauria.net/cnfgen
c random seed: 31155
c command line: cnfgen -S 31155 -o cnfgen_regression_pack/cnfgen_cases/bphp_p9_h8_unsat.cnf bphp 9 8
c
c known_status: UNSAT
c pack_family: binary_pigeonhole
c pack_level: moderate
c pack_notes: binary pigeonhole principle
p cnf 27 288
1 2 3 4 5 6 0
1 2 3 7 8 9 0
1 2 3 10 11 12 0
1 2 3 13 14 15 0
1 2 3 16 17 18 0
1 2 3 19 20 21 0
1 2 3 22 23 24 0
1 2 3 25 26 27 0
4 5 6 7 8 9 0
4 5 6 10 11 12 0
4 5 6 13 14 15 0
4 5 6 16 17 18 0
4 5 6 19 20 21 0
4 5 6 22 23 24 0
4 5 6 25 26 27 0
7 8 9 10 11 12 0
7 8 9 13 14 15 0
7 8 9 16 17 18 0
7 8 9 19 20 21 0
7 8 9 22 23 24 0
7 8 9 25 26 27 0
10 11 12 13 14 15 0
10 11 12 16 17 18 0
10 11 12 19 20 21 0
10 11 12 22 23 24 0
10 11 12 25 26 27 0
13 14 15 16 17 18 0
13 14 15 19 20 21 0
13 14 15 22 23 24 0
13 14 15 25 26 27 0
16 17 18 19 20 21 0
16 17 18 22 23 24 0
16 17 18 25 26 27 0
19 20 21 22 23 24 0
19 20 21 25 26 27 0
22 23 24 25 26 27 0
1 2 -3 4 5 -6 0
1 2 -3 7 8 -9 0
1 2 -3 10 11 -12 0
1 2 -3 13 14 -15 0
1 2 -3 16 17 -18 0
1 2 -3 19 20 -21 0
1 2 -3 22 23 -24 0
1 2 -3 25 26 -27 0
4 5 -6 7 8 -9 0
4 5 -6 10 11 -12 0
4 5 -6 13 14 -15 0
4 5 -6 16 17 -18 0
4 5 -6 19 20 -21 0
4 5 -6 22 23 -24 0
4 5 -6 25 26 -27 0
7 8 -9 10 11 -12 0
7 8 -9 13 14 -15 0
7 8 -9 16 17 -18 0
7 8 -9 19 20 -21 0
7 8 -9 22 23 -24 0
7 8 -9 25 26 -27 0
10 11 -12 13 14 -15 0
10 11 -12 16 17 -18 0
10 11 -12 19 20 -21 0
10 11 -12 22 23 -24 0
10 11 -12 25 26 -27 0
13 14 -15 16 17 -18 0
13 14 -15 19 20 -21 0
13 14 -15 22 23 -24 0
13 14 -15 25 26 -27 0
16 17 -18 19 20 -21 0
16 17 -18 22 23 -24 0
16 17 -18 25 26 -27 0
19 20 -21 22 23 -24 0
19 20 -21 25 26 -27 0
22 23 -24 25 26 -27 0
1 -2 3 4 -5 6 0
1 -2 3 7 -8 9 0
1 -2 3 10 -11 12 0
1 -2 3 13 -14 15 0
1 -2 3 16 -17 18 0
1 -2 3 19 -20 21 0
1 -2 3 22 -23 24 0
1 -2 3 25 -26 27 0
4 -5 6 7 -8 9 0
4 -5 6 10 -11 12 0
4 -5 6 13 -14 15 0
4 -5 6 16 -17 18 0
4 -5 6 19 -20 21 0
4 -5 6 22 -23 24 0
4 -5 6 25 -26 27 0
7 -8 9 10 -11 12 0
7 -8 9 13 -14 15 0
7 -8 9 16 -17 18 0
7 -8 9 19 -20 21 0
7 -8 9 22 -23 24 0
7 -8 9 25 -26 27 0
10 -11 12 13 -14 15 0
10 -11 12 16 -17 18 0
10 -11 12 19 -20 21 0
10 -11 12 22 -23 24 0
10 -11 12 25 -26 27 0
13 -14 15 16 -17 18 0
13 -14 15 19 -20 21 0
13 -14 15 22 -23 24 0
13 -14 15 25 -26 27 0
16 -17 18 19 -20 21 0
16 -17 18 22 -23 24 0
16 -17 18 25 -26 27 0
19 -20 21 22 -23 24 0
19 -20 21 25 -26 27 0
22 -23 24 25 -26 27 0
1 -2 -3 4 -5 -6 0
1 -2 -3 7 -8 -9 0
1 -2 -3 10 -11 -12 0
1 -2 -3 13 -14 -15 0
1 -2 -3 16 -17 -18 0
1 -2 -3 19 -20 -21 0
1 -2 -3 22 -23 -24 0
1 -2 -3 25 -26 -27 0
4 -5 -6 7 -8 -9 0
4 -5 -6 10 -11 -12 0
4 -5 -6 13 -14 -15 0
4 -5 -6 16 -17 -18 0
4 -5 -6 19 -20 -21 0
4 -5 -6 22 -23 -24 0
4 -5 -6 25 -26 -27 0
7 -8 -9 10 -11 -12 0
7 -8 -9 13 -14 -15 0
7 -8 -9 16 -17 -18 0
7 -8 -9 19 -20 -21 0
7 -8 -9 22 -23 -24 0
7 -8 -9 25 -26 -27 0
10 -11 -12 13 -14 -15 0
10 -11 -12 16 -17 -18 0
10 -11 -12 19 -20 -21 0
10 -11 -12 22 -23 -24 0
10 -11 -12 25 -26 -27 0
13 -14 -15 16 -17 -18 0
13 -14 -15 19 -20 -21 0
13 -14 -15 22 -23 -24 0
13 -14 -15 25 -26 -27 0
16 -17 -18 19 -20 -21 0
16 -17 -18 22 -23 -24 0
16 -17 -18 25 -26 -27 0
19 -20 -21 22 -23 -24 0
19 -20 -21 25 -26 -27 0
22 -23 -24 25 -26 -27 0
-1 2 3 -4 5 6 0
-1 2 3 -7 8 9 0
-1 2 3 -10 11 12 0
-1 2 3 -13 14 15 0
-1 2 3 -16 17 18 0
-1 2 3 -19 20 21 0
-1 2 3 -22 23 24 0
-1 2 3 -25 26 27 0
-4 5 6 -7 8 9 0
-4 5 6 -10 11 12 0
-4 5 6 -13 14 15 0
-4 5 6 -16 17 18 0
-4 5 6 -19 20 21 0
-4 5 6 -22 23 24 0
-4 5 6 -25 26 27 0
-7 8 9 -10 11 12 0
-7 8 9 -13 14 15 0
-7 8 9 -16 17 18 0
-7 8 9 -19 20 21 0
-7 8 9 -22 23 24 0
-7 8 9 -25 26 27 0
-10 11 12 -13 14 15 0
-10 11 12 -16 17 18 0
-10 11 12 -19 20 21 0
-10 11 12 -22 23 24 0
-10 11 12 -25 26 27 0
-13 14 15 -16 17 18 0
-13 14 15 -19 20 21 0
-13 14 15 -22 23 24 0
-13 14 15 -25 26 27 0
-16 17 18 -19 20 21 0
-16 17 18 -22 23 24 0
-16 17 18 -25 26 27 0
-19 20 21 -22 23 24 0
-19 20 21 -25 26 27 0
-22 23 24 -25 26 27 0
-1 2 -3 -4 5 -6 0
-1 2 -3 -7 8 -9 0
-1 2 -3 -10 11 -12 0
-1 2 -3 -13 14 -15 0
-1 2 -3 -16 17 -18 0
-1 2 -3 -19 20 -21 0
-1 2 -3 -22 23 -24 0
-1 2 -3 -25 26 -27 0
-4 5 -6 -7 8 -9 0
-4 5 -6 -10 11 -12 0
-4 5 -6 -13 14 -15 0
-4 5 -6 -16 17 -18 0
-4 5 -6 -19 20 -21 0
-4 5 -6 -22 23 -24 0
-4 5 -6 -25 26 -27 0
-7 8 -9 -10 11 -12 0
-7 8 -9 -13 14 -15 0
-7 8 -9 -16 17 -18 0
-7 8 -9 -19 20 -21 0
-7 8 -9 -22 23 -24 0
-7 8 -9 -25 26 -27 0
-10 11 -12 -13 14 -15 0
-10 11 -12 -16 17 -18 0
-10 11 -12 -19 20 -21 0
-10 11 -12 -22 23 -24 0
-10 11 -12 -25 26 -27 0
-13 14 -15 -16 17 -18 0
-13 14 -15 -19 20 -21 0
-13 14 -15 -22 23 -24 0
-13 14 -15 -25 26 -27 0
-16 17 -18 -19 20 -21 0
-16 17 -18 -22 23 -24 0
-16 17 -18 -25 26 -27 0
-19 20 -21 -22 23 -24 0
-19 20 -21 -25 26 -27 0
-22 23 -24 -25 26 -27 0
-1 -2 3 -4 -5 6 0
-1 -2 3 -7 -8 9 0
-1 -2 3 -10 -11 12 0
-1 -2 3 -13 -14 15 0
-1 -2 3 -16 -17 18 0
-1 -2 3 -19 -20 21 0
-1 -2 3 -22 -23 24 0
-1 -2 3 -25 -26 27 0
-4 -5 6 -7 -8 9 0
-4 -5 6 -10 -11 12 0
-4 -5 6 -13 -14 15 0
-4 -5 6 -16 -17 18 0
-4 -5 6 -19 -20 21 0
-4 -5 6 -22 -23 24 0
-4 -5 6 -25 -26 27 0
-7 -8 9 -10 -11 12 0
-7 -8 9 -13 -14 15 0
-7 -8 9 -16 -17 18 0
-7 -8 9 -19 -20 21 0
-7 -8 9 -22 -23 24 0
-7 -8 9 -25 -26 27 0
-10 -11 12 -13 -14 15 0
-10 -11 12 -16 -17 18 0
-10 -11 12 -19 -20 21 0
-10 -11 12 -22 -23 24 0
-10 -11 12 -25 -26 27 0
-13 -14 15 -16 -17 18 0
-13 -14 15 -19 -20 21 0
-13 -14 15 -22 -23 24 0
-13 -14 15 -25 -26 27 0
-16 -17 18 -19 -20 21 0
-16 -17 18 -22 -23 24 0
-16 -17 18 -25 -26 27 0
-19 -20 21 -22 -23 24 0
-19 -20 21 -25 -26 27 0
-22 -23 24 -25 -26 27 0
-1 -2 -3 -4 -5 -6 0
-1 -2 -3 -7 -8 -9 0
-1 -2 -3 -10 -11 -12 0
-1 -2 -3 -13 -14 -15 0
-1 -2 -3 -16 -17 -18 0
-1 -2 -3 -19 -20 -21 0
-1 -2 -3 -22 -23 -24 0
-1 -2 -3 -25 -26 -27 0
-4 -5 -6 -7 -8 -9 0
-4 -5 -6 -10 -11 -12 0
-4 -5 -6 -13 -14 -15 0
-4 -5 -6 -16 -17 -18 0
-4 -5 -6 -19 -20 -21 0
-4 -5 -6 -22 -23 -24 0
-4 -5 -6 -25 -26 -27 0
-7 -8 -9 -10 -11 -12 0
-7 -8 -9 -13 -14 -15 0
-7 -8 -9 -16 -17 -18 0
-7 -8 -9 -19 -20 -21 0
-7 -8 -9 -22 -23 -24 0
-7 -8 -9 -25 -26 -27 0
-10 -11 -12 -13 -14 -15 0
-10 -11 -12 -16 -17 -18 0
-10 -11 -12 -19 -20 -21 0
-10 -11 -12 -22 -23 -24 0
-10 -11 -12 -25 -26 -27 0
-13 -14 -15 -16 -17 -18 0
-13 -14 -15 -19 -20 -21 0
-13 -14 -15 -22 -23 -24 0
-13 -14 -15 -25 -26 -27 0
-16 -17 -18 -19 -20 -21 0
-16 -17 -18 -22 -23 -24 0
-16 -17 -18 -25 -26 -27 0
-19 -20 -21 -22 -23 -24 0
-19 -20 -21 -25 -26 -27 0
-22 -23 -24 -25 -26 -27 0
