c description: There is a graph of 10 vertices with a 4-clique and a 4-coloring
c generator: CNFgen (0.9.5)
c copyright: (C) 2012-2026 Massimo Lauria <massimo.lauria@uniroma1.it>
c url: https://massimolauria.net/cnfgen
c random seed: 31207
c command line: cnfgen -S 31207 -o cnfgen_regression_pack/cnfgen_cases/cliquecoloring_n10_k4_c4_sat.cnf cliquecoloring 10 4 4
c
c known_status: SAT
c pack_family: clique_coloring
c pack_level: moderate
c pack_notes: clique-coloring principle
p cnf 125 1034
46 47 48 49 50 51 52 53 54 55 0
56 57 58 59 60 61 62 63 64 65 0
66 67 68 69 70 71 72 73 74 75 0
76 77 78 79 80 81 82 83 84 85 0
-46 -47 0
-46 -48 0
-46 -49 0
-46 -50 0
-46 -51 0
-46 -52 0
-46 -53 0
-46 -54 0
-46 -55 0
-47 -48 0
-47 -49 0
-47 -50 0
-47 -51 0
-47 -52 0
-47 -53 0
-47 -54 0
-47 -55 0
-48 -49 0
-48 -50 0
-48 -51 0
-48 -52 0
-48 -53 0
-48 -54 0
-48 -55 0
-49 -50 0
-49 -51 0
-49 -52 0
-49 -53 0
-49 -54 0
-49 -55 0
-50 -51 0
-50 -52 0
-50 -53 0
-50 -54 0
-50 -55 0
-51 -52 0
-51 -53 0
-51 -54 0
-51 -55 0
-52 -53 0
-52 -54 0
-52 -55 0
-53 -54 0
-53 -55 0
-54 -55 0
-56 -57 0
-56 -58 0
-56 -59 0
-56 -60 0
-56 -61 0
-56 -62 0
-56 -63 0
-56 -64 0
-56 -65 0
-57 -58 0
-57 -59 0
-57 -60 0
-57 -61 0
-57 -62 0
-57 -63 0
-57 -64 0
-57 -65 0
-58 -59 0
-58 -60 0
-58 -61 0
-58 -62 0
-58 -63 0
-58 -64 0
-58 -65 0
-59 -60 0
-59 -61 0
-59 -62 0
-59 -63 0
-59 -64 0
-59 -65 0
-60 -61 0
-60 -62 0
-60 -63 0
-60 -64 0
-60 -65 0
-61 -62 0
-61 -63 0
-61 -64 0
-61 -65 0
-62 -63 0
-62 -64 0
-62 -65 0
-63 -64 0
-63 -65 0
-64 -65 0
-66 -67 0
-66 -68 0
-66 -69 0
-66 -70 0
-66 -71 0
-66 -72 0
-66 -73 0
-66 -74 0
-66 -75 0
-67 -68 0
-67 -69 0
-67 -70 0
-67 -71 0
-67 -72 0
-67 -73 0
-67 -74 0
-67 -75 0
-68 -69 0
-68 -70 0
-68 -71 0
-68 -72 0
-68 -73 0
-68 -74 0
-68 -75 0
-69 -70 0
-69 -71 0
-69 -72 0
-69 -73 0
-69 -74 0
-69 -75 0
-70 -71 0
-70 -72 0
-70 -73 0
-70 -74 0
-70 -75 0
-71 -72 0
-71 -73 0
-71 -74 0
-71 -75 0
-72 -73 0
-72 -74 0
-72 -75 0
-73 -74 0
-73 -75 0
-74 -75 0
-76 -77 0
-76 -78 0
-76 -79 0
-76 -80 0
-76 -81 0
-76 -82 0
-76 -83 0
-76 -84 0
-76 -85 0
-77 -78 0
-77 -79 0
-77 -80 0
-77 -81 0
-77 -82 0
-77 -83 0
-77 -84 0
-77 -85 0
-78 -79 0
-78 -80 0
-78 -81 0
-78 -82 0
-78 -83 0
-78 -84 0
-78 -85 0
-79 -80 0
-79 -81 0
-79 -82 0
-79 -83 0
-79 -84 0
-79 -85 0
-80 -81 0
-80 -82 0
-80 -83 0
-80 -84 0
-80 -85 0
-81 -82 0
-81 -83 0
-81 -84 0
-81 -85 0
-82 -83 0
-82 -84 0
-82 -85 0
-83 -84 0
-83 -85 0
-84 -85 0
-46 -56 0
-46 -66 0
-46 -76 0
-56 -66 0
-56 -76 0
-66 -76 0
-47 -57 0
-47 -67 0
-47 -77 0
-57 -67 0
-57 -77 0
-67 -77 0
-48 -58 0
-48 -68 0
-48 -78 0
-58 -68 0
-58 -78 0
-68 -78 0
-49 -59 0
-49 -69 0
-49 -79 0
-59 -69 0
-59 -79 0
-69 -79 0
-50 -60 0
-50 -70 0
-50 -80 0
-60 -70 0
-60 -80 0
-70 -80 0
-51 -61 0
-51 -71 0
-51 -81 0
-61 -71 0
-61 -81 0
-71 -81 0
-52 -62 0
-52 -72 0
-52 -82 0
-62 -72 0
-62 -82 0
-72 -82 0
-53 -63 0
-53 -73 0
-53 -83 0
-63 -73 0
-63 -83 0
-73 -83 0
-54 -64 0
-54 -74 0
-54 -84 0
-64 -74 0
-64 -84 0
-74 -84 0
-55 -65 0
-55 -75 0
-55 -85 0
-65 -75 0
-65 -85 0
-75 -85 0
1 -46 -57 0
1 -47 -56 0
1 -46 -67 0
1 -47 -66 0
1 -46 -77 0
1 -47 -76 0
1 -56 -67 0
1 -57 -66 0
1 -56 -77 0
1 -57 -76 0
1 -66 -77 0
1 -67 -76 0
2 -46 -58 0
2 -48 -56 0
2 -46 -68 0
2 -48 -66 0
2 -46 -78 0
2 -48 -76 0
2 -56 -68 0
2 -58 -66 0
2 -56 -78 0
2 -58 -76 0
2 -66 -78 0
2 -68 -76 0
3 -46 -59 0
3 -49 -56 0
3 -46 -69 0
3 -49 -66 0
3 -46 -79 0
3 -49 -76 0
3 -56 -69 0
3 -59 -66 0
3 -56 -79 0
3 -59 -76 0
3 -66 -79 0
3 -69 -76 0
4 -46 -60 0
4 -50 -56 0
4 -46 -70 0
4 -50 -66 0
4 -46 -80 0
4 -50 -76 0
4 -56 -70 0
4 -60 -66 0
4 -56 -80 0
4 -60 -76 0
4 -66 -80 0
4 -70 -76 0
5 -46 -61 0
5 -51 -56 0
5 -46 -71 0
5 -51 -66 0
5 -46 -81 0
5 -51 -76 0
5 -56 -71 0
5 -61 -66 0
5 -56 -81 0
5 -61 -76 0
5 -66 -81 0
5 -71 -76 0
6 -46 -62 0
6 -52 -56 0
6 -46 -72 0
6 -52 -66 0
6 -46 -82 0
6 -52 -76 0
6 -56 -72 0
6 -62 -66 0
6 -56 -82 0
6 -62 -76 0
6 -66 -82 0
6 -72 -76 0
7 -46 -63 0
7 -53 -56 0
7 -46 -73 0
7 -53 -66 0
7 -46 -83 0
7 -53 -76 0
7 -56 -73 0
7 -63 -66 0
7 -56 -83 0
7 -63 -76 0
7 -66 -83 0
7 -73 -76 0
8 -46 -64 0
8 -54 -56 0
8 -46 -74 0
8 -54 -66 0
8 -46 -84 0
8 -54 -76 0
8 -56 -74 0
8 -64 -66 0
8 -56 -84 0
8 -64 -76 0
8 -66 -84 0
8 -74 -76 0
9 -46 -65 0
9 -55 -56 0
9 -46 -75 0
9 -55 -66 0
9 -46 -85 0
9 -55 -76 0
9 -56 -75 0
9 -65 -66 0
9 -56 -85 0
9 -65 -76 0
9 -66 -85 0
9 -75 -76 0
10 -47 -58 0
10 -48 -57 0
10 -47 -68 0
10 -48 -67 0
10 -47 -78 0
10 -48 -77 0
10 -57 -68 0
10 -58 -67 0
10 -57 -78 0
10 -58 -77 0
10 -67 -78 0
10 -68 -77 0
11 -47 -59 0
11 -49 -57 0
11 -47 -69 0
11 -49 -67 0
11 -47 -79 0
11 -49 -77 0
11 -57 -69 0
11 -59 -67 0
11 -57 -79 0
11 -59 -77 0
11 -67 -79 0
11 -69 -77 0
12 -47 -60 0
12 -50 -57 0
12 -47 -70 0
12 -50 -67 0
12 -47 -80 0
12 -50 -77 0
12 -57 -70 0
12 -60 -67 0
12 -57 -80 0
12 -60 -77 0
12 -67 -80 0
12 -70 -77 0
13 -47 -61 0
13 -51 -57 0
13 -47 -71 0
13 -51 -67 0
13 -47 -81 0
13 -51 -77 0
13 -57 -71 0
13 -61 -67 0
13 -57 -81 0
13 -61 -77 0
13 -67 -81 0
13 -71 -77 0
14 -47 -62 0
14 -52 -57 0
14 -47 -72 0
14 -52 -67 0
14 -47 -82 0
14 -52 -77 0
14 -57 -72 0
14 -62 -67 0
14 -57 -82 0
14 -62 -77 0
14 -67 -82 0
14 -72 -77 0
15 -47 -63 0
15 -53 -57 0
15 -47 -73 0
15 -53 -67 0
15 -47 -83 0
15 -53 -77 0
15 -57 -73 0
15 -63 -67 0
15 -57 -83 0
15 -63 -77 0
15 -67 -83 0
15 -73 -77 0
16 -47 -64 0
16 -54 -57 0
16 -47 -74 0
16 -54 -67 0
16 -47 -84 0
16 -54 -77 0
16 -57 -74 0
16 -64 -67 0
16 -57 -84 0
16 -64 -77 0
16 -67 -84 0
16 -74 -77 0
17 -47 -65 0
17 -55 -57 0
17 -47 -75 0
17 -55 -67 0
17 -47 -85 0
17 -55 -77 0
17 -57 -75 0
17 -65 -67 0
17 -57 -85 0
17 -65 -77 0
17 -67 -85 0
17 -75 -77 0
18 -48 -59 0
18 -49 -58 0
18 -48 -69 0
18 -49 -68 0
18 -48 -79 0
18 -49 -78 0
18 -58 -69 0
18 -59 -68 0
18 -58 -79 0
18 -59 -78 0
18 -68 -79 0
18 -69 -78 0
19 -48 -60 0
19 -50 -58 0
19 -48 -70 0
19 -50 -68 0
19 -48 -80 0
19 -50 -78 0
19 -58 -70 0
19 -60 -68 0
19 -58 -80 0
19 -60 -78 0
19 -68 -80 0
19 -70 -78 0
20 -48 -61 0
20 -51 -58 0
20 -48 -71 0
20 -51 -68 0
20 -48 -81 0
20 -51 -78 0
20 -58 -71 0
20 -61 -68 0
20 -58 -81 0
20 -61 -78 0
20 -68 -81 0
20 -71 -78 0
21 -48 -62 0
21 -52 -58 0
21 -48 -72 0
21 -52 -68 0
21 -48 -82 0
21 -52 -78 0
21 -58 -72 0
21 -62 -68 0
21 -58 -82 0
21 -62 -78 0
21 -68 -82 0
21 -72 -78 0
22 -48 -63 0
22 -53 -58 0
22 -48 -73 0
22 -53 -68 0
22 -48 -83 0
22 -53 -78 0
22 -58 -73 0
22 -63 -68 0
22 -58 -83 0
22 -63 -78 0
22 -68 -83 0
22 -73 -78 0
23 -48 -64 0
23 -54 -58 0
23 -48 -74 0
23 -54 -68 0
23 -48 -84 0
23 -54 -78 0
23 -58 -74 0
23 -64 -68 0
23 -58 -84 0
23 -64 -78 0
23 -68 -84 0
23 -74 -78 0
24 -48 -65 0
24 -55 -58 0
24 -48 -75 0
24 -55 -68 0
24 -48 -85 0
24 -55 -78 0
24 -58 -75 0
24 -65 -68 0
24 -58 -85 0
24 -65 -78 0
24 -68 -85 0
24 -75 -78 0
25 -49 -60 0
25 -50 -59 0
25 -49 -70 0
25 -50 -69 0
25 -49 -80 0
25 -50 -79 0
25 -59 -70 0
25 -60 -69 0
25 -59 -80 0
25 -60 -79 0
25 -69 -80 0
25 -70 -79 0
26 -49 -61 0
26 -51 -59 0
26 -49 -71 0
26 -51 -69 0
26 -49 -81 0
26 -51 -79 0
26 -59 -71 0
26 -61 -69 0
26 -59 -81 0
26 -61 -79 0
26 -69 -81 0
26 -71 -79 0
27 -49 -62 0
27 -52 -59 0
27 -49 -72 0
27 -52 -69 0
27 -49 -82 0
27 -52 -79 0
27 -59 -72 0
27 -62 -69 0
27 -59 -82 0
27 -62 -79 0
27 -69 -82 0
27 -72 -79 0
28 -49 -63 0
28 -53 -59 0
28 -49 -73 0
28 -53 -69 0
28 -49 -83 0
28 -53 -79 0
28 -59 -73 0
28 -63 -69 0
28 -59 -83 0
28 -63 -79 0
28 -69 -83 0
28 -73 -79 0
29 -49 -64 0
29 -54 -59 0
29 -49 -74 0
29 -54 -69 0
29 -49 -84 0
29 -54 -79 0
29 -59 -74 0
29 -64 -69 0
29 -59 -84 0
29 -64 -79 0
29 -69 -84 0
29 -74 -79 0
30 -49 -65 0
30 -55 -59 0
30 -49 -75 0
30 -55 -69 0
30 -49 -85 0
30 -55 -79 0
30 -59 -75 0
30 -65 -69 0
30 -59 -85 0
30 -65 -79 0
30 -69 -85 0
30 -75 -79 0
31 -50 -61 0
31 -51 -60 0
31 -50 -71 0
31 -51 -70 0
31 -50 -81 0
31 -51 -80 0
31 -60 -71 0
31 -61 -70 0
31 -60 -81 0
31 -61 -80 0
31 -70 -81 0
31 -71 -80 0
32 -50 -62 0
32 -52 -60 0
32 -50 -72 0
32 -52 -70 0
32 -50 -82 0
32 -52 -80 0
32 -60 -72 0
32 -62 -70 0
32 -60 -82 0
32 -62 -80 0
32 -70 -82 0
32 -72 -80 0
33 -50 -63 0
33 -53 -60 0
33 -50 -73 0
33 -53 -70 0
33 -50 -83 0
33 -53 -80 0
33 -60 -73 0
33 -63 -70 0
33 -60 -83 0
33 -63 -80 0
33 -70 -83 0
33 -73 -80 0
34 -50 -64 0
34 -54 -60 0
34 -50 -74 0
34 -54 -70 0
34 -50 -84 0
34 -54 -80 0
34 -60 -74 0
34 -64 -70 0
34 -60 -84 0
34 -64 -80 0
34 -70 -84 0
34 -74 -80 0
35 -50 -65 0
35 -55 -60 0
35 -50 -75 0
35 -55 -70 0
35 -50 -85 0
35 -55 -80 0
35 -60 -75 0
35 -65 -70 0
35 -60 -85 0
35 -65 -80 0
35 -70 -85 0
35 -75 -80 0
36 -51 -62 0
36 -52 -61 0
36 -51 -72 0
36 -52 -71 0
36 -51 -82 0
36 -52 -81 0
36 -61 -72 0
36 -62 -71 0
36 -61 -82 0
36 -62 -81 0
36 -71 -82 0
36 -72 -81 0
37 -51 -63 0
37 -53 -61 0
37 -51 -73 0
37 -53 -71 0
37 -51 -83 0
37 -53 -81 0
37 -61 -73 0
37 -63 -71 0
37 -61 -83 0
37 -63 -81 0
37 -71 -83 0
37 -73 -81 0
38 -51 -64 0
38 -54 -61 0
38 -51 -74 0
38 -54 -71 0
38 -51 -84 0
38 -54 -81 0
38 -61 -74 0
38 -64 -71 0
38 -61 -84 0
38 -64 -81 0
38 -71 -84 0
38 -74 -81 0
39 -51 -65 0
39 -55 -61 0
39 -51 -75 0
39 -55 -71 0
39 -51 -85 0
39 -55 -81 0
39 -61 -75 0
39 -65 -71 0
39 -61 -85 0
39 -65 -81 0
39 -71 -85 0
39 -75 -81 0
40 -52 -63 0
40 -53 -62 0
40 -52 -73 0
40 -53 -72 0
40 -52 -83 0
40 -53 -82 0
40 -62 -73 0
40 -63 -72 0
40 -62 -83 0
40 -63 -82 0
40 -72 -83 0
40 -73 -82 0
41 -52 -64 0
41 -54 -62 0
41 -52 -74 0
41 -54 -72 0
41 -52 -84 0
41 -54 -82 0
41 -62 -74 0
41 -64 -72 0
41 -62 -84 0
41 -64 -82 0
41 -72 -84 0
41 -74 -82 0
42 -52 -65 0
42 -55 -62 0
42 -52 -75 0
42 -55 -72 0
42 -52 -85 0
42 -55 -82 0
42 -62 -75 0
42 -65 -72 0
42 -62 -85 0
42 -65 -82 0
42 -72 -85 0
42 -75 -82 0
43 -53 -64 0
43 -54 -63 0
43 -53 -74 0
43 -54 -73 0
43 -53 -84 0
43 -54 -83 0
43 -63 -74 0
43 -64 -73 0
43 -63 -84 0
43 -64 -83 0
43 -73 -84 0
43 -74 -83 0
44 -53 -65 0
44 -55 -63 0
44 -53 -75 0
44 -55 -73 0
44 -53 -85 0
44 -55 -83 0
44 -63 -75 0
44 -65 -73 0
44 -63 -85 0
44 -65 -83 0
44 -73 -85 0
44 -75 -83 0
45 -54 -65 0
45 -55 -64 0
45 -54 -75 0
45 -55 -74 0
45 -54 -85 0
45 -55 -84 0
45 -64 -75 0
45 -65 -74 0
45 -64 -85 0
45 -65 -84 0
45 -74 -85 0
45 -75 -84 0
86 87 88 89 0
90 91 92 93 0
94 95 96 97 0
98 99 100 101 0
102 103 104 105 0
106 107 108 109 0
110 111 112 113 0
114 115 116 117 0
118 119 120 121 0
122 123 124 125 0
-86 -87 0
-86 -88 0
-86 -89 0
-87 -88 0
-87 -89 0
-88 -89 0
-90 -91 0
-90 -92 0
-90 -93 0
-91 -92 0
-91 -93 0
-92 -93 0
-94 -95 0
-94 -96 0
-94 -97 0
-95 -96 0
-95 -97 0
-96 -97 0
-98 -99 0
-98 -100 0
-98 -101 0
-99 -100 0
-99 -101 0
-100 -101 0
-102 -103 0
-102 -104 0
-102 -105 0
-103 -104 0
-103 -105 0
-104 -105 0
-106 -107 0
-106 -108 0
-106 -109 0
-107 -108 0
-107 -109 0
-108 -109 0
-110 -111 0
-110 -112 0
-110 -113 0
-111 -112 0
-111 -113 0
-112 -113 0
-114 -115 0
-114 -116 0
-114 -117 0
-115 -116 0
-115 -117 0
-116 -117 0
-118 -119 0
-118 -120 0
-118 -121 0
-119 -120 0
-119 -121 0
-120 -121 0
-122 -123 0
-122 -124 0
-122 -125 0
-123 -124 0
-123 -125 0
-124 -125 0
-1 -86 -90 0
-1 -87 -91 0
-1 -88 -92 0
-1 -89 -93 0
-2 -86 -94 0
-2 -87 -95 0
-2 -88 -96 0
-2 -89 -97 0
-3 -86 -98 0
-3 -87 -99 0
-3 -88 -100 0
-3 -89 -101 0
-4 -86 -102 0
-4 -87 -103 0
-4 -88 -104 0
-4 -89 -105 0
-5 -86 -106 0
-5 -87 -107 0
-5 -88 -108 0
-5 -89 -109 0
-6 -86 -110 0
-6 -87 -111 0
-6 -88 -112 0
-6 -89 -113 0
-7 -86 -114 0
-7 -87 -115 0
-7 -88 -116 0
-7 -89 -117 0
-8 -86 -118 0
-8 -87 -119 0
-8 -88 -120 0
-8 -89 -121 0
-9 -86 -122 0
-9 -87 -123 0
-9 -88 -124 0
-9 -89 -125 0
-10 -90 -94 0
-10 -91 -95 0
-10 -92 -96 0
-10 -93 -97 0
-11 -90 -98 0
-11 -91 -99 0
-11 -92 -100 0
-11 -93 -101 0
-12 -90 -102 0
-12 -91 -103 0
-12 -92 -104 0
-12 -93 -105 0
-13 -90 -106 0
-13 -91 -107 0
-13 -92 -108 0
-13 -93 -109 0
-14 -90 -110 0
-14 -91 -111 0
-14 -92 -112 0
-14 -93 -113 0
-15 -90 -114 0
-15 -91 -115 0
-15 -92 -116 0
-15 -93 -117 0
-16 -90 -118 0
-16 -91 -119 0
-16 -92 -120 0
-16 -93 -121 0
-17 -90 -122 0
-17 -91 -123 0
-17 -92 -124 0
-17 -93 -125 0
-18 -94 -98 0
-18 -95 -99 0
-18 -96 -100 0
-18 -97 -101 0
-19 -94 -102 0
-19 -95 -103 0
-19 -96 -104 0
-19 -97 -105 0
-20 -94 -106 0
-20 -95 -107 0
-20 -96 -108 0
-20 -97 -109 0
-21 -94 -110 0
-21 -95 -111 0
-21 -96 -112 0
-21 -97 -113 0
-22 -94 -114 0
-22 -95 -115 0
-22 -96 -116 0
-22 -97 -117 0
-23 -94 -118 0
-23 -95 -119 0
-23 -96 -120 0
-23 -97 -121 0
-24 -94 -122 0
-24 -95 -123 0
-24 -96 -124 0
-24 -97 -125 0
-25 -98 -102 0
-25 -99 -103 0
-25 -100 -104 0
-25 -101 -105 0
-26 -98 -106 0
-26 -99 -107 0
-26 -100 -108 0
-26 -101 -109 0
-27 -98 -110 0
-27 -99 -111 0
-27 -100 -112 0
-27 -101 -113 0
-28 -98 -114 0
-28 -99 -115 0
-28 -100 -116 0
-28 -101 -117 0
-29 -98 -118 0
-29 -99 -119 0
-29 -100 -120 0
-29 -101 -121 0
-30 -98 -122 0
-30 -99 -123 0
-30 -100 -124 0
-30 -101 -125 0
-31 -102 -106 0
-31 -103 -107 0
-31 -104 -108 0
-31 -105 -109 0
-32 -102 -110 0
-32 -103 -111 0
-32 -104 -112 0
-32 -105 -113 0
-33 -102 -114 0
-33 -103 -115 0
-33 -104 -116 0
-33 -105 -117 0
-34 -102 -118 0
-34 -103 -119 0
-34 -104 -120 0
-34 -105 -121 0
-35 -102 -122 0
-35 -103 -123 0
-35 -104 -124 0
-35 -105 -125 0
-36 -106 -110 0
-36 -107 -111 0
-36 -108 -112 0
-36 -109 -113 0
-37 -106 -114 0
-37 -107 -115 0
-37 -108 -116 0
-37 -109 -117 0
-38 -106 -118 0
-38 -107 -119 0
-38 -108 -120 0
-38 -109 -121 0
-39 -106 -122 0
-39 -107 -123 0
-39 -108 -124 0
-39 -109 -125 0
-40 -110 -114 0
-40 -111 -115 0
-40 -112 -116 0
-40 -113 -117 0
-41 -110 -118 0
-41 -111 -119 0
-41 -112 -120 0
-41 -113 -121 0
-42 -110 -122 0
-42 -111 -123 0
-42 -112 -124 0
-42 -113 -125 0
-43 -114 -118 0
-43 -115 -119 0
-43 -116 -120 0
-43 -117 -121 0
-44 -114 -122 0
-44 -115 -123 0
-44 -116 -124 0
-44 -117 -125 0
-45 -118 -122 0
-45 -119 -123 0
-45 -120 -124 0
-45 -121 -125 0
