c description: There is a graph of 6 vertices with a 5-clique and a 4-coloring
c generator: CNFgen (0.9.5)
c copyright: (C) 2012-2026 Massimo Lauria <massimo.lauria@uniroma1.it>
c url: https://massimolauria.net/cnfgen
c random seed: 31209
c command line: cnfgen -S 31209 -o cnfgen_regression_pack/cnfgen_cases/cliquecoloring_n6_k5_c4_unsat.cnf cliquecoloring 6 5 4
c
c known_status: UNSAT
c pack_family: clique_coloring
c pack_level: moderate
c pack_notes: clique-coloring principle
p cnf 69 542
16 17 18 19 20 21 0
22 23 24 25 26 27 0
28 29 30 31 32 33 0
34 35 36 37 38 39 0
40 41 42 43 44 45 0
-16 -17 0
-16 -18 0
-16 -19 0
-16 -20 0
-16 -21 0
-17 -18 0
-17 -19 0
-17 -20 0
-17 -21 0
-18 -19 0
-18 -20 0
-18 -21 0
-19 -20 0
-19 -21 0
-20 -21 0
-22 -23 0
-22 -24 0
-22 -25 0
-22 -26 0
-22 -27 0
-23 -24 0
-23 -25 0
-23 -26 0
-23 -27 0
-24 -25 0
-24 -26 0
-24 -27 0
-25 -26 0
-25 -27 0
-26 -27 0
-28 -29 0
-28 -30 0
-28 -31 0
-28 -32 0
-28 -33 0
-29 -30 0
-29 -31 0
-29 -32 0
-29 -33 0
-30 -31 0
-30 -32 0
-30 -33 0
-31 -32 0
-31 -33 0
-32 -33 0
-34 -35 0
-34 -36 0
-34 -37 0
-34 -38 0
-34 -39 0
-35 -36 0
-35 -37 0
-35 -38 0
-35 -39 0
-36 -37 0
-36 -38 0
-36 -39 0
-37 -38 0
-37 -39 0
-38 -39 0
-40 -41 0
-40 -42 0
-40 -43 0
-40 -44 0
-40 -45 0
-41 -42 0
-41 -43 0
-41 -44 0
-41 -45 0
-42 -43 0
-42 -44 0
-42 -45 0
-43 -44 0
-43 -45 0
-44 -45 0
-16 -22 0
-16 -28 0
-16 -34 0
-16 -40 0
-22 -28 0
-22 -34 0
-22 -40 0
-28 -34 0
-28 -40 0
-34 -40 0
-17 -23 0
-17 -29 0
-17 -35 0
-17 -41 0
-23 -29 0
-23 -35 0
-23 -41 0
-29 -35 0
-29 -41 0
-35 -41 0
-18 -24 0
-18 -30 0
-18 -36 0
-18 -42 0
-24 -30 0
-24 -36 0
-24 -42 0
-30 -36 0
-30 -42 0
-36 -42 0
-19 -25 0
-19 -31 0
-19 -37 0
-19 -43 0
-25 -31 0
-25 -37 0
-25 -43 0
-31 -37 0
-31 -43 0
-37 -43 0
-20 -26 0
-20 -32 0
-20 -38 0
-20 -44 0
-26 -32 0
-26 -38 0
-26 -44 0
-32 -38 0
-32 -44 0
-38 -44 0
-21 -27 0
-21 -33 0
-21 -39 0
-21 -45 0
-27 -33 0
-27 -39 0
-27 -45 0
-33 -39 0
-33 -45 0
-39 -45 0
1 -16 -23 0
1 -17 -22 0
1 -16 -29 0
1 -17 -28 0
1 -16 -35 0
1 -17 -34 0
1 -16 -41 0
1 -17 -40 0
1 -22 -29 0
1 -23 -28 0
1 -22 -35 0
1 -23 -34 0
1 -22 -41 0
1 -23 -40 0
1 -28 -35 0
1 -29 -34 0
1 -28 -41 0
1 -29 -40 0
1 -34 -41 0
1 -35 -40 0
2 -16 -24 0
2 -18 -22 0
2 -16 -30 0
2 -18 -28 0
2 -16 -36 0
2 -18 -34 0
2 -16 -42 0
2 -18 -40 0
2 -22 -30 0
2 -24 -28 0
2 -22 -36 0
2 -24 -34 0
2 -22 -42 0
2 -24 -40 0
2 -28 -36 0
2 -30 -34 0
2 -28 -42 0
2 -30 -40 0
2 -34 -42 0
2 -36 -40 0
3 -16 -25 0
3 -19 -22 0
3 -16 -31 0
3 -19 -28 0
3 -16 -37 0
3 -19 -34 0
3 -16 -43 0
3 -19 -40 0
3 -22 -31 0
3 -25 -28 0
3 -22 -37 0
3 -25 -34 0
3 -22 -43 0
3 -25 -40 0
3 -28 -37 0
3 -31 -34 0
3 -28 -43 0
3 -31 -40 0
3 -34 -43 0
3 -37 -40 0
4 -16 -26 0
4 -20 -22 0
4 -16 -32 0
4 -20 -28 0
4 -16 -38 0
4 -20 -34 0
4 -16 -44 0
4 -20 -40 0
4 -22 -32 0
4 -26 -28 0
4 -22 -38 0
4 -26 -34 0
4 -22 -44 0
4 -26 -40 0
4 -28 -38 0
4 -32 -34 0
4 -28 -44 0
4 -32 -40 0
4 -34 -44 0
4 -38 -40 0
5 -16 -27 0
5 -21 -22 0
5 -16 -33 0
5 -21 -28 0
5 -16 -39 0
5 -21 -34 0
5 -16 -45 0
5 -21 -40 0
5 -22 -33 0
5 -27 -28 0
5 -22 -39 0
5 -27 -34 0
5 -22 -45 0
5 -27 -40 0
5 -28 -39 0
5 -33 -34 0
5 -28 -45 0
5 -33 -40 0
5 -34 -45 0
5 -39 -40 0
6 -17 -24 0
6 -18 -23 0
6 -17 -30 0
6 -18 -29 0
6 -17 -36 0
6 -18 -35 0
6 -17 -42 0
6 -18 -41 0
6 -23 -30 0
6 -24 -29 0
6 -23 -36 0
6 -24 -35 0
6 -23 -42 0
6 -24 -41 0
6 -29 -36 0
6 -30 -35 0
6 -29 -42 0
6 -30 -41 0
6 -35 -42 0
6 -36 -41 0
7 -17 -25 0
7 -19 -23 0
7 -17 -31 0
7 -19 -29 0
7 -17 -37 0
7 -19 -35 0
7 -17 -43 0
7 -19 -41 0
7 -23 -31 0
7 -25 -29 0
7 -23 -37 0
7 -25 -35 0
7 -23 -43 0
7 -25 -41 0
7 -29 -37 0
7 -31 -35 0
7 -29 -43 0
7 -31 -41 0
7 -35 -43 0
7 -37 -41 0
8 -17 -26 0
8 -20 -23 0
8 -17 -32 0
8 -20 -29 0
8 -17 -38 0
8 -20 -35 0
8 -17 -44 0
8 -20 -41 0
8 -23 -32 0
8 -26 -29 0
8 -23 -38 0
8 -26 -35 0
8 -23 -44 0
8 -26 -41 0
8 -29 -38 0
8 -32 -35 0
8 -29 -44 0
8 -32 -41 0
8 -35 -44 0
8 -38 -41 0
9 -17 -27 0
9 -21 -23 0
9 -17 -33 0
9 -21 -29 0
9 -17 -39 0
9 -21 -35 0
9 -17 -45 0
9 -21 -41 0
9 -23 -33 0
9 -27 -29 0
9 -23 -39 0
9 -27 -35 0
9 -23 -45 0
9 -27 -41 0
9 -29 -39 0
9 -33 -35 0
9 -29 -45 0
9 -33 -41 0
9 -35 -45 0
9 -39 -41 0
10 -18 -25 0
10 -19 -24 0
10 -18 -31 0
10 -19 -30 0
10 -18 -37 0
10 -19 -36 0
10 -18 -43 0
10 -19 -42 0
10 -24 -31 0
10 -25 -30 0
10 -24 -37 0
10 -25 -36 0
10 -24 -43 0
10 -25 -42 0
10 -30 -37 0
10 -31 -36 0
10 -30 -43 0
10 -31 -42 0
10 -36 -43 0
10 -37 -42 0
11 -18 -26 0
11 -20 -24 0
11 -18 -32 0
11 -20 -30 0
11 -18 -38 0
11 -20 -36 0
11 -18 -44 0
11 -20 -42 0
11 -24 -32 0
11 -26 -30 0
11 -24 -38 0
11 -26 -36 0
11 -24 -44 0
11 -26 -42 0
11 -30 -38 0
11 -32 -36 0
11 -30 -44 0
11 -32 -42 0
11 -36 -44 0
11 -38 -42 0
12 -18 -27 0
12 -21 -24 0
12 -18 -33 0
12 -21 -30 0
12 -18 -39 0
12 -21 -36 0
12 -18 -45 0
12 -21 -42 0
12 -24 -33 0
12 -27 -30 0
12 -24 -39 0
12 -27 -36 0
12 -24 -45 0
12 -27 -42 0
12 -30 -39 0
12 -33 -36 0
12 -30 -45 0
12 -33 -42 0
12 -36 -45 0
12 -39 -42 0
13 -19 -26 0
13 -20 -25 0
13 -19 -32 0
13 -20 -31 0
13 -19 -38 0
13 -20 -37 0
13 -19 -44 0
13 -20 -43 0
13 -25 -32 0
13 -26 -31 0
13 -25 -38 0
13 -26 -37 0
13 -25 -44 0
13 -26 -43 0
13 -31 -38 0
13 -32 -37 0
13 -31 -44 0
13 -32 -43 0
13 -37 -44 0
13 -38 -43 0
14 -19 -27 0
14 -21 -25 0
14 -19 -33 0
14 -21 -31 0
14 -19 -39 0
14 -21 -37 0
14 -19 -45 0
14 -21 -43 0
14 -25 -33 0
14 -27 -31 0
14 -25 -39 0
14 -27 -37 0
14 -25 -45 0
14 -27 -43 0
14 -31 -39 0
14 -33 -37 0
14 -31 -45 0
14 -33 -43 0
14 -37 -45 0
14 -39 -43 0
15 -20 -27 0
15 -21 -26 0
15 -20 -33 0
15 -21 -32 0
15 -20 -39 0
15 -21 -38 0
15 -20 -45 0
15 -21 -44 0
15 -26 -33 0
15 -27 -32 0
15 -26 -39 0
15 -27 -38 0
15 -26 -45 0
15 -27 -44 0
15 -32 -39 0
15 -33 -38 0
15 -32 -45 0
15 -33 -44 0
15 -38 -45 0
15 -39 -44 0
46 47 48 49 0
50 51 52 53 0
54 55 56 57 0
58 59 60 61 0
62 63 64 65 0
66 67 68 69 0
-46 -47 0
-46 -48 0
-46 -49 0
-47 -48 0
-47 -49 0
-48 -49 0
-50 -51 0
-50 -52 0
-50 -53 0
-51 -52 0
-51 -53 0
-52 -53 0
-54 -55 0
-54 -56 0
-54 -57 0
-55 -56 0
-55 -57 0
-56 -57 0
-58 -59 0
-58 -60 0
-58 -61 0
-59 -60 0
-59 -61 0
-60 -61 0
-62 -63 0
-62 -64 0
-62 -65 0
-63 -64 0
-63 -65 0
-64 -65 0
-66 -67 0
-66 -68 0
-66 -69 0
-67 -68 0
-67 -69 0
-68 -69 0
-1 -46 -50 0
-1 -47 -51 0
-1 -48 -52 0
-1 -49 -53 0
-2 -46 -54 0
-2 -47 -55 0
-2 -48 -56 0
-2 -49 -57 0
-3 -46 -58 0
-3 -47 -59 0
-3 -48 -60 0
-3 -49 -61 0
-4 -46 -62 0
-4 -47 -63 0
-4 -48 -64 0
-4 -49 -65 0
-5 -46 -66 0
-5 -47 -67 0
-5 -48 -68 0
-5 -49 -69 0
-6 -50 -54 0
-6 -51 -55 0
-6 -52 -56 0
-6 -53 -57 0
-7 -50 -58 0
-7 -51 -59 0
-7 -52 -60 0
-7 -53 -61 0
-8 -50 -62 0
-8 -51 -63 0
-8 -52 -64 0
-8 -53 -65 0
-9 -50 -66 0
-9 -51 -67 0
-9 -52 -68 0
-9 -53 -69 0
-10 -54 -58 0
-10 -55 -59 0
-10 -56 -60 0
-10 -57 -61 0
-11 -54 -62 0
-11 -55 -63 0
-11 -56 -64 0
-11 -57 -65 0
-12 -54 -66 0
-12 -55 -67 0
-12 -56 -68 0
-12 -57 -69 0
-13 -58 -62 0
-13 -59 -63 0
-13 -60 -64 0
-13 -61 -65 0
-14 -58 -66 0
-14 -59 -67 0
-14 -60 -68 0
-14 -61 -69 0
-15 -62 -66 0
-15 -63 -67 0
-15 -64 -68 0
-15 -65 -69 0
