c description: There is a graph of 8 vertices with a 3-clique and a 4-coloring
c generator: CNFgen (0.9.5)
c copyright: (C) 2012-2026 Massimo Lauria <massimo.lauria@uniroma1.it>
c url: https://massimolauria.net/cnfgen
c random seed: 31208
c command line: cnfgen -S 31208 -o cnfgen_regression_pack/cnfgen_cases/cliquecoloring_n8_k3_c4_sat.cnf cliquecoloring 8 3 4
c
c known_status: SAT
c pack_family: clique_coloring
c pack_level: moderate
c pack_notes: clique-coloring principle
p cnf 84 447
29 30 31 32 33 34 35 36 0
37 38 39 40 41 42 43 44 0
45 46 47 48 49 50 51 52 0
-29 -30 0
-29 -31 0
-29 -32 0
-29 -33 0
-29 -34 0
-29 -35 0
-29 -36 0
-30 -31 0
-30 -32 0
-30 -33 0
-30 -34 0
-30 -35 0
-30 -36 0
-31 -32 0
-31 -33 0
-31 -34 0
-31 -35 0
-31 -36 0
-32 -33 0
-32 -34 0
-32 -35 0
-32 -36 0
-33 -34 0
-33 -35 0
-33 -36 0
-34 -35 0
-34 -36 0
-35 -36 0
-37 -38 0
-37 -39 0
-37 -40 0
-37 -41 0
-37 -42 0
-37 -43 0
-37 -44 0
-38 -39 0
-38 -40 0
-38 -41 0
-38 -42 0
-38 -43 0
-38 -44 0
-39 -40 0
-39 -41 0
-39 -42 0
-39 -43 0
-39 -44 0
-40 -41 0
-40 -42 0
-40 -43 0
-40 -44 0
-41 -42 0
-41 -43 0
-41 -44 0
-42 -43 0
-42 -44 0
-43 -44 0
-45 -46 0
-45 -47 0
-45 -48 0
-45 -49 0
-45 -50 0
-45 -51 0
-45 -52 0
-46 -47 0
-46 -48 0
-46 -49 0
-46 -50 0
-46 -51 0
-46 -52 0
-47 -48 0
-47 -49 0
-47 -50 0
-47 -51 0
-47 -52 0
-48 -49 0
-48 -50 0
-48 -51 0
-48 -52 0
-49 -50 0
-49 -51 0
-49 -52 0
-50 -51 0
-50 -52 0
-51 -52 0
-29 -37 0
-29 -45 0
-37 -45 0
-30 -38 0
-30 -46 0
-38 -46 0
-31 -39 0
-31 -47 0
-39 -47 0
-32 -40 0
-32 -48 0
-40 -48 0
-33 -41 0
-33 -49 0
-41 -49 0
-34 -42 0
-34 -50 0
-42 -50 0
-35 -43 0
-35 -51 0
-43 -51 0
-36 -44 0
-36 -52 0
-44 -52 0
1 -29 -38 0
1 -30 -37 0
1 -29 -46 0
1 -30 -45 0
1 -37 -46 0
1 -38 -45 0
2 -29 -39 0
2 -31 -37 0
2 -29 -47 0
2 -31 -45 0
2 -37 -47 0
2 -39 -45 0
3 -29 -40 0
3 -32 -37 0
3 -29 -48 0
3 -32 -45 0
3 -37 -48 0
3 -40 -45 0
4 -29 -41 0
4 -33 -37 0
4 -29 -49 0
4 -33 -45 0
4 -37 -49 0
4 -41 -45 0
5 -29 -42 0
5 -34 -37 0
5 -29 -50 0
5 -34 -45 0
5 -37 -50 0
5 -42 -45 0
6 -29 -43 0
6 -35 -37 0
6 -29 -51 0
6 -35 -45 0
6 -37 -51 0
6 -43 -45 0
7 -29 -44 0
7 -36 -37 0
7 -29 -52 0
7 -36 -45 0
7 -37 -52 0
7 -44 -45 0
8 -30 -39 0
8 -31 -38 0
8 -30 -47 0
8 -31 -46 0
8 -38 -47 0
8 -39 -46 0
9 -30 -40 0
9 -32 -38 0
9 -30 -48 0
9 -32 -46 0
9 -38 -48 0
9 -40 -46 0
10 -30 -41 0
10 -33 -38 0
10 -30 -49 0
10 -33 -46 0
10 -38 -49 0
10 -41 -46 0
11 -30 -42 0
11 -34 -38 0
11 -30 -50 0
11 -34 -46 0
11 -38 -50 0
11 -42 -46 0
12 -30 -43 0
12 -35 -38 0
12 -30 -51 0
12 -35 -46 0
12 -38 -51 0
12 -43 -46 0
13 -30 -44 0
13 -36 -38 0
13 -30 -52 0
13 -36 -46 0
13 -38 -52 0
13 -44 -46 0
14 -31 -40 0
14 -32 -39 0
14 -31 -48 0
14 -32 -47 0
14 -39 -48 0
14 -40 -47 0
15 -31 -41 0
15 -33 -39 0
15 -31 -49 0
15 -33 -47 0
15 -39 -49 0
15 -41 -47 0
16 -31 -42 0
16 -34 -39 0
16 -31 -50 0
16 -34 -47 0
16 -39 -50 0
16 -42 -47 0
17 -31 -43 0
17 -35 -39 0
17 -31 -51 0
17 -35 -47 0
17 -39 -51 0
17 -43 -47 0
18 -31 -44 0
18 -36 -39 0
18 -31 -52 0
18 -36 -47 0
18 -39 -52 0
18 -44 -47 0
19 -32 -41 0
19 -33 -40 0
19 -32 -49 0
19 -33 -48 0
19 -40 -49 0
19 -41 -48 0
20 -32 -42 0
20 -34 -40 0
20 -32 -50 0
20 -34 -48 0
20 -40 -50 0
20 -42 -48 0
21 -32 -43 0
21 -35 -40 0
21 -32 -51 0
21 -35 -48 0
21 -40 -51 0
21 -43 -48 0
22 -32 -44 0
22 -36 -40 0
22 -32 -52 0
22 -36 -48 0
22 -40 -52 0
22 -44 -48 0
23 -33 -42 0
23 -34 -41 0
23 -33 -50 0
23 -34 -49 0
23 -41 -50 0
23 -42 -49 0
24 -33 -43 0
24 -35 -41 0
24 -33 -51 0
24 -35 -49 0
24 -41 -51 0
24 -43 -49 0
25 -33 -44 0
25 -36 -41 0
25 -33 -52 0
25 -36 -49 0
25 -41 -52 0
25 -44 -49 0
26 -34 -43 0
26 -35 -42 0
26 -34 -51 0
26 -35 -50 0
26 -42 -51 0
26 -43 -50 0
27 -34 -44 0
27 -36 -42 0
27 -34 -52 0
27 -36 -50 0
27 -42 -52 0
27 -44 -50 0
28 -35 -44 0
28 -36 -43 0
28 -35 -52 0
28 -36 -51 0
28 -43 -52 0
28 -44 -51 0
53 54 55 56 0
57 58 59 60 0
61 62 63 64 0
65 66 67 68 0
69 70 71 72 0
73 74 75 76 0
77 78 79 80 0
81 82 83 84 0
-53 -54 0
-53 -55 0
-53 -56 0
-54 -55 0
-54 -56 0
-55 -56 0
-57 -58 0
-57 -59 0
-57 -60 0
-58 -59 0
-58 -60 0
-59 -60 0
-61 -62 0
-61 -63 0
-61 -64 0
-62 -63 0
-62 -64 0
-63 -64 0
-65 -66 0
-65 -67 0
-65 -68 0
-66 -67 0
-66 -68 0
-67 -68 0
-69 -70 0
-69 -71 0
-69 -72 0
-70 -71 0
-70 -72 0
-71 -72 0
-73 -74 0
-73 -75 0
-73 -76 0
-74 -75 0
-74 -76 0
-75 -76 0
-77 -78 0
-77 -79 0
-77 -80 0
-78 -79 0
-78 -80 0
-79 -80 0
-81 -82 0
-81 -83 0
-81 -84 0
-82 -83 0
-82 -84 0
-83 -84 0
-1 -53 -57 0
-1 -54 -58 0
-1 -55 -59 0
-1 -56 -60 0
-2 -53 -61 0
-2 -54 -62 0
-2 -55 -63 0
-2 -56 -64 0
-3 -53 -65 0
-3 -54 -66 0
-3 -55 -67 0
-3 -56 -68 0
-4 -53 -69 0
-4 -54 -70 0
-4 -55 -71 0
-4 -56 -72 0
-5 -53 -73 0
-5 -54 -74 0
-5 -55 -75 0
-5 -56 -76 0
-6 -53 -77 0
-6 -54 -78 0
-6 -55 -79 0
-6 -56 -80 0
-7 -53 -81 0
-7 -54 -82 0
-7 -55 -83 0
-7 -56 -84 0
-8 -57 -61 0
-8 -58 -62 0
-8 -59 -63 0
-8 -60 -64 0
-9 -57 -65 0
-9 -58 -66 0
-9 -59 -67 0
-9 -60 -68 0
-10 -57 -69 0
-10 -58 -70 0
-10 -59 -71 0
-10 -60 -72 0
-11 -57 -73 0
-11 -58 -74 0
-11 -59 -75 0
-11 -60 -76 0
-12 -57 -77 0
-12 -58 -78 0
-12 -59 -79 0
-12 -60 -80 0
-13 -57 -81 0
-13 -58 -82 0
-13 -59 -83 0
-13 -60 -84 0
-14 -61 -65 0
-14 -62 -66 0
-14 -63 -67 0
-14 -64 -68 0
-15 -61 -69 0
-15 -62 -70 0
-15 -63 -71 0
-15 -64 -72 0
-16 -61 -73 0
-16 -62 -74 0
-16 -63 -75 0
-16 -64 -76 0
-17 -61 -77 0
-17 -62 -78 0
-17 -63 -79 0
-17 -64 -80 0
-18 -61 -81 0
-18 -62 -82 0
-18 -63 -83 0
-18 -64 -84 0
-19 -65 -69 0
-19 -66 -70 0
-19 -67 -71 0
-19 -68 -72 0
-20 -65 -73 0
-20 -66 -74 0
-20 -67 -75 0
-20 -68 -76 0
-21 -65 -77 0
-21 -66 -78 0
-21 -67 -79 0
-21 -68 -80 0
-22 -65 -81 0
-22 -66 -82 0
-22 -67 -83 0
-22 -68 -84 0
-23 -69 -73 0
-23 -70 -74 0
-23 -71 -75 0
-23 -72 -76 0
-24 -69 -77 0
-24 -70 -78 0
-24 -71 -79 0
-24 -72 -80 0
-25 -69 -81 0
-25 -70 -82 0
-25 -71 -83 0
-25 -72 -84 0
-26 -73 -77 0
-26 -74 -78 0
-26 -75 -79 0
-26 -76 -80 0
-27 -73 -81 0
-27 -74 -82 0
-27 -75 -83 0
-27 -76 -84 0
-28 -77 -81 0
-28 -78 -82 0
-28 -79 -83 0
-28 -80 -84 0
