c description: Counting Principle: 11 divided in parts of size 2.
c generator: CNFgen (0.9.5)
c copyright: (C) 2012-2026 Massimo Lauria <massimo.lauria@uniroma1.it>
c url: https://massimolauria.net/cnfgen
c random seed: 31012
c command line: cnfgen -S 31012 -o cnfgen_regression_pack/cnfgen_cases/count_m11_p2_unsat.cnf count 11 2
c
c known_status: UNSAT
c pack_family: counting
c pack_level: easy
c pack_notes: counting partition principle
p cnf 55 506
-1 -2 0
-1 -3 0
-1 -4 0
-1 -5 0
-1 -6 0
-1 -7 0
-1 -8 0
-1 -9 0
-1 -10 0
-2 -3 0
-2 -4 0
-2 -5 0
-2 -6 0
-2 -7 0
-2 -8 0
-2 -9 0
-2 -10 0
-3 -4 0
-3 -5 0
-3 -6 0
-3 -7 0
-3 -8 0
-3 -9 0
-3 -10 0
-4 -5 0
-4 -6 0
-4 -7 0
-4 -8 0
-4 -9 0
-4 -10 0
-5 -6 0
-5 -7 0
-5 -8 0
-5 -9 0
-5 -10 0
-6 -7 0
-6 -8 0
-6 -9 0
-6 -10 0
-7 -8 0
-7 -9 0
-7 -10 0
-8 -9 0
-8 -10 0
-9 -10 0
1 2 3 4 5 6 7 8 9 10 0
-1 -11 0
-1 -12 0
-1 -13 0
-1 -14 0
-1 -15 0
-1 -16 0
-1 -17 0
-1 -18 0
-1 -19 0
-11 -12 0
-11 -13 0
-11 -14 0
-11 -15 0
-11 -16 0
-11 -17 0
-11 -18 0
-11 -19 0
-12 -13 0
-12 -14 0
-12 -15 0
-12 -16 0
-12 -17 0
-12 -18 0
-12 -19 0
-13 -14 0
-13 -15 0
-13 -16 0
-13 -17 0
-13 -18 0
-13 -19 0
-14 -15 0
-14 -16 0
-14 -17 0
-14 -18 0
-14 -19 0
-15 -16 0
-15 -17 0
-15 -18 0
-15 -19 0
-16 -17 0
-16 -18 0
-16 -19 0
-17 -18 0
-17 -19 0
-18 -19 0
1 11 12 13 14 15 16 17 18 19 0
-2 -11 0
-2 -20 0
-2 -21 0
-2 -22 0
-2 -23 0
-2 -24 0
-2 -25 0
-2 -26 0
-2 -27 0
-11 -20 0
-11 -21 0
-11 -22 0
-11 -23 0
-11 -24 0
-11 -25 0
-11 -26 0
-11 -27 0
-20 -21 0
-20 -22 0
-20 -23 0
-20 -24 0
-20 -25 0
-20 -26 0
-20 -27 0
-21 -22 0
-21 -23 0
-21 -24 0
-21 -25 0
-21 -26 0
-21 -27 0
-22 -23 0
-22 -24 0
-22 -25 0
-22 -26 0
-22 -27 0
-23 -24 0
-23 -25 0
-23 -26 0
-23 -27 0
-24 -25 0
-24 -26 0
-24 -27 0
-25 -26 0
-25 -27 0
-26 -27 0
2 11 20 21 22 23 24 25 26 27 0
-3 -12 0
-3 -20 0
-3 -28 0
-3 -29 0
-3 -30 0
-3 -31 0
-3 -32 0
-3 -33 0
-3 -34 0
-12 -20 0
-12 -28 0
-12 -29 0
-12 -30 0
-12 -31 0
-12 -32 0
-12 -33 0
-12 -34 0
-20 -28 0
-20 -29 0
-20 -30 0
-20 -31 0
-20 -32 0
-20 -33 0
-20 -34 0
-28 -29 0
-28 -30 0
-28 -31 0
-28 -32 0
-28 -33 0
-28 -34 0
-29 -30 0
-29 -31 0
-29 -32 0
-29 -33 0
-29 -34 0
-30 -31 0
-30 -32 0
-30 -33 0
-30 -34 0
-31 -32 0
-31 -33 0
-31 -34 0
-32 -33 0
-32 -34 0
-33 -34 0
3 12 20 28 29 30 31 32 33 34 0
-4 -13 0
-4 -21 0
-4 -28 0
-4 -35 0
-4 -36 0
-4 -37 0
-4 -38 0
-4 -39 0
-4 -40 0
-13 -21 0
-13 -28 0
-13 -35 0
-13 -36 0
-13 -37 0
-13 -38 0
-13 -39 0
-13 -40 0
-21 -28 0
-21 -35 0
-21 -36 0
-21 -37 0
-21 -38 0
-21 -39 0
-21 -40 0
-28 -35 0
-28 -36 0
-28 -37 0
-28 -38 0
-28 -39 0
-28 -40 0
-35 -36 0
-35 -37 0
-35 -38 0
-35 -39 0
-35 -40 0
-36 -37 0
-36 -38 0
-36 -39 0
-36 -40 0
-37 -38 0
-37 -39 0
-37 -40 0
-38 -39 0
-38 -40 0
-39 -40 0
4 13 21 28 35 36 37 38 39 40 0
-5 -14 0
-5 -22 0
-5 -29 0
-5 -35 0
-5 -41 0
-5 -42 0
-5 -43 0
-5 -44 0
-5 -45 0
-14 -22 0
-14 -29 0
-14 -35 0
-14 -41 0
-14 -42 0
-14 -43 0
-14 -44 0
-14 -45 0
-22 -29 0
-22 -35 0
-22 -41 0
-22 -42 0
-22 -43 0
-22 -44 0
-22 -45 0
-29 -35 0
-29 -41 0
-29 -42 0
-29 -43 0
-29 -44 0
-29 -45 0
-35 -41 0
-35 -42 0
-35 -43 0
-35 -44 0
-35 -45 0
-41 -42 0
-41 -43 0
-41 -44 0
-41 -45 0
-42 -43 0
-42 -44 0
-42 -45 0
-43 -44 0
-43 -45 0
-44 -45 0
5 14 22 29 35 41 42 43 44 45 0
-6 -15 0
-6 -23 0
-6 -30 0
-6 -36 0
-6 -41 0
-6 -46 0
-6 -47 0
-6 -48 0
-6 -49 0
-15 -23 0
-15 -30 0
-15 -36 0
-15 -41 0
-15 -46 0
-15 -47 0
-15 -48 0
-15 -49 0
-23 -30 0
-23 -36 0
-23 -41 0
-23 -46 0
-23 -47 0
-23 -48 0
-23 -49 0
-30 -36 0
-30 -41 0
-30 -46 0
-30 -47 0
-30 -48 0
-30 -49 0
-36 -41 0
-36 -46 0
-36 -47 0
-36 -48 0
-36 -49 0
-41 -46 0
-41 -47 0
-41 -48 0
-41 -49 0
-46 -47 0
-46 -48 0
-46 -49 0
-47 -48 0
-47 -49 0
-48 -49 0
6 15 23 30 36 41 46 47 48 49 0
-7 -16 0
-7 -24 0
-7 -31 0
-7 -37 0
-7 -42 0
-7 -46 0
-7 -50 0
-7 -51 0
-7 -52 0
-16 -24 0
-16 -31 0
-16 -37 0
-16 -42 0
-16 -46 0
-16 -50 0
-16 -51 0
-16 -52 0
-24 -31 0
-24 -37 0
-24 -42 0
-24 -46 0
-24 -50 0
-24 -51 0
-24 -52 0
-31 -37 0
-31 -42 0
-31 -46 0
-31 -50 0
-31 -51 0
-31 -52 0
-37 -42 0
-37 -46 0
-37 -50 0
-37 -51 0
-37 -52 0
-42 -46 0
-42 -50 0
-42 -51 0
-42 -52 0
-46 -50 0
-46 -51 0
-46 -52 0
-50 -51 0
-50 -52 0
-51 -52 0
7 16 24 31 37 42 46 50 51 52 0
-8 -17 0
-8 -25 0
-8 -32 0
-8 -38 0
-8 -43 0
-8 -47 0
-8 -50 0
-8 -53 0
-8 -54 0
-17 -25 0
-17 -32 0
-17 -38 0
-17 -43 0
-17 -47 0
-17 -50 0
-17 -53 0
-17 -54 0
-25 -32 0
-25 -38 0
-25 -43 0
-25 -47 0
-25 -50 0
-25 -53 0
-25 -54 0
-32 -38 0
-32 -43 0
-32 -47 0
-32 -50 0
-32 -53 0
-32 -54 0
-38 -43 0
-38 -47 0
-38 -50 0
-38 -53 0
-38 -54 0
-43 -47 0
-43 -50 0
-43 -53 0
-43 -54 0
-47 -50 0
-47 -53 0
-47 -54 0
-50 -53 0
-50 -54 0
-53 -54 0
8 17 25 32 38 43 47 50 53 54 0
-9 -18 0
-9 -26 0
-9 -33 0
-9 -39 0
-9 -44 0
-9 -48 0
-9 -51 0
-9 -53 0
-9 -55 0
-18 -26 0
-18 -33 0
-18 -39 0
-18 -44 0
-18 -48 0
-18 -51 0
-18 -53 0
-18 -55 0
-26 -33 0
-26 -39 0
-26 -44 0
-26 -48 0
-26 -51 0
-26 -53 0
-26 -55 0
-33 -39 0
-33 -44 0
-33 -48 0
-33 -51 0
-33 -53 0
-33 -55 0
-39 -44 0
-39 -48 0
-39 -51 0
-39 -53 0
-39 -55 0
-44 -48 0
-44 -51 0
-44 -53 0
-44 -55 0
-48 -51 0
-48 -53 0
-48 -55 0
-51 -53 0
-51 -55 0
-53 -55 0
9 18 26 33 39 44 48 51 53 55 0
-10 -19 0
-10 -27 0
-10 -34 0
-10 -40 0
-10 -45 0
-10 -49 0
-10 -52 0
-10 -54 0
-10 -55 0
-19 -27 0
-19 -34 0
-19 -40 0
-19 -45 0
-19 -49 0
-19 -52 0
-19 -54 0
-19 -55 0
-27 -34 0
-27 -40 0
-27 -45 0
-27 -49 0
-27 -52 0
-27 -54 0
-27 -55 0
-34 -40 0
-34 -45 0
-34 -49 0
-34 -52 0
-34 -54 0
-34 -55 0
-40 -45 0
-40 -49 0
-40 -52 0
-40 -54 0
-40 -55 0
-45 -49 0
-45 -52 0
-45 -54 0
-45 -55 0
-49 -52 0
-49 -54 0
-49 -55 0
-52 -54 0
-52 -55 0
-54 -55 0
10 19 27 34 40 45 49 52 54 55 0
