c description: Random 3-CNF over 14 variables and 70 clauses
c generator: CNFgen (0.9.5)
c copyright: (C) 2012-2026 Massimo Lauria <massimo.lauria@uniroma1.it>
c url: https://massimolauria.net/cnfgen
c random seed: 31107
c command line: cnfgen -S 31107 -o cnfgen_regression_pack/cnfgen_cases/exact_random3cnf_v14_m70_s2.cnf randkcnf 3 14 70
c
c known_status: SAT
c pack_family: exact_small_randkcnf
c pack_level: easy
c pack_notes: status brute-forced during generation
p cnf 14 70
5 7 11 0
4 9 -10 0
1 12 -14 0
-2 4 11 0
-3 -5 9 0
10 11 -12 0
-1 -9 12 0
-3 7 12 0
-12 -13 -14 0
-1 5 14 0
-9 -10 -14 0
3 4 -9 0
-3 -6 -7 0
1 2 -11 0
4 -8 -13 0
5 -10 12 0
-4 8 -10 0
-3 -9 10 0
-9 -11 -13 0
2 -6 12 0
4 -8 -10 0
-1 8 14 0
-1 3 11 0
7 -8 -10 0
3 4 9 0
3 6 -13 0
5 -10 11 0
3 8 12 0
1 -3 -8 0
-3 -9 12 0
5 -9 11 0
3 -4 -8 0
-3 -7 12 0
-2 -13 -14 0
3 8 -11 0
3 9 -14 0
3 6 10 0
3 5 13 0
8 9 -12 0
-5 10 -14 0
8 10 -11 0
4 11 -14 0
-3 -5 7 0
-1 -9 -13 0
-2 -4 -5 0
9 10 -12 0
-5 10 -12 0
1 7 -9 0
8 -9 12 0
5 -7 14 0
5 6 14 0
-11 -13 -14 0
-6 -12 -14 0
-2 9 -10 0
7 -8 11 0
-9 10 13 0
4 7 -12 0
-2 5 11 0
-2 3 -13 0
-3 12 14 0
-3 -10 -13 0
1 -7 10 0
3 -4 -9 0
-7 -8 -9 0
7 12 -13 0
3 7 -11 0
3 -10 -14 0
3 11 13 0
-1 11 -13 0
8 9 11 0
