c description: Random 3-CNF over 14 variables and 56 clauses
c generator: CNFgen (0.9.5)
c copyright: (C) 2012-2026 Massimo Lauria <massimo.lauria@uniroma1.it>
c url: https://massimolauria.net/cnfgen
c random seed: 31105
c command line: cnfgen -S 31105 -o cnfgen_regression_pack/cnfgen_cases/exact_random3cnf_v14_m56_s2.cnf randkcnf 3 14 56
c
c known_status: UNSAT
c pack_family: exact_small_randkcnf
c pack_level: easy
c pack_notes: status brute-forced during generation
p cnf 14 56
6 -12 -13 0
8 10 -13 0
-5 10 12 0
3 -7 14 0
1 8 -10 0
-6 -7 12 0
1 11 12 0
4 10 -12 0
4 5 11 0
2 -3 -14 0
-2 10 -14 0
-2 -5 12 0
5 -13 14 0
-8 9 11 0
-1 -5 8 0
5 -10 13 0
2 7 12 0
-2 7 -13 0
-2 10 -11 0
-4 9 -11 0
3 -9 -11 0
1 3 -7 0
2 -4 -5 0
4 -7 11 0
-4 -9 13 0
-2 -9 13 0
4 5 -6 0
3 7 -14 0
8 -9 14 0
1 7 9 0
-3 6 -8 0
-4 6 -14 0
3 4 -13 0
1 4 -12 0
1 -6 -7 0
-8 11 13 0
-5 9 12 0
1 -4 -8 0
-3 11 -12 0
1 12 14 0
2 -5 -11 0
-1 10 13 0
-5 -10 -12 0
8 9 -14 0
2 6 -7 0
-2 -4 13 0
5 -9 11 0
-3 5 11 0
5 7 -8 0
3 10 11 0
1 -5 -14 0
-3 5 13 0
4 -5 11 0
-2 11 12 0
-1 -3 -11 0
1 -6 12 0
