c description: Random 3-CNF over 11 variables and 33 clauses
c generator: CNFgen (0.9.5)
c copyright: (C) 2012-2026 Massimo Lauria <massimo.lauria@uniroma1.it>
c url: https://massimolauria.net/cnfgen
c random seed: 31085
c command line: cnfgen -S 31085 -o cnfgen_regression_pack/cnfgen_cases/exact_random3cnf_v11_m33_s2.cnf randkcnf 3 11 33
c
c known_status: SAT
c pack_family: exact_small_randkcnf
c pack_level: easy
c pack_notes: status brute-forced during generation
p cnf 11 33
7 -8 11 0
-8 -9 10 0
-1 4 6 0
1 3 -5 0
-4 5 10 0
9 10 11 0
-3 4 8 0
2 3 -9 0
6 -7 9 0
-1 2 -3 0
1 8 9 0
8 -10 -11 0
3 7 -10 0
-1 6 7 0
-8 9 -11 0
2 6 11 0
-2 3 -9 0
3 4 -10 0
1 -2 -9 0
-3 -4 -6 0
-5 -9 -11 0
2 -5 -6 0
1 -7 11 0
-2 -6 9 0
-5 8 11 0
5 -9 -10 0
-2 6 9 0
5 -10 -11 0
-2 -4 5 0
-4 8 -9 0
3 6 -11 0
1 -2 11 0
1 3 5 0
