c description: Random 3-CNF over 12 variables and 48 clauses
c generator: CNFgen (0.9.5)
c copyright: (C) 2012-2026 Massimo Lauria <massimo.lauria@uniroma1.it>
c url: https://massimolauria.net/cnfgen
c random seed: 31093
c command line: cnfgen -S 31093 -o cnfgen_regression_pack/cnfgen_cases/exact_random3cnf_v12_m48_s2.cnf randkcnf 3 12 48
c
c known_status: UNSAT
c pack_family: exact_small_randkcnf
c pack_level: easy
c pack_notes: status brute-forced during generation
p cnf 12 48
1 -4 -10 0
3 6 12 0
8 11 12 0
-2 9 12 0
-2 4 -10 0
-3 5 11 0
5 6 12 0
-1 3 -10 0
4 6 -7 0
8 -9 10 0
1 2 -4 0
-1 -7 10 0
3 11 -12 0
2 -5 -9 0
-1 2 -6 0
-3 -4 11 0
7 9 12 0
-6 8 11 0
2 6 -8 0
3 -4 12 0
5 8 -11 0
-2 8 -12 0
3 9 -10 0
4 5 9 0
-2 -6 -8 0
3 5 12 0
-4 -8 -11 0
1 -6 -12 0
1 -6 12 0
2 5 -11 0
-9 -10 -11 0
-1 4 -11 0
-3 -5 -10 0
2 6 -11 0
-1 4 11 0
2 -7 10 0
-4 9 -12 0
1 6 8 0
-3 6 7 0
2 -5 -12 0
-3 -4 -6 0
1 5 -6 0
3 5 10 0
4 -7 -12 0
-8 10 -11 0
1 -4 -6 0
2 10 -11 0
4 -5 -10 0
