c description: Random 3-CNF over 12 variables and 36 clauses
c generator: CNFgen (0.9.5)
c copyright: (C) 2012-2026 Massimo Lauria <massimo.lauria@uniroma1.it>
c url: https://massimolauria.net/cnfgen
c random seed: 31090
c command line: cnfgen -S 31090 -o cnfgen_regression_pack/cnfgen_cases/exact_random3cnf_v12_m36_s1.cnf randkcnf 3 12 36
c
c known_status: SAT
c pack_family: exact_small_randkcnf
c pack_level: easy
c pack_notes: status brute-forced during generation
p cnf 12 36
-2 -3 4 0
2 -5 12 0
-6 7 -9 0
-2 3 -10 0
4 -7 10 0
1 -5 6 0
7 9 -12 0
2 8 -11 0
-9 11 12 0
2 5 -9 0
-4 6 11 0
-4 -8 11 0
-3 4 -10 0
-5 7 10 0
3 -10 11 0
-3 4 -9 0
1 3 5 0
5 -9 11 0
-2 11 -12 0
-3 9 11 0
-6 -10 -11 0
-2 -7 9 0
-3 -5 7 0
1 4 6 0
-4 -9 10 0
-3 -4 -7 0
5 9 10 0
3 6 -7 0
-4 7 -12 0
-3 6 -10 0
4 -5 8 0
1 2 6 0
-5 -10 12 0
1 7 -11 0
-1 2 9 0
10 -11 12 0
