c description: Random 3-CNF over 8 variables and 24 clauses
c generator: CNFgen (0.9.5)
c copyright: (C) 2012-2026 Massimo Lauria <massimo.lauria@uniroma1.it>
c url: https://massimolauria.net/cnfgen
c random seed: 31067
c command line: cnfgen -S 31067 -o cnfgen_regression_pack/cnfgen_cases/exact_random3cnf_v8_m24_s2.cnf randkcnf 3 8 24
c
c known_status: SAT
c pack_family: exact_small_randkcnf
c pack_level: easy
c pack_notes: status brute-forced during generation
p cnf 8 24
-2 -7 -8 0
4 -6 8 0
-5 -6 8 0
-1 6 8 0
1 -7 -8 0
1 2 -4 0
2 4 -6 0
-1 4 5 0
1 3 8 0
1 4 -5 0
-4 6 7 0
-5 -6 7 0
-3 -4 7 0
-4 5 6 0
-3 4 5 0
-4 -6 -8 0
-1 2 8 0
2 -5 -8 0
1 -5 7 0
-3 5 6 0
1 3 -6 0
4 5 8 0
-2 4 -6 0
-1 2 -8 0
