c description: Random 3-CNF over 10 variables and 50 clauses
c generator: CNFgen (0.9.5)
c copyright: (C) 2012-2026 Massimo Lauria <massimo.lauria@uniroma1.it>
c url: https://massimolauria.net/cnfgen
c random seed: 31083
c command line: cnfgen -S 31083 -o cnfgen_regression_pack/cnfgen_cases/exact_random3cnf_v10_m50_s2.cnf randkcnf 3 10 50
c
c known_status: UNSAT
c pack_family: exact_small_randkcnf
c pack_level: easy
c pack_notes: status brute-forced during generation
p cnf 10 50
-3 -5 6 0
1 -2 -10 0
5 -6 -7 0
5 7 9 0
-1 3 -8 0
-1 2 4 0
2 3 -6 0
3 -4 5 0
-3 -6 9 0
-3 -7 9 0
-4 6 10 0
-5 6 9 0
-6 7 10 0
2 6 10 0
-2 6 -7 0
3 6 8 0
4 5 6 0
7 8 9 0
2 -3 -10 0
-1 -5 -8 0
-2 -6 10 0
2 -4 -10 0
-5 -7 -9 0
-1 4 5 0
2 9 -10 0
-2 3 6 0
-3 7 9 0
1 -6 9 0
-3 5 7 0
3 5 -7 0
-4 -7 8 0
1 5 -7 0
1 -7 -8 0
-4 -6 -10 0
4 5 -8 0
2 -7 -10 0
-8 -9 10 0
-1 -6 8 0
-5 7 -9 0
-2 -9 -10 0
2 7 -9 0
-2 -6 -9 0
-6 -7 10 0
-2 4 -8 0
-2 5 6 0
1 -2 -5 0
2 -6 -8 0
4 9 10 0
-3 7 -9 0
-5 9 10 0
