c description: Random 3-CNF over 10 variables and 30 clauses
c generator: CNFgen (0.9.5)
c copyright: (C) 2012-2026 Massimo Lauria <massimo.lauria@uniroma1.it>
c url: https://massimolauria.net/cnfgen
c random seed: 31078
c command line: cnfgen -S 31078 -o cnfgen_regression_pack/cnfgen_cases/exact_random3cnf_v10_m30_s1.cnf randkcnf 3 10 30
c
c known_status: SAT
c pack_family: exact_small_randkcnf
c pack_level: easy
c pack_notes: status brute-forced during generation
p cnf 10 30
4 5 7 0
-1 4 -5 0
-2 8 9 0
-2 4 6 0
2 5 -8 0
-2 -6 -8 0
-1 -3 7 0
4 -6 -8 0
1 -4 -10 0
3 -7 -8 0
-1 3 -6 0
1 3 -4 0
-2 3 6 0
-1 -4 -7 0
-1 2 7 0
1 4 7 0
1 7 -8 0
-1 5 -9 0
1 3 8 0
-3 -4 -9 0
3 4 -8 0
-1 -5 -10 0
2 3 9 0
2 -5 10 0
2 3 -9 0
-1 2 -4 0
-3 4 6 0
2 4 -8 0
4 6 -7 0
-2 -7 10 0
