c description: Random 3-CNF over 13 variables and 65 clauses
c generator: CNFgen (0.9.5)
c copyright: (C) 2012-2026 Massimo Lauria <massimo.lauria@uniroma1.it>
c url: https://massimolauria.net/cnfgen
c random seed: 31101
c command line: cnfgen -S 31101 -o cnfgen_regression_pack/cnfgen_cases/exact_random3cnf_v13_m65_s2.cnf randkcnf 3 13 65
c
c known_status: UNSAT
c pack_family: exact_small_randkcnf
c pack_level: easy
c pack_notes: status brute-forced during generation
p cnf 13 65
1 3 -4 0
-4 6 7 0
-6 11 -13 0
5 -6 11 0
-3 -4 -5 0
2 8 11 0
4 -10 -13 0
2 -4 -13 0
-2 -7 8 0
-2 -6 11 0
2 6 13 0
2 -4 -5 0
-7 -8 11 0
10 -11 -13 0
2 -3 4 0
-4 -7 10 0
-7 8 13 0
-3 -7 -8 0
-2 5 -10 0
-5 -8 12 0
4 -5 6 0
6 8 9 0
-2 -5 -10 0
-4 5 -9 0
-3 -8 11 0
3 4 10 0
-6 -7 -10 0
1 3 7 0
-3 -9 -12 0
3 9 -11 0
1 -7 9 0
9 10 -13 0
-4 -11 -12 0
-7 -9 -13 0
-2 6 12 0
-1 -3 13 0
2 7 8 0
2 4 5 0
3 -4 5 0
1 -6 13 0
-6 -8 -13 0
-1 8 10 0
-2 -4 -9 0
-8 11 12 0
-4 10 -12 0
5 8 12 0
-1 2 3 0
-3 5 -10 0
-1 7 -9 0
6 -9 -13 0
-2 4 13 0
4 5 7 0
-5 8 13 0
3 8 -13 0
-3 -12 13 0
-4 -5 -9 0
-3 10 13 0
4 -6 9 0
-7 8 -11 0
2 5 -9 0
-3 7 8 0
-1 9 10 0
8 9 -13 0
-1 -5 -6 0
-6 7 13 0
