c description: Random 3-CNF over 13 variables and 52 clauses
c generator: CNFgen (0.9.5)
c copyright: (C) 2012-2026 Massimo Lauria <massimo.lauria@uniroma1.it>
c url: https://massimolauria.net/cnfgen
c random seed: 31098
c command line: cnfgen -S 31098 -o cnfgen_regression_pack/cnfgen_cases/exact_random3cnf_v13_m52_s1.cnf randkcnf 3 13 52
c
c known_status: SAT
c pack_family: exact_small_randkcnf
c pack_level: easy
c pack_notes: status brute-forced during generation
p cnf 13 52
10 11 12 0
7 12 -13 0
-3 -5 -13 0
1 9 11 0
-1 5 12 0
-3 -10 12 0
-2 -3 -8 0
-3 -9 12 0
1 -2 10 0
-2 -11 -13 0
-4 11 13 0
1 6 -10 0
5 8 -12 0
4 7 10 0
8 10 -12 0
-2 -6 -9 0
-4 -7 -12 0
5 -10 -13 0
11 12 13 0
3 -7 8 0
-1 -2 3 0
8 9 12 0
5 -7 10 0
-1 2 -6 0
6 -8 -12 0
-4 6 -8 0
-5 10 11 0
2 -3 -6 0
5 -7 13 0
-3 -8 9 0
4 7 -10 0
10 -11 -13 0
-6 8 13 0
-8 9 11 0
-8 10 11 0
-4 -6 9 0
-1 4 -6 0
-5 8 10 0
1 -2 3 0
2 -6 9 0
2 8 -10 0
-1 2 5 0
-5 -6 13 0
-3 4 8 0
5 6 -11 0
4 -6 -11 0
2 12 -13 0
-1 2 -10 0
-2 -8 -11 0
-2 -6 8 0
-3 4 13 0
-2 -4 11 0
