c description: Random 3-CNF over 15 variables and 60 clauses
c generator: CNFgen (0.9.5)
c copyright: (C) 2012-2026 Massimo Lauria <massimo.lauria@uniroma1.it>
c url: https://massimolauria.net/cnfgen
c random seed: 31111
c command line: cnfgen -S 31111 -o cnfgen_regression_pack/cnfgen_cases/exact_random3cnf_v15_m60_s2.cnf randkcnf 3 15 60
c
c known_status: UNSAT
c pack_family: exact_small_randkcnf
c pack_level: easy
c pack_notes: status brute-forced during generation
p cnf 15 60
6 12 14 0
2 8 10 0
1 -2 13 0
-1 2 6 0
2 -3 9 0
6 8 9 0
-3 -6 -7 0
-2 6 -14 0
5 13 15 0
-8 9 -10 0
-10 13 -15 0
-2 -7 -15 0
-8 10 13 0
-3 -13 15 0
1 5 9 0
-11 -13 14 0
-1 -12 15 0
5 -11 12 0
2 -14 -15 0
2 9 -10 0
1 -9 14 0
1 -4 -13 0
-1 -4 11 0
-5 -7 9 0
-2 -7 -13 0
1 3 -5 0
-11 12 13 0
3 -13 -14 0
4 13 15 0
1 2 -5 0
5 -10 -14 0
-2 -5 11 0
3 -9 13 0
2 -6 -8 0
-8 -12 13 0
6 -9 15 0
1 -5 8 0
-3 7 -11 0
2 7 9 0
-5 -10 -11 0
-1 -3 12 0
-7 9 -12 0
5 8 13 0
-9 10 -14 0
3 -8 12 0
4 -6 14 0
3 -6 -15 0
2 5 10 0
-1 3 -13 0
4 5 7 0
6 -9 -15 0
1 -4 -8 0
-2 -4 12 0
-10 11 15 0
1 7 -14 0
3 -7 9 0
-2 3 7 0
2 9 10 0
-9 -11 -15 0
-3 -9 14 0
