c description: Random 3-CNF over 11 variables and 44 clauses
c generator: CNFgen (0.9.5)
c copyright: (C) 2012-2026 Massimo Lauria <massimo.lauria@uniroma1.it>
c url: https://massimolauria.net/cnfgen
c random seed: 31086
c command line: cnfgen -S 31086 -o cnfgen_regression_pack/cnfgen_cases/exact_random3cnf_v11_m44_s1.cnf randkcnf 3 11 44
c
c known_status: SAT
c pack_family: exact_small_randkcnf
c pack_level: easy
c pack_notes: status brute-forced during generation
p cnf 11 44
1 4 -5 0
1 -3 -8 0
-3 4 -9 0
-3 -6 9 0
-2 5 -6 0
2 -3 -8 0
-4 -6 -9 0
3 7 9 0
2 10 -11 0
-2 4 8 0
1 -6 8 0
-3 -8 9 0
-2 5 -10 0
-1 3 8 0
2 -6 -10 0
2 4 -6 0
-1 4 6 0
1 8 -9 0
3 -9 -11 0
-3 6 8 0
-7 -8 11 0
4 -7 9 0
-2 6 9 0
2 5 -10 0
7 -8 9 0
-3 7 8 0
2 8 11 0
1 -3 7 0
2 -4 9 0
-5 7 9 0
-7 10 11 0
3 4 -5 0
-1 -9 11 0
8 9 -11 0
8 -10 11 0
-3 -4 10 0
-2 -8 -9 0
1 3 4 0
-3 -9 11 0
-1 -9 10 0
-1 5 -9 0
5 8 -11 0
-1 -5 6 0
-1 4 -6 0
