c description: Random 3-CNF over 16 variables and 80 clauses
c generator: CNFgen (0.9.5)
c copyright: (C) 2012-2026 Massimo Lauria <massimo.lauria@uniroma1.it>
c url: https://massimolauria.net/cnfgen
c random seed: 31118
c command line: cnfgen -S 31118 -o cnfgen_regression_pack/cnfgen_cases/exact_random3cnf_v16_m80_s1.cnf randkcnf 3 16 80
c
c known_status: UNSAT
c pack_family: exact_small_randkcnf
c pack_level: easy
c pack_notes: status brute-forced during generation
p cnf 16 80
-4 6 9 0
-1 -2 11 0
5 -10 14 0
-2 -8 15 0
3 4 -14 0
-5 11 -16 0
1 5 12 0
6 7 -12 0
6 7 15 0
-10 -13 14 0
3 6 -16 0
2 -10 -13 0
8 -10 16 0
4 8 -14 0
-7 10 -12 0
4 5 -7 0
-2 -8 -13 0
-9 -11 13 0
-6 -8 -10 0
-3 5 -16 0
-2 -6 -12 0
-5 8 12 0
2 -12 -15 0
7 9 10 0
8 -9 16 0
-1 -2 9 0
-7 -13 16 0
4 -9 -13 0
5 7 -11 0
-4 5 12 0
2 3 13 0
1 6 13 0
7 8 -12 0
-8 10 11 0
-6 -8 -15 0
3 -8 -15 0
5 10 12 0
-4 7 12 0
-1 6 -12 0
-5 -7 -8 0
5 6 -8 0
3 -7 -16 0
4 8 -13 0
2 -6 10 0
5 -12 16 0
3 -5 8 0
-8 11 12 0
-5 -13 15 0
1 4 14 0
3 9 -12 0
2 7 16 0
-4 7 -14 0
8 -12 14 0
-2 10 -14 0
-2 7 16 0
-3 -9 11 0
6 7 -10 0
2 -4 7 0
8 -9 12 0
3 -12 13 0
-7 -10 15 0
-7 12 13 0
-3 -10 14 0
10 -12 -14 0
-6 8 -11 0
-1 -7 13 0
-1 -10 11 0
-5 -11 -15 0
-3 -5 16 0
-4 -13 14 0
4 -7 15 0
-1 -7 15 0
-5 8 -12 0
4 14 16 0
-3 7 -10 0
-2 13 16 0
-4 -8 9 0
2 4 15 0
-1 4 8 0
5 -8 -10 0
