c description: Random 3-CNF over 14 variables and 70 clauses
c generator: CNFgen (0.9.5)
c copyright: (C) 2012-2026 Massimo Lauria <massimo.lauria@uniroma1.it>
c url: https://massimolauria.net/cnfgen
c random seed: 31106
c command line: cnfgen -S 31106 -o cnfgen_regression_pack/cnfgen_cases/exact_random3cnf_v14_m70_s1.cnf randkcnf 3 14 70
c
c known_status: UNSAT
c pack_family: exact_small_randkcnf
c pack_level: easy
c pack_notes: status brute-forced during generation
p cnf 14 70
1 4 -9 0
4 11 -14 0
1 10 -14 0
2 9 11 0
-3 -7 12 0
-1 -3 -7 0
-2 5 -9 0
5 -10 -13 0
3 12 13 0
4 -11 -12 0
-1 -2 -8 0
-1 -13 -14 0
2 -8 -12 0
-7 11 13 0
2 8 -9 0
1 11 12 0
-1 -8 11 0
1 3 7 0
7 -8 10 0
-1 3 8 0
-5 -6 -10 0
1 -11 12 0
-5 6 -9 0
1 -9 10 0
-1 -3 -4 0
8 -9 -10 0
8 10 -11 0
3 -7 -12 0
1 12 13 0
2 8 14 0
1 -2 -8 0
7 8 -13 0
-1 7 -14 0
2 -6 -10 0
-3 -4 9 0
7 -9 -10 0
1 7 -8 0
2 8 9 0
-3 -9 14 0
4 -6 11 0
4 7 -9 0
-6 10 14 0
-4 -7 -13 0
2 3 -13 0
1 -2 -10 0
4 -9 -12 0
-1 -3 -14 0
-3 -4 -10 0
4 8 -11 0
-1 -11 -13 0
-6 -10 13 0
-3 7 -10 0
5 10 11 0
-1 2 3 0
-4 -7 12 0
-4 7 8 0
-5 -12 13 0
6 11 -13 0
2 11 14 0
6 -8 -13 0
-2 8 12 0
-2 7 -13 0
-3 -12 14 0
-2 9 12 0
1 -11 -13 0
5 7 -12 0
2 8 -12 0
-4 6 -9 0
6 -7 -12 0
-1 11 12 0
