c description: There is a graph of 5 vertices with a 5-clique and a 4-coloring
c generator: CNFgen (0.9.5)
c copyright: (C) 2012-2026 Massimo Lauria <massimo.lauria@uniroma1.it>
c url: https://massimolauria.net/cnfgen
c transformation 1: All polarities have been flipped
c random seed: 31229
c command line: cnfgen -S 31229 -o cnfgen_regression_pack/cnfgen_cases/flip_cliquecoloring_n5_k5_c4_unsat.cnf cliquecoloring 5 5 4 -T flip
c
c known_status: UNSAT
c pack_family: clique_coloring_transform
c pack_level: moderate
c pack_notes: satisfiability-preserving CNFgen transformation
p cnf 55 380
-11 -12 -13 -14 -15 0
-16 -17 -18 -19 -20 0
-21 -22 -23 -24 -25 0
-26 -27 -28 -29 -30 0
-31 -32 -33 -34 -35 0
11 12 0
11 13 0
11 14 0
11 15 0
12 13 0
12 14 0
12 15 0
13 14 0
13 15 0
14 15 0
16 17 0
16 18 0
16 19 0
16 20 0
17 18 0
17 19 0
17 20 0
18 19 0
18 20 0
19 20 0
21 22 0
21 23 0
21 24 0
21 25 0
22 23 0
22 24 0
22 25 0
23 24 0
23 25 0
24 25 0
26 27 0
26 28 0
26 29 0
26 30 0
27 28 0
27 29 0
27 30 0
28 29 0
28 30 0
29 30 0
31 32 0
31 33 0
31 34 0
31 35 0
32 33 0
32 34 0
32 35 0
33 34 0
33 35 0
34 35 0
11 16 0
11 21 0
11 26 0
11 31 0
16 21 0
16 26 0
16 31 0
21 26 0
21 31 0
26 31 0
12 17 0
12 22 0
12 27 0
12 32 0
17 22 0
17 27 0
17 32 0
22 27 0
22 32 0
27 32 0
13 18 0
13 23 0
13 28 0
13 33 0
18 23 0
18 28 0
18 33 0
23 28 0
23 33 0
28 33 0
14 19 0
14 24 0
14 29 0
14 34 0
19 24 0
19 29 0
19 34 0
24 29 0
24 34 0
29 34 0
15 20 0
15 25 0
15 30 0
15 35 0
20 25 0
20 30 0
20 35 0
25 30 0
25 35 0
30 35 0
-1 11 17 0
-1 12 16 0
-1 11 22 0
-1 12 21 0
-1 11 27 0
-1 12 26 0
-1 11 32 0
-1 12 31 0
-1 16 22 0
-1 17 21 0
-1 16 27 0
-1 17 26 0
-1 16 32 0
-1 17 31 0
-1 21 27 0
-1 22 26 0
-1 21 32 0
-1 22 31 0
-1 26 32 0
-1 27 31 0
-2 11 18 0
-2 13 16 0
-2 11 23 0
-2 13 21 0
-2 11 28 0
-2 13 26 0
-2 11 33 0
-2 13 31 0
-2 16 23 0
-2 18 21 0
-2 16 28 0
-2 18 26 0
-2 16 33 0
-2 18 31 0
-2 21 28 0
-2 23 26 0
-2 21 33 0
-2 23 31 0
-2 26 33 0
-2 28 31 0
-3 11 19 0
-3 14 16 0
-3 11 24 0
-3 14 21 0
-3 11 29 0
-3 14 26 0
-3 11 34 0
-3 14 31 0
-3 16 24 0
-3 19 21 0
-3 16 29 0
-3 19 26 0
-3 16 34 0
-3 19 31 0
-3 21 29 0
-3 24 26 0
-3 21 34 0
-3 24 31 0
-3 26 34 0
-3 29 31 0
-4 11 20 0
-4 15 16 0
-4 11 25 0
-4 15 21 0
-4 11 30 0
-4 15 26 0
-4 11 35 0
-4 15 31 0
-4 16 25 0
-4 20 21 0
-4 16 30 0
-4 20 26 0
-4 16 35 0
-4 20 31 0
-4 21 30 0
-4 25 26 0
-4 21 35 0
-4 25 31 0
-4 26 35 0
-4 30 31 0
-5 12 18 0
-5 13 17 0
-5 12 23 0
-5 13 22 0
-5 12 28 0
-5 13 27 0
-5 12 33 0
-5 13 32 0
-5 17 23 0
-5 18 22 0
-5 17 28 0
-5 18 27 0
-5 17 33 0
-5 18 32 0
-5 22 28 0
-5 23 27 0
-5 22 33 0
-5 23 32 0
-5 27 33 0
-5 28 32 0
-6 12 19 0
-6 14 17 0
-6 12 24 0
-6 14 22 0
-6 12 29 0
-6 14 27 0
-6 12 34 0
-6 14 32 0
-6 17 24 0
-6 19 22 0
-6 17 29 0
-6 19 27 0
-6 17 34 0
-6 19 32 0
-6 22 29 0
-6 24 27 0
-6 22 34 0
-6 24 32 0
-6 27 34 0
-6 29 32 0
-7 12 20 0
-7 15 17 0
-7 12 25 0
-7 15 22 0
-7 12 30 0
-7 15 27 0
-7 12 35 0
-7 15 32 0
-7 17 25 0
-7 20 22 0
-7 17 30 0
-7 20 27 0
-7 17 35 0
-7 20 32 0
-7 22 30 0
-7 25 27 0
-7 22 35 0
-7 25 32 0
-7 27 35 0
-7 30 32 0
-8 13 19 0
-8 14 18 0
-8 13 24 0
-8 14 23 0
-8 13 29 0
-8 14 28 0
-8 13 34 0
-8 14 33 0
-8 18 24 0
-8 19 23 0
-8 18 29 0
-8 19 28 0
-8 18 34 0
-8 19 33 0
-8 23 29 0
-8 24 28 0
-8 23 34 0
-8 24 33 0
-8 28 34 0
-8 29 33 0
-9 13 20 0
-9 15 18 0
-9 13 25 0
-9 15 23 0
-9 13 30 0
-9 15 28 0
-9 13 35 0
-9 15 33 0
-9 18 25 0
-9 20 23 0
-9 18 30 0
-9 20 28 0
-9 18 35 0
-9 20 33 0
-9 23 30 0
-9 25 28 0
-9 23 35 0
-9 25 33 0
-9 28 35 0
-9 30 33 0
-10 14 20 0
-10 15 19 0
-10 14 25 0
-10 15 24 0
-10 14 30 0
-10 15 29 0
-10 14 35 0
-10 15 34 0
-10 19 25 0
-10 20 24 0
-10 19 30 0
-10 20 29 0
-10 19 35 0
-10 20 34 0
-10 24 30 0
-10 25 29 0
-10 24 35 0
-10 25 34 0
-10 29 35 0
-10 30 34 0
-36 -37 -38 -39 0
-40 -41 -42 -43 0
-44 -45 -46 -47 0
-48 -49 -50 -51 0
-52 -53 -54 -55 0
36 37 0
36 38 0
36 39 0
37 38 0
37 39 0
38 39 0
40 41 0
40 42 0
40 43 0
41 42 0
41 43 0
42 43 0
44 45 0
44 46 0
44 47 0
45 46 0
45 47 0
46 47 0
48 49 0
48 50 0
48 51 0
49 50 0
49 51 0
50 51 0
52 53 0
52 54 0
52 55 0
53 54 0
53 55 0
54 55 0
1 36 40 0
1 37 41 0
1 38 42 0
1 39 43 0
2 36 44 0
2 37 45 0
2 38 46 0
2 39 47 0
3 36 48 0
3 37 49 0
3 38 50 0
3 39 51 0
4 36 52 0
4 37 53 0
4 38 54 0
4 39 55 0
5 40 44 0
5 41 45 0
5 42 46 0
5 43 47 0
6 40 48 0
6 41 49 0
6 42 50 0
6 43 51 0
7 40 52 0
7 41 53 0
7 42 54 0
7 43 55 0
8 44 48 0
8 45 49 0
8 46 50 0
8 47 51 0
9 44 52 0
9 45 53 0
9 46 54 0
9 47 55 0
10 48 52 0
10 49 53 0
10 50 54 0
10 51 55 0
