c description: Graph 2-Colorability of <cnfgen.graphs.Graph object at 0x7f964dab4050>
c generator: CNFgen (0.9.5)
c copyright: (C) 2012-2026 Massimo Lauria <massimo.lauria@uniroma1.it>
c url: https://massimolauria.net/cnfgen
c random seed: 31194
c command line: cnfgen -S 31194 -o cnfgen_regression_pack/cnfgen_cases/kcolor_k2_grid3x3_sat.cnf kcolor 2 grid 3 3
c
c known_status: SAT
c pack_family: graph_coloring
c pack_level: easy
c pack_notes: known graph-coloring instance
p cnf 18 42
1 2 0
3 4 0
5 6 0
7 8 0
9 10 0
11 12 0
13 14 0
15 16 0
17 18 0
-1 -2 0
-3 -4 0
-5 -6 0
-7 -8 0
-9 -10 0
-11 -12 0
-13 -14 0
-15 -16 0
-17 -18 0
-1 -3 0
-2 -4 0
-1 -7 0
-2 -8 0
-3 -5 0
-4 -6 0
-3 -9 0
-4 -10 0
-5 -11 0
-6 -12 0
-7 -9 0
-8 -10 0
-7 -13 0
-8 -14 0
-9 -11 0
-10 -12 0
-9 -15 0
-10 -16 0
-11 -17 0
-12 -18 0
-13 -15 0
-14 -16 0
-15 -17 0
-16 -18 0
