c description: Perfect Matching Principle on grid graph of dimension [4, 4]
c generator: CNFgen (0.9.5)
c copyright: (C) 2012-2026 Massimo Lauria <massimo.lauria@uniroma1.it>
c url: https://massimolauria.net/cnfgen
c random seed: 31202
c command line: cnfgen -S 31202 -o cnfgen_regression_pack/cnfgen_cases/matching_grid4x4_sat.cnf matching grid 4 4
c
c known_status: SAT
c pack_family: matching
c pack_level: easy
c pack_notes: perfect matching principle
p cnf 24 68
-1 -2 0
1 2 0
-1 -3 0
-1 -4 0
-3 -4 0
1 3 4 0
-3 -5 0
-3 -6 0
-5 -6 0
3 5 6 0
-5 -7 0
5 7 0
-2 -8 0
-2 -9 0
-8 -9 0
2 8 9 0
-4 -8 0
-4 -10 0
-4 -11 0
-8 -10 0
-8 -11 0
-10 -11 0
4 8 10 11 0
-6 -10 0
-6 -12 0
-6 -13 0
-10 -12 0
-10 -13 0
-12 -13 0
6 10 12 13 0
-7 -12 0
-7 -14 0
-12 -14 0
7 12 14 0
-9 -15 0
-9 -16 0
-15 -16 0
9 15 16 0
-11 -15 0
-11 -17 0
-11 -18 0
-15 -17 0
-15 -18 0
-17 -18 0
11 15 17 18 0
-13 -17 0
-13 -19 0
-13 -20 0
-17 -19 0
-17 -20 0
-19 -20 0
13 17 19 20 0
-14 -19 0
-14 -21 0
-19 -21 0
14 19 21 0
-16 -22 0
16 22 0
-18 -22 0
-18 -23 0
-22 -23 0
18 22 23 0
-20 -23 0
-20 -24 0
-23 -24 0
20 23 24 0
-21 -24 0
21 24 0
