c description: Counting Principle: 12 divided in parts of size 2.
c generator: CNFgen (0.9.5)
c copyright: (C) 2012-2026 Massimo Lauria <massimo.lauria@uniroma1.it>
c url: https://massimolauria.net/cnfgen
c random seed: 31006
c command line: cnfgen -S 31006 -o cnfgen_regression_pack/cnfgen_cases/parity_n12_sat.cnf parity 12
c
c known_status: SAT
c pack_family: parity
c pack_level: easy
c pack_notes: parity principle
p cnf 66 672
-1 -2 0
-1 -3 0
-1 -4 0
-1 -5 0
-1 -6 0
-1 -7 0
-1 -8 0
-1 -9 0
-1 -10 0
-1 -11 0
-2 -3 0
-2 -4 0
-2 -5 0
-2 -6 0
-2 -7 0
-2 -8 0
-2 -9 0
-2 -10 0
-2 -11 0
-3 -4 0
-3 -5 0
-3 -6 0
-3 -7 0
-3 -8 0
-3 -9 0
-3 -10 0
-3 -11 0
-4 -5 0
-4 -6 0
-4 -7 0
-4 -8 0
-4 -9 0
-4 -10 0
-4 -11 0
-5 -6 0
-5 -7 0
-5 -8 0
-5 -9 0
-5 -10 0
-5 -11 0
-6 -7 0
-6 -8 0
-6 -9 0
-6 -10 0
-6 -11 0
-7 -8 0
-7 -9 0
-7 -10 0
-7 -11 0
-8 -9 0
-8 -10 0
-8 -11 0
-9 -10 0
-9 -11 0
-10 -11 0
1 2 3 4 5 6 7 8 9 10 11 0
-1 -12 0
-1 -13 0
-1 -14 0
-1 -15 0
-1 -16 0
-1 -17 0
-1 -18 0
-1 -19 0
-1 -20 0
-1 -21 0
-12 -13 0
-12 -14 0
-12 -15 0
-12 -16 0
-12 -17 0
-12 -18 0
-12 -19 0
-12 -20 0
-12 -21 0
-13 -14 0
-13 -15 0
-13 -16 0
-13 -17 0
-13 -18 0
-13 -19 0
-13 -20 0
-13 -21 0
-14 -15 0
-14 -16 0
-14 -17 0
-14 -18 0
-14 -19 0
-14 -20 0
-14 -21 0
-15 -16 0
-15 -17 0
-15 -18 0
-15 -19 0
-15 -20 0
-15 -21 0
-16 -17 0
-16 -18 0
-16 -19 0
-16 -20 0
-16 -21 0
-17 -18 0
-17 -19 0
-17 -20 0
-17 -21 0
-18 -19 0
-18 -20 0
-18 -21 0
-19 -20 0
-19 -21 0
-20 -21 0
1 12 13 14 15 16 17 18 19 20 21 0
-2 -12 0
-2 -22 0
-2 -23 0
-2 -24 0
-2 -25 0
-2 -26 0
-2 -27 0
-2 -28 0
-2 -29 0
-2 -30 0
-12 -22 0
-12 -23 0
-12 -24 0
-12 -25 0
-12 -26 0
-12 -27 0
-12 -28 0
-12 -29 0
-12 -30 0
-22 -23 0
-22 -24 0
-22 -25 0
-22 -26 0
-22 -27 0
-22 -28 0
-22 -29 0
-22 -30 0
-23 -24 0
-23 -25 0
-23 -26 0
-23 -27 0
-23 -28 0
-23 -29 0
-23 -30 0
-24 -25 0
-24 -26 0
-24 -27 0
-24 -28 0
-24 -29 0
-24 -30 0
-25 -26 0
-25 -27 0
-25 -28 0
-25 -29 0
-25 -30 0
-26 -27 0
-26 -28 0
-26 -29 0
-26 -30 0
-27 -28 0
-27 -29 0
-27 -30 0
-28 -29 0
-28 -30 0
-29 -30 0
2 12 22 23 24 25 26 27 28 29 30 0
-3 -13 0
-3 -22 0
-3 -31 0
-3 -32 0
-3 -33 0
-3 -34 0
-3 -35 0
-3 -36 0
-3 -37 0
-3 -38 0
-13 -22 0
-13 -31 0
-13 -32 0
-13 -33 0
-13 -34 0
-13 -35 0
-13 -36 0
-13 -37 0
-13 -38 0
-22 -31 0
-22 -32 0
-22 -33 0
-22 -34 0
-22 -35 0
-22 -36 0
-22 -37 0
-22 -38 0
-31 -32 0
-31 -33 0
-31 -34 0
-31 -35 0
-31 -36 0
-31 -37 0
-31 -38 0
-32 -33 0
-32 -34 0
-32 -35 0
-32 -36 0
-32 -37 0
-32 -38 0
-33 -34 0
-33 -35 0
-33 -36 0
-33 -37 0
-33 -38 0
-34 -35 0
-34 -36 0
-34 -37 0
-34 -38 0
-35 -36 0
-35 -37 0
-35 -38 0
-36 -37 0
-36 -38 0
-37 -38 0
3 13 22 31 32 33 34 35 36 37 38 0
-4 -14 0
-4 -23 0
-4 -31 0
-4 -39 0
-4 -40 0
-4 -41 0
-4 -42 0
-4 -43 0
-4 -44 0
-4 -45 0
-14 -23 0
-14 -31 0
-14 -39 0
-14 -40 0
-14 -41 0
-14 -42 0
-14 -43 0
-14 -44 0
-14 -45 0
-23 -31 0
-23 -39 0
-23 -40 0
-23 -41 0
-23 -42 0
-23 -43 0
-23 -44 0
-23 -45 0
-31 -39 0
-31 -40 0
-31 -41 0
-31 -42 0
-31 -43 0
-31 -44 0
-31 -45 0
-39 -40 0
-39 -41 0
-39 -42 0
-39 -43 0
-39 -44 0
-39 -45 0
-40 -41 0
-40 -42 0
-40 -43 0
-40 -44 0
-40 -45 0
-41 -42 0
-41 -43 0
-41 -44 0
-41 -45 0
-42 -43 0
-42 -44 0
-42 -45 0
-43 -44 0
-43 -45 0
-44 -45 0
4 14 23 31 39 40 41 42 43 44 45 0
-5 -15 0
-5 -24 0
-5 -32 0
-5 -39 0
-5 -46 0
-5 -47 0
-5 -48 0
-5 -49 0
-5 -50 0
-5 -51 0
-15 -24 0
-15 -32 0
-15 -39 0
-15 -46 0
-15 -47 0
-15 -48 0
-15 -49 0
-15 -50 0
-15 -51 0
-24 -32 0
-24 -39 0
-24 -46 0
-24 -47 0
-24 -48 0
-24 -49 0
-24 -50 0
-24 -51 0
-32 -39 0
-32 -46 0
-32 -47 0
-32 -48 0
-32 -49 0
-32 -50 0
-32 -51 0
-39 -46 0
-39 -47 0
-39 -48 0
-39 -49 0
-39 -50 0
-39 -51 0
-46 -47 0
-46 -48 0
-46 -49 0
-46 -50 0
-46 -51 0
-47 -48 0
-47 -49 0
-47 -50 0
-47 -51 0
-48 -49 0
-48 -50 0
-48 -51 0
-49 -50 0
-49 -51 0
-50 -51 0
5 15 24 32 39 46 47 48 49 50 51 0
-6 -16 0
-6 -25 0
-6 -33 0
-6 -40 0
-6 -46 0
-6 -52 0
-6 -53 0
-6 -54 0
-6 -55 0
-6 -56 0
-16 -25 0
-16 -33 0
-16 -40 0
-16 -46 0
-16 -52 0
-16 -53 0
-16 -54 0
-16 -55 0
-16 -56 0
-25 -33 0
-25 -40 0
-25 -46 0
-25 -52 0
-25 -53 0
-25 -54 0
-25 -55 0
-25 -56 0
-33 -40 0
-33 -46 0
-33 -52 0
-33 -53 0
-33 -54 0
-33 -55 0
-33 -56 0
-40 -46 0
-40 -52 0
-40 -53 0
-40 -54 0
-40 -55 0
-40 -56 0
-46 -52 0
-46 -53 0
-46 -54 0
-46 -55 0
-46 -56 0
-52 -53 0
-52 -54 0
-52 -55 0
-52 -56 0
-53 -54 0
-53 -55 0
-53 -56 0
-54 -55 0
-54 -56 0
-55 -56 0
6 16 25 33 40 46 52 53 54 55 56 0
-7 -17 0
-7 -26 0
-7 -34 0
-7 -41 0
-7 -47 0
-7 -52 0
-7 -57 0
-7 -58 0
-7 -59 0
-7 -60 0
-17 -26 0
-17 -34 0
-17 -41 0
-17 -47 0
-17 -52 0
-17 -57 0
-17 -58 0
-17 -59 0
-17 -60 0
-26 -34 0
-26 -41 0
-26 -47 0
-26 -52 0
-26 -57 0
-26 -58 0
-26 -59 0
-26 -60 0
-34 -41 0
-34 -47 0
-34 -52 0
-34 -57 0
-34 -58 0
-34 -59 0
-34 -60 0
-41 -47 0
-41 -52 0
-41 -57 0
-41 -58 0
-41 -59 0
-41 -60 0
-47 -52 0
-47 -57 0
-47 -58 0
-47 -59 0
-47 -60 0
-52 -57 0
-52 -58 0
-52 -59 0
-52 -60 0
-57 -58 0
-57 -59 0
-57 -60 0
-58 -59 0
-58 -60 0
-59 -60 0
7 17 26 34 41 47 52 57 58 59 60 0
-8 -18 0
-8 -27 0
-8 -35 0
-8 -42 0
-8 -48 0
-8 -53 0
-8 -57 0
-8 -61 0
-8 -62 0
-8 -63 0
-18 -27 0
-18 -35 0
-18 -42 0
-18 -48 0
-18 -53 0
-18 -57 0
-18 -61 0
-18 -62 0
-18 -63 0
-27 -35 0
-27 -42 0
-27 -48 0
-27 -53 0
-27 -57 0
-27 -61 0
-27 -62 0
-27 -63 0
-35 -42 0
-35 -48 0
-35 -53 0
-35 -57 0
-35 -61 0
-35 -62 0
-35 -63 0
-42 -48 0
-42 -53 0
-42 -57 0
-42 -61 0
-42 -62 0
-42 -63 0
-48 -53 0
-48 -57 0
-48 -61 0
-48 -62 0
-48 -63 0
-53 -57 0
-53 -61 0
-53 -62 0
-53 -63 0
-57 -61 0
-57 -62 0
-57 -63 0
-61 -62 0
-61 -63 0
-62 -63 0
8 18 27 35 42 48 53 57 61 62 63 0
-9 -19 0
-9 -28 0
-9 -36 0
-9 -43 0
-9 -49 0
-9 -54 0
-9 -58 0
-9 -61 0
-9 -64 0
-9 -65 0
-19 -28 0
-19 -36 0
-19 -43 0
-19 -49 0
-19 -54 0
-19 -58 0
-19 -61 0
-19 -64 0
-19 -65 0
-28 -36 0
-28 -43 0
-28 -49 0
-28 -54 0
-28 -58 0
-28 -61 0
-28 -64 0
-28 -65 0
-36 -43 0
-36 -49 0
-36 -54 0
-36 -58 0
-36 -61 0
-36 -64 0
-36 -65 0
-43 -49 0
-43 -54 0
-43 -58 0
-43 -61 0
-43 -64 0
-43 -65 0
-49 -54 0
-49 -58 0
-49 -61 0
-49 -64 0
-49 -65 0
-54 -58 0
-54 -61 0
-54 -64 0
-54 -65 0
-58 -61 0
-58 -64 0
-58 -65 0
-61 -64 0
-61 -65 0
-64 -65 0
9 19 28 36 43 49 54 58 61 64 65 0
-10 -20 0
-10 -29 0
-10 -37 0
-10 -44 0
-10 -50 0
-10 -55 0
-10 -59 0
-10 -62 0
-10 -64 0
-10 -66 0
-20 -29 0
-20 -37 0
-20 -44 0
-20 -50 0
-20 -55 0
-20 -59 0
-20 -62 0
-20 -64 0
-20 -66 0
-29 -37 0
-29 -44 0
-29 -50 0
-29 -55 0
-29 -59 0
-29 -62 0
-29 -64 0
-29 -66 0
-37 -44 0
-37 -50 0
-37 -55 0
-37 -59 0
-37 -62 0
-37 -64 0
-37 -66 0
-44 -50 0
-44 -55 0
-44 -59 0
-44 -62 0
-44 -64 0
-44 -66 0
-50 -55 0
-50 -59 0
-50 -62 0
-50 -64 0
-50 -66 0
-55 -59 0
-55 -62 0
-55 -64 0
-55 -66 0
-59 -62 0
-59 -64 0
-59 -66 0
-62 -64 0
-62 -66 0
-64 -66 0
10 20 29 37 44 50 55 59 62 64 66 0
-11 -21 0
-11 -30 0
-11 -38 0
-11 -45 0
-11 -51 0
-11 -56 0
-11 -60 0
-11 -63 0
-11 -65 0
-11 -66 0
-21 -30 0
-21 -38 0
-21 -45 0
-21 -51 0
-21 -56 0
-21 -60 0
-21 -63 0
-21 -65 0
-21 -66 0
-30 -38 0
-30 -45 0
-30 -51 0
-30 -56 0
-30 -60 0
-30 -63 0
-30 -65 0
-30 -66 0
-38 -45 0
-38 -51 0
-38 -56 0
-38 -60 0
-38 -63 0
-38 -65 0
-38 -66 0
-45 -51 0
-45 -56 0
-45 -60 0
-45 -63 0
-45 -65 0
-45 -66 0
-51 -56 0
-51 -60 0
-51 -63 0
-51 -65 0
-51 -66 0
-56 -60 0
-56 -63 0
-56 -65 0
-56 -66 0
-60 -63 0
-60 -65 0
-60 -66 0
-63 -65 0
-63 -66 0
-65 -66 0
11 21 30 38 45 51 56 60 63 65 66 0
