c description: Counting Principle: 16 divided in parts of size 2.
c generator: CNFgen (0.9.5)
c copyright: (C) 2012-2026 Massimo Lauria <massimo.lauria@uniroma1.it>
c url: https://massimolauria.net/cnfgen
c random seed: 31008
c command line: cnfgen -S 31008 -o cnfgen_regression_pack/cnfgen_cases/parity_n16_sat.cnf parity 16
c
c known_status: SAT
c pack_family: parity
c pack_level: easy
c pack_notes: parity principle
p cnf 120 1696
-1 -2 0
-1 -3 0
-1 -4 0
-1 -5 0
-1 -6 0
-1 -7 0
-1 -8 0
-1 -9 0
-1 -10 0
-1 -11 0
-1 -12 0
-1 -13 0
-1 -14 0
-1 -15 0
-2 -3 0
-2 -4 0
-2 -5 0
-2 -6 0
-2 -7 0
-2 -8 0
-2 -9 0
-2 -10 0
-2 -11 0
-2 -12 0
-2 -13 0
-2 -14 0
-2 -15 0
-3 -4 0
-3 -5 0
-3 -6 0
-3 -7 0
-3 -8 0
-3 -9 0
-3 -10 0
-3 -11 0
-3 -12 0
-3 -13 0
-3 -14 0
-3 -15 0
-4 -5 0
-4 -6 0
-4 -7 0
-4 -8 0
-4 -9 0
-4 -10 0
-4 -11 0
-4 -12 0
-4 -13 0
-4 -14 0
-4 -15 0
-5 -6 0
-5 -7 0
-5 -8 0
-5 -9 0
-5 -10 0
-5 -11 0
-5 -12 0
-5 -13 0
-5 -14 0
-5 -15 0
-6 -7 0
-6 -8 0
-6 -9 0
-6 -10 0
-6 -11 0
-6 -12 0
-6 -13 0
-6 -14 0
-6 -15 0
-7 -8 0
-7 -9 0
-7 -10 0
-7 -11 0
-7 -12 0
-7 -13 0
-7 -14 0
-7 -15 0
-8 -9 0
-8 -10 0
-8 -11 0
-8 -12 0
-8 -13 0
-8 -14 0
-8 -15 0
-9 -10 0
-9 -11 0
-9 -12 0
-9 -13 0
-9 -14 0
-9 -15 0
-10 -11 0
-10 -12 0
-10 -13 0
-10 -14 0
-10 -15 0
-11 -12 0
-11 -13 0
-11 -14 0
-11 -15 0
-12 -13 0
-12 -14 0
-12 -15 0
-13 -14 0
-13 -15 0
-14 -15 0
1 2 3 4 5 6 7 8 9 10 11 12 13 14 15 0
-1 -16 0
-1 -17 0
-1 -18 0
-1 -19 0
-1 -20 0
-1 -21 0
-1 -22 0
-1 -23 0
-1 -24 0
-1 -25 0
-1 -26 0
-1 -27 0
-1 -28 0
-1 -29 0
-16 -17 0
-16 -18 0
-16 -19 0
-16 -20 0
-16 -21 0
-16 -22 0
-16 -23 0
-16 -24 0
-16 -25 0
-16 -26 0
-16 -27 0
-16 -28 0
-16 -29 0
-17 -18 0
-17 -19 0
-17 -20 0
-17 -21 0
-17 -22 0
-17 -23 0
-17 -24 0
-17 -25 0
-17 -26 0
-17 -27 0
-17 -28 0
-17 -29 0
-18 -19 0
-18 -20 0
-18 -21 0
-18 -22 0
-18 -23 0
-18 -24 0
-18 -25 0
-18 -26 0
-18 -27 0
-18 -28 0
-18 -29 0
-19 -20 0
-19 -21 0
-19 -22 0
-19 -23 0
-19 -24 0
-19 -25 0
-19 -26 0
-19 -27 0
-19 -28 0
-19 -29 0
-20 -21 0
-20 -22 0
-20 -23 0
-20 -24 0
-20 -25 0
-20 -26 0
-20 -27 0
-20 -28 0
-20 -29 0
-21 -22 0
-21 -23 0
-21 -24 0
-21 -25 0
-21 -26 0
-21 -27 0
-21 -28 0
-21 -29 0
-22 -23 0
-22 -24 0
-22 -25 0
-22 -26 0
-22 -27 0
-22 -28 0
-22 -29 0
-23 -24 0
-23 -25 0
-23 -26 0
-23 -27 0
-23 -28 0
-23 -29 0
-24 -25 0
-24 -26 0
-24 -27 0
-24 -28 0
-24 -29 0
-25 -26 0
-25 -27 0
-25 -28 0
-25 -29 0
-26 -27 0
-26 -28 0
-26 -29 0
-27 -28 0
-27 -29 0
-28 -29 0
1 16 17 18 19 20 21 22 23 24 25 26 27 28 29 0
-2 -16 0
-2 -30 0
-2 -31 0
-2 -32 0
-2 -33 0
-2 -34 0
-2 -35 0
-2 -36 0
-2 -37 0
-2 -38 0
-2 -39 0
-2 -40 0
-2 -41 0
-2 -42 0
-16 -30 0
-16 -31 0
-16 -32 0
-16 -33 0
-16 -34 0
-16 -35 0
-16 -36 0
-16 -37 0
-16 -38 0
-16 -39 0
-16 -40 0
-16 -41 0
-16 -42 0
-30 -31 0
-30 -32 0
-30 -33 0
-30 -34 0
-30 -35 0
-30 -36 0
-30 -37 0
-30 -38 0
-30 -39 0
-30 -40 0
-30 -41 0
-30 -42 0
-31 -32 0
-31 -33 0
-31 -34 0
-31 -35 0
-31 -36 0
-31 -37 0
-31 -38 0
-31 -39 0
-31 -40 0
-31 -41 0
-31 -42 0
-32 -33 0
-32 -34 0
-32 -35 0
-32 -36 0
-32 -37 0
-32 -38 0
-32 -39 0
-32 -40 0
-32 -41 0
-32 -42 0
-33 -34 0
-33 -35 0
-33 -36 0
-33 -37 0
-33 -38 0
-33 -39 0
-33 -40 0
-33 -41 0
-33 -42 0
-34 -35 0
-34 -36 0
-34 -37 0
-34 -38 0
-34 -39 0
-34 -40 0
-34 -41 0
-34 -42 0
-35 -36 0
-35 -37 0
-35 -38 0
-35 -39 0
-35 -40 0
-35 -41 0
-35 -42 0
-36 -37 0
-36 -38 0
-36 -39 0
-36 -40 0
-36 -41 0
-36 -42 0
-37 -38 0
-37 -39 0
-37 -40 0
-37 -41 0
-37 -42 0
-38 -39 0
-38 -40 0
-38 -41 0
-38 -42 0
-39 -40 0
-39 -41 0
-39 -42 0
-40 -41 0
-40 -42 0
-41 -42 0
2 16 30 31 32 33 34 35 36 37 38 39 40 41 42 0
-3 -17 0
-3 -30 0
-3 -43 0
-3 -44 0
-3 -45 0
-3 -46 0
-3 -47 0
-3 -48 0
-3 -49 0
-3 -50 0
-3 -51 0
-3 -52 0
-3 -53 0
-3 -54 0
-17 -30 0
-17 -43 0
-17 -44 0
-17 -45 0
-17 -46 0
-17 -47 0
-17 -48 0
-17 -49 0
-17 -50 0
-17 -51 0
-17 -52 0
-17 -53 0
-17 -54 0
-30 -43 0
-30 -44 0
-30 -45 0
-30 -46 0
-30 -47 0
-30 -48 0
-30 -49 0
-30 -50 0
-30 -51 0
-30 -52 0
-30 -53 0
-30 -54 0
-43 -44 0
-43 -45 0
-43 -46 0
-43 -47 0
-43 -48 0
-43 -49 0
-43 -50 0
-43 -51 0
-43 -52 0
-43 -53 0
-43 -54 0
-44 -45 0
-44 -46 0
-44 -47 0
-44 -48 0
-44 -49 0
-44 -50 0
-44 -51 0
-44 -52 0
-44 -53 0
-44 -54 0
-45 -46 0
-45 -47 0
-45 -48 0
-45 -49 0
-45 -50 0
-45 -51 0
-45 -52 0
-45 -53 0
-45 -54 0
-46 -47 0
-46 -48 0
-46 -49 0
-46 -50 0
-46 -51 0
-46 -52 0
-46 -53 0
-46 -54 0
-47 -48 0
-47 -49 0
-47 -50 0
-47 -51 0
-47 -52 0
-47 -53 0
-47 -54 0
-48 -49 0
-48 -50 0
-48 -51 0
-48 -52 0
-48 -53 0
-48 -54 0
-49 -50 0
-49 -51 0
-49 -52 0
-49 -53 0
-49 -54 0
-50 -51 0
-50 -52 0
-50 -53 0
-50 -54 0
-51 -52 0
-51 -53 0
-51 -54 0
-52 -53 0
-52 -54 0
-53 -54 0
3 17 30 43 44 45 46 47 48 49 50 51 52 53 54 0
-4 -18 0
-4 -31 0
-4 -43 0
-4 -55 0
-4 -56 0
-4 -57 0
-4 -58 0
-4 -59 0
-4 -60 0
-4 -61 0
-4 -62 0
-4 -63 0
-4 -64 0
-4 -65 0
-18 -31 0
-18 -43 0
-18 -55 0
-18 -56 0
-18 -57 0
-18 -58 0
-18 -59 0
-18 -60 0
-18 -61 0
-18 -62 0
-18 -63 0
-18 -64 0
-18 -65 0
-31 -43 0
-31 -55 0
-31 -56 0
-31 -57 0
-31 -58 0
-31 -59 0
-31 -60 0
-31 -61 0
-31 -62 0
-31 -63 0
-31 -64 0
-31 -65 0
-43 -55 0
-43 -56 0
-43 -57 0
-43 -58 0
-43 -59 0
-43 -60 0
-43 -61 0
-43 -62 0
-43 -63 0
-43 -64 0
-43 -65 0
-55 -56 0
-55 -57 0
-55 -58 0
-55 -59 0
-55 -60 0
-55 -61 0
-55 -62 0
-55 -63 0
-55 -64 0
-55 -65 0
-56 -57 0
-56 -58 0
-56 -59 0
-56 -60 0
-56 -61 0
-56 -62 0
-56 -63 0
-56 -64 0
-56 -65 0
-57 -58 0
-57 -59 0
-57 -60 0
-57 -61 0
-57 -62 0
-57 -63 0
-57 -64 0
-57 -65 0
-58 -59 0
-58 -60 0
-58 -61 0
-58 -62 0
-58 -63 0
-58 -64 0
-58 -65 0
-59 -60 0
-59 -61 0
-59 -62 0
-59 -63 0
-59 -64 0
-59 -65 0
-60 -61 0
-60 -62 0
-60 -63 0
-60 -64 0
-60 -65 0
-61 -62 0
-61 -63 0
-61 -64 0
-61 -65 0
-62 -63 0
-62 -64 0
-62 -65 0
-63 -64 0
-63 -65 0
-64 -65 0
4 18 31 43 55 56 57 58 59 60 61 62 63 64 65 0
-5 -19 0
-5 -32 0
-5 -44 0
-5 -55 0
-5 -66 0
-5 -67 0
-5 -68 0
-5 -69 0
-5 -70 0
-5 -71 0
-5 -72 0
-5 -73 0
-5 -74 0
-5 -75 0
-19 -32 0
-19 -44 0
-19 -55 0
-19 -66 0
-19 -67 0
-19 -68 0
-19 -69 0
-19 -70 0
-19 -71 0
-19 -72 0
-19 -73 0
-19 -74 0
-19 -75 0
-32 -44 0
-32 -55 0
-32 -66 0
-32 -67 0
-32 -68 0
-32 -69 0
-32 -70 0
-32 -71 0
-32 -72 0
-32 -73 0
-32 -74 0
-32 -75 0
-44 -55 0
-44 -66 0
-44 -67 0
-44 -68 0
-44 -69 0
-44 -70 0
-44 -71 0
-44 -72 0
-44 -73 0
-44 -74 0
-44 -75 0
-55 -66 0
-55 -67 0
-55 -68 0
-55 -69 0
-55 -70 0
-55 -71 0
-55 -72 0
-55 -73 0
-55 -74 0
-55 -75 0
-66 -67 0
-66 -68 0
-66 -69 0
-66 -70 0
-66 -71 0
-66 -72 0
-66 -73 0
-66 -74 0
-66 -75 0
-67 -68 0
-67 -69 0
-67 -70 0
-67 -71 0
-67 -72 0
-67 -73 0
-67 -74 0
-67 -75 0
-68 -69 0
-68 -70 0
-68 -71 0
-68 -72 0
-68 -73 0
-68 -74 0
-68 -75 0
-69 -70 0
-69 -71 0
-69 -72 0
-69 -73 0
-69 -74 0
-69 -75 0
-70 -71 0
-70 -72 0
-70 -73 0
-70 -74 0
-70 -75 0
-71 -72 0
-71 -73 0
-71 -74 0
-71 -75 0
-72 -73 0
-72 -74 0
-72 -75 0
-73 -74 0
-73 -75 0
-74 -75 0
5 19 32 44 55 66 67 68 69 70 71 72 73 74 75 0
-6 -20 0
-6 -33 0
-6 -45 0
-6 -56 0
-6 -66 0
-6 -76 0
-6 -77 0
-6 -78 0
-6 -79 0
-6 -80 0
-6 -81 0
-6 -82 0
-6 -83 0
-6 -84 0
-20 -33 0
-20 -45 0
-20 -56 0
-20 -66 0
-20 -76 0
-20 -77 0
-20 -78 0
-20 -79 0
-20 -80 0
-20 -81 0
-20 -82 0
-20 -83 0
-20 -84 0
-33 -45 0
-33 -56 0
-33 -66 0
-33 -76 0
-33 -77 0
-33 -78 0
-33 -79 0
-33 -80 0
-33 -81 0
-33 -82 0
-33 -83 0
-33 -84 0
-45 -56 0
-45 -66 0
-45 -76 0
-45 -77 0
-45 -78 0
-45 -79 0
-45 -80 0
-45 -81 0
-45 -82 0
-45 -83 0
-45 -84 0
-56 -66 0
-56 -76 0
-56 -77 0
-56 -78 0
-56 -79 0
-56 -80 0
-56 -81 0
-56 -82 0
-56 -83 0
-56 -84 0
-66 -76 0
-66 -77 0
-66 -78 0
-66 -79 0
-66 -80 0
-66 -81 0
-66 -82 0
-66 -83 0
-66 -84 0
-76 -77 0
-76 -78 0
-76 -79 0
-76 -80 0
-76 -81 0
-76 -82 0
-76 -83 0
-76 -84 0
-77 -78 0
-77 -79 0
-77 -80 0
-77 -81 0
-77 -82 0
-77 -83 0
-77 -84 0
-78 -79 0
-78 -80 0
-78 -81 0
-78 -82 0
-78 -83 0
-78 -84 0
-79 -80 0
-79 -81 0
-79 -82 0
-79 -83 0
-79 -84 0
-80 -81 0
-80 -82 0
-80 -83 0
-80 -84 0
-81 -82 0
-81 -83 0
-81 -84 0
-82 -83 0
-82 -84 0
-83 -84 0
6 20 33 45 56 66 76 77 78 79 80 81 82 83 84 0
-7 -21 0
-7 -34 0
-7 -46 0
-7 -57 0
-7 -67 0
-7 -76 0
-7 -85 0
-7 -86 0
-7 -87 0
-7 -88 0
-7 -89 0
-7 -90 0
-7 -91 0
-7 -92 0
-21 -34 0
-21 -46 0
-21 -57 0
-21 -67 0
-21 -76 0
-21 -85 0
-21 -86 0
-21 -87 0
-21 -88 0
-21 -89 0
-21 -90 0
-21 -91 0
-21 -92 0
-34 -46 0
-34 -57 0
-34 -67 0
-34 -76 0
-34 -85 0
-34 -86 0
-34 -87 0
-34 -88 0
-34 -89 0
-34 -90 0
-34 -91 0
-34 -92 0
-46 -57 0
-46 -67 0
-46 -76 0
-46 -85 0
-46 -86 0
-46 -87 0
-46 -88 0
-46 -89 0
-46 -90 0
-46 -91 0
-46 -92 0
-57 -67 0
-57 -76 0
-57 -85 0
-57 -86 0
-57 -87 0
-57 -88 0
-57 -89 0
-57 -90 0
-57 -91 0
-57 -92 0
-67 -76 0
-67 -85 0
-67 -86 0
-67 -87 0
-67 -88 0
-67 -89 0
-67 -90 0
-67 -91 0
-67 -92 0
-76 -85 0
-76 -86 0
-76 -87 0
-76 -88 0
-76 -89 0
-76 -90 0
-76 -91 0
-76 -92 0
-85 -86 0
-85 -87 0
-85 -88 0
-85 -89 0
-85 -90 0
-85 -91 0
-85 -92 0
-86 -87 0
-86 -88 0
-86 -89 0
-86 -90 0
-86 -91 0
-86 -92 0
-87 -88 0
-87 -89 0
-87 -90 0
-87 -91 0
-87 -92 0
-88 -89 0
-88 -90 0
-88 -91 0
-88 -92 0
-89 -90 0
-89 -91 0
-89 -92 0
-90 -91 0
-90 -92 0
-91 -92 0
7 21 34 46 57 67 76 85 86 87 88 89 90 91 92 0
-8 -22 0
-8 -35 0
-8 -47 0
-8 -58 0
-8 -68 0
-8 -77 0
-8 -85 0
-8 -93 0
-8 -94 0
-8 -95 0
-8 -96 0
-8 -97 0
-8 -98 0
-8 -99 0
-22 -35 0
-22 -47 0
-22 -58 0
-22 -68 0
-22 -77 0
-22 -85 0
-22 -93 0
-22 -94 0
-22 -95 0
-22 -96 0
-22 -97 0
-22 -98 0
-22 -99 0
-35 -47 0
-35 -58 0
-35 -68 0
-35 -77 0
-35 -85 0
-35 -93 0
-35 -94 0
-35 -95 0
-35 -96 0
-35 -97 0
-35 -98 0
-35 -99 0
-47 -58 0
-47 -68 0
-47 -77 0
-47 -85 0
-47 -93 0
-47 -94 0
-47 -95 0
-47 -96 0
-47 -97 0
-47 -98 0
-47 -99 0
-58 -68 0
-58 -77 0
-58 -85 0
-58 -93 0
-58 -94 0
-58 -95 0
-58 -96 0
-58 -97 0
-58 -98 0
-58 -99 0
-68 -77 0
-68 -85 0
-68 -93 0
-68 -94 0
-68 -95 0
-68 -96 0
-68 -97 0
-68 -98 0
-68 -99 0
-77 -85 0
-77 -93 0
-77 -94 0
-77 -95 0
-77 -96 0
-77 -97 0
-77 -98 0
-77 -99 0
-85 -93 0
-85 -94 0
-85 -95 0
-85 -96 0
-85 -97 0
-85 -98 0
-85 -99 0
-93 -94 0
-93 -95 0
-93 -96 0
-93 -97 0
-93 -98 0
-93 -99 0
-94 -95 0
-94 -96 0
-94 -97 0
-94 -98 0
-94 -99 0
-95 -96 0
-95 -97 0
-95 -98 0
-95 -99 0
-96 -97 0
-96 -98 0
-96 -99 0
-97 -98 0
-97 -99 0
-98 -99 0
8 22 35 47 58 68 77 85 93 94 95 96 97 98 99 0
-9 -23 0
-9 -36 0
-9 -48 0
-9 -59 0
-9 -69 0
-9 -78 0
-9 -86 0
-9 -93 0
-9 -100 0
-9 -101 0
-9 -102 0
-9 -103 0
-9 -104 0
-9 -105 0
-23 -36 0
-23 -48 0
-23 -59 0
-23 -69 0
-23 -78 0
-23 -86 0
-23 -93 0
-23 -100 0
-23 -101 0
-23 -102 0
-23 -103 0
-23 -104 0
-23 -105 0
-36 -48 0
-36 -59 0
-36 -69 0
-36 -78 0
-36 -86 0
-36 -93 0
-36 -100 0
-36 -101 0
-36 -102 0
-36 -103 0
-36 -104 0
-36 -105 0
-48 -59 0
-48 -69 0
-48 -78 0
-48 -86 0
-48 -93 0
-48 -100 0
-48 -101 0
-48 -102 0
-48 -103 0
-48 -104 0
-48 -105 0
-59 -69 0
-59 -78 0
-59 -86 0
-59 -93 0
-59 -100 0
-59 -101 0
-59 -102 0
-59 -103 0
-59 -104 0
-59 -105 0
-69 -78 0
-69 -86 0
-69 -93 0
-69 -100 0
-69 -101 0
-69 -102 0
-69 -103 0
-69 -104 0
-69 -105 0
-78 -86 0
-78 -93 0
-78 -100 0
-78 -101 0
-78 -102 0
-78 -103 0
-78 -104 0
-78 -105 0
-86 -93 0
-86 -100 0
-86 -101 0
-86 -102 0
-86 -103 0
-86 -104 0
-86 -105 0
-93 -100 0
-93 -101 0
-93 -102 0
-93 -103 0
-93 -104 0
-93 -105 0
-100 -101 0
-100 -102 0
-100 -103 0
-100 -104 0
-100 -105 0
-101 -102 0
-101 -103 0
-101 -104 0
-101 -105 0
-102 -103 0
-102 -104 0
-102 -105 0
-103 -104 0
-103 -105 0
-104 -105 0
9 23 36 48 59 69 78 86 93 100 101 102 103 104 105 0
-10 -24 0
-10 -37 0
-10 -49 0
-10 -60 0
-10 -70 0
-10 -79 0
-10 -87 0
-10 -94 0
-10 -100 0
-10 -106 0
-10 -107 0
-10 -108 0
-10 -109 0
-10 -110 0
-24 -37 0
-24 -49 0
-24 -60 0
-24 -70 0
-24 -79 0
-24 -87 0
-24 -94 0
-24 -100 0
-24 -106 0
-24 -107 0
-24 -108 0
-24 -109 0
-24 -110 0
-37 -49 0
-37 -60 0
-37 -70 0
-37 -79 0
-37 -87 0
-37 -94 0
-37 -100 0
-37 -106 0
-37 -107 0
-37 -108 0
-37 -109 0
-37 -110 0
-49 -60 0
-49 -70 0
-49 -79 0
-49 -87 0
-49 -94 0
-49 -100 0
-49 -106 0
-49 -107 0
-49 -108 0
-49 -109 0
-49 -110 0
-60 -70 0
-60 -79 0
-60 -87 0
-60 -94 0
-60 -100 0
-60 -106 0
-60 -107 0
-60 -108 0
-60 -109 0
-60 -110 0
-70 -79 0
-70 -87 0
-70 -94 0
-70 -100 0
-70 -106 0
-70 -107 0
-70 -108 0
-70 -109 0
-70 -110 0
-79 -87 0
-79 -94 0
-79 -100 0
-79 -106 0
-79 -107 0
-79 -108 0
-79 -109 0
-79 -110 0
-87 -94 0
-87 -100 0
-87 -106 0
-87 -107 0
-87 -108 0
-87 -109 0
-87 -110 0
-94 -100 0
-94 -106 0
-94 -107 0
-94 -108 0
-94 -109 0
-94 -110 0
-100 -106 0
-100 -107 0
-100 -108 0
-100 -109 0
-100 -110 0
-106 -107 0
-106 -108 0
-106 -109 0
-106 -110 0
-107 -108 0
-107 -109 0
-107 -110 0
-108 -109 0
-108 -110 0
-109 -110 0
10 24 37 49 60 70 79 87 94 100 106 107 108 109 110 0
-11 -25 0
-11 -38 0
-11 -50 0
-11 -61 0
-11 -71 0
-11 -80 0
-11 -88 0
-11 -95 0
-11 -101 0
-11 -106 0
-11 -111 0
-11 -112 0
-11 -113 0
-11 -114 0
-25 -38 0
-25 -50 0
-25 -61 0
-25 -71 0
-25 -80 0
-25 -88 0
-25 -95 0
-25 -101 0
-25 -106 0
-25 -111 0
-25 -112 0
-25 -113 0
-25 -114 0
-38 -50 0
-38 -61 0
-38 -71 0
-38 -80 0
-38 -88 0
-38 -95 0
-38 -101 0
-38 -106 0
-38 -111 0
-38 -112 0
-38 -113 0
-38 -114 0
-50 -61 0
-50 -71 0
-50 -80 0
-50 -88 0
-50 -95 0
-50 -101 0
-50 -106 0
-50 -111 0
-50 -112 0
-50 -113 0
-50 -114 0
-61 -71 0
-61 -80 0
-61 -88 0
-61 -95 0
-61 -101 0
-61 -106 0
-61 -111 0
-61 -112 0
-61 -113 0
-61 -114 0
-71 -80 0
-71 -88 0
-71 -95 0
-71 -101 0
-71 -106 0
-71 -111 0
-71 -112 0
-71 -113 0
-71 -114 0
-80 -88 0
-80 -95 0
-80 -101 0
-80 -106 0
-80 -111 0
-80 -112 0
-80 -113 0
-80 -114 0
-88 -95 0
-88 -101 0
-88 -106 0
-88 -111 0
-88 -112 0
-88 -113 0
-88 -114 0
-95 -101 0
-95 -106 0
-95 -111 0
-95 -112 0
-95 -113 0
-95 -114 0
-101 -106 0
-101 -111 0
-101 -112 0
-101 -113 0
-101 -114 0
-106 -111 0
-106 -112 0
-106 -113 0
-106 -114 0
-111 -112 0
-111 -113 0
-111 -114 0
-112 -113 0
-112 -114 0
-113 -114 0
11 25 38 50 61 71 80 88 95 101 106 111 112 113 114 0
-12 -26 0
-12 -39 0
-12 -51 0
-12 -62 0
-12 -72 0
-12 -81 0
-12 -89 0
-12 -96 0
-12 -102 0
-12 -107 0
-12 -111 0
-12 -115 0
-12 -116 0
-12 -117 0
-26 -39 0
-26 -51 0
-26 -62 0
-26 -72 0
-26 -81 0
-26 -89 0
-26 -96 0
-26 -102 0
-26 -107 0
-26 -111 0
-26 -115 0
-26 -116 0
-26 -117 0
-39 -51 0
-39 -62 0
-39 -72 0
-39 -81 0
-39 -89 0
-39 -96 0
-39 -102 0
-39 -107 0
-39 -111 0
-39 -115 0
-39 -116 0
-39 -117 0
-51 -62 0
-51 -72 0
-51 -81 0
-51 -89 0
-51 -96 0
-51 -102 0
-51 -107 0
-51 -111 0
-51 -115 0
-51 -116 0
-51 -117 0
-62 -72 0
-62 -81 0
-62 -89 0
-62 -96 0
-62 -102 0
-62 -107 0
-62 -111 0
-62 -115 0
-62 -116 0
-62 -117 0
-72 -81 0
-72 -89 0
-72 -96 0
-72 -102 0
-72 -107 0
-72 -111 0
-72 -115 0
-72 -116 0
-72 -117 0
-81 -89 0
-81 -96 0
-81 -102 0
-81 -107 0
-81 -111 0
-81 -115 0
-81 -116 0
-81 -117 0
-89 -96 0
-89 -102 0
-89 -107 0
-89 -111 0
-89 -115 0
-89 -116 0
-89 -117 0
-96 -102 0
-96 -107 0
-96 -111 0
-96 -115 0
-96 -116 0
-96 -117 0
-102 -107 0
-102 -111 0
-102 -115 0
-102 -116 0
-102 -117 0
-107 -111 0
-107 -115 0
-107 -116 0
-107 -117 0
-111 -115 0
-111 -116 0
-111 -117 0
-115 -116 0
-115 -117 0
-116 -117 0
12 26 39 51 62 72 81 89 96 102 107 111 115 116 117 0
-13 -27 0
-13 -40 0
-13 -52 0
-13 -63 0
-13 -73 0
-13 -82 0
-13 -90 0
-13 -97 0
-13 -103 0
-13 -108 0
-13 -112 0
-13 -115 0
-13 -118 0
-13 -119 0
-27 -40 0
-27 -52 0
-27 -63 0
-27 -73 0
-27 -82 0
-27 -90 0
-27 -97 0
-27 -103 0
-27 -108 0
-27 -112 0
-27 -115 0
-27 -118 0
-27 -119 0
-40 -52 0
-40 -63 0
-40 -73 0
-40 -82 0
-40 -90 0
-40 -97 0
-40 -103 0
-40 -108 0
-40 -112 0
-40 -115 0
-40 -118 0
-40 -119 0
-52 -63 0
-52 -73 0
-52 -82 0
-52 -90 0
-52 -97 0
-52 -103 0
-52 -108 0
-52 -112 0
-52 -115 0
-52 -118 0
-52 -119 0
-63 -73 0
-63 -82 0
-63 -90 0
-63 -97 0
-63 -103 0
-63 -108 0
-63 -112 0
-63 -115 0
-63 -118 0
-63 -119 0
-73 -82 0
-73 -90 0
-73 -97 0
-73 -103 0
-73 -108 0
-73 -112 0
-73 -115 0
-73 -118 0
-73 -119 0
-82 -90 0
-82 -97 0
-82 -103 0
-82 -108 0
-82 -112 0
-82 -115 0
-82 -118 0
-82 -119 0
-90 -97 0
-90 -103 0
-90 -108 0
-90 -112 0
-90 -115 0
-90 -118 0
-90 -119 0
-97 -103 0
-97 -108 0
-97 -112 0
-97 -115 0
-97 -118 0
-97 -119 0
-103 -108 0
-103 -112 0
-103 -115 0
-103 -118 0
-103 -119 0
-108 -112 0
-108 -115 0
-108 -118 0
-108 -119 0
-112 -115 0
-112 -118 0
-112 -119 0
-115 -118 0
-115 -119 0
-118 -119 0
13 27 40 52 63 73 82 90 97 103 108 112 115 118 119 0
-14 -28 0
-14 -41 0
-14 -53 0
-14 -64 0
-14 -74 0
-14 -83 0
-14 -91 0
-14 -98 0
-14 -104 0
-14 -109 0
-14 -113 0
-14 -116 0
-14 -118 0
-14 -120 0
-28 -41 0
-28 -53 0
-28 -64 0
-28 -74 0
-28 -83 0
-28 -91 0
-28 -98 0
-28 -104 0
-28 -109 0
-28 -113 0
-28 -116 0
-28 -118 0
-28 -120 0
-41 -53 0
-41 -64 0
-41 -74 0
-41 -83 0
-41 -91 0
-41 -98 0
-41 -104 0
-41 -109 0
-41 -113 0
-41 -116 0
-41 -118 0
-41 -120 0
-53 -64 0
-53 -74 0
-53 -83 0
-53 -91 0
-53 -98 0
-53 -104 0
-53 -109 0
-53 -113 0
-53 -116 0
-53 -118 0
-53 -120 0
-64 -74 0
-64 -83 0
-64 -91 0
-64 -98 0
-64 -104 0
-64 -109 0
-64 -113 0
-64 -116 0
-64 -118 0
-64 -120 0
-74 -83 0
-74 -91 0
-74 -98 0
-74 -104 0
-74 -109 0
-74 -113 0
-74 -116 0
-74 -118 0
-74 -120 0
-83 -91 0
-83 -98 0
-83 -104 0
-83 -109 0
-83 -113 0
-83 -116 0
-83 -118 0
-83 -120 0
-91 -98 0
-91 -104 0
-91 -109 0
-91 -113 0
-91 -116 0
-91 -118 0
-91 -120 0
-98 -104 0
-98 -109 0
-98 -113 0
-98 -116 0
-98 -118 0
-98 -120 0
-104 -109 0
-104 -113 0
-104 -116 0
-104 -118 0
-104 -120 0
-109 -113 0
-109 -116 0
-109 -118 0
-109 -120 0
-113 -116 0
-113 -118 0
-113 -120 0
-116 -118 0
-116 -120 0
-118 -120 0
14 28 41 53 64 74 83 91 98 104 109 113 116 118 120 0
-15 -29 0
-15 -42 0
-15 -54 0
-15 -65 0
-15 -75 0
-15 -84 0
-15 -92 0
-15 -99 0
-15 -105 0
-15 -110 0
-15 -114 0
-15 -117 0
-15 -119 0
-15 -120 0
-29 -42 0
-29 -54 0
-29 -65 0
-29 -75 0
-29 -84 0
-29 -92 0
-29 -99 0
-29 -105 0
-29 -110 0
-29 -114 0
-29 -117 0
-29 -119 0
-29 -120 0
-42 -54 0
-42 -65 0
-42 -75 0
-42 -84 0
-42 -92 0
-42 -99 0
-42 -105 0
-42 -110 0
-42 -114 0
-42 -117 0
-42 -119 0
-42 -120 0
-54 -65 0
-54 -75 0
-54 -84 0
-54 -92 0
-54 -99 0
-54 -105 0
-54 -110 0
-54 -114 0
-54 -117 0
-54 -119 0
-54 -120 0
-65 -75 0
-65 -84 0
-65 -92 0
-65 -99 0
-65 -105 0
-65 -110 0
-65 -114 0
-65 -117 0
-65 -119 0
-65 -120 0
-75 -84 0
-75 -92 0
-75 -99 0
-75 -105 0
-75 -110 0
-75 -114 0
-75 -117 0
-75 -119 0
-75 -120 0
-84 -92 0
-84 -99 0
-84 -105 0
-84 -110 0
-84 -114 0
-84 -117 0
-84 -119 0
-84 -120 0
-92 -99 0
-92 -105 0
-92 -110 0
-92 -114 0
-92 -117 0
-92 -119 0
-92 -120 0
-99 -105 0
-99 -110 0
-99 -114 0
-99 -117 0
-99 -119 0
-99 -120 0
-105 -110 0
-105 -114 0
-105 -117 0
-105 -119 0
-105 -120 0
-110 -114 0
-110 -117 0
-110 -119 0
-110 -120 0
-114 -117 0
-114 -119 0
-114 -120 0
-117 -119 0
-117 -120 0
-119 -120 0
15 29 42 54 65 75 84 92 99 105 110 114 117 119 120 0
