c description: Random 2-CNF over 50 variables and 120 clauses
c generator: CNFgen (0.9.5)
c copyright: (C) 2012-2026 Massimo Lauria <massimo.lauria@uniroma1.it>
c url: https://massimolauria.net/cnfgen
c random seed: 31016
c command line: cnfgen -S 31016 -o cnfgen_regression_pack/cnfgen_cases/planted_rand2cnf_v50_m120_s1_sat.cnf randkcnf -p 2 50 120
c
c known_status: SAT
c pack_family: planted_randkcnf
c pack_level: easy
c pack_notes: CNFgen planted random k-CNF
p cnf 50 120
37 42 0
-13 -39 0
-5 -11 0
39 -48 0
-17 -18 0
5 40 0
-17 -50 0
-16 -50 0
-32 -49 0
32 43 0
36 -43 0
-16 -29 0
5 37 0
13 49 0
-15 24 0
-7 -37 0
34 -43 0
46 -50 0
-7 11 0
22 39 0
2 -4 0
28 46 0
34 49 0
2 28 0
34 35 0
26 29 0
-12 -32 0
6 14 0
3 17 0
-2 3 0
34 39 0
19 33 0
-9 -19 0
40 -47 0
12 -25 0
-17 -31 0
-22 36 0
-4 18 0
5 -24 0
-37 42 0
3 38 0
-1 3 0
-6 45 0
-2 14 0
-25 -46 0
-15 32 0
-23 43 0
3 23 0
15 -48 0
8 -45 0
24 -36 0
22 -42 0
-21 26 0
2 20 0
39 -43 0
7 42 0
-13 44 0
-19 -39 0
8 22 0
3 29 0
-31 33 0
-16 39 0
-20 -44 0
-10 -41 0
-16 21 0
-6 -33 0
14 -26 0
9 -27 0
10 -15 0
-8 27 0
8 -25 0
-4 36 0
-8 -22 0
22 -34 0
-24 -40 0
-15 48 0
18 26 0
-8 -26 0
34 47 0
-22 26 0
22 48 0
2 50 0
-17 -40 0
5 -21 0
3 -25 0
16 28 0
-17 -32 0
28 -30 0
-10 -49 0
-20 34 0
37 38 0
6 -16 0
-23 -24 0
20 -25 0
-29 49 0
-6 -36 0
5 -11 0
-32 -40 0
-6 20 0
5 27 0
34 -45 0
-39 -45 0
8 46 0
28 -36 0
2 12 0
-25 28 0
28 41 0
-10 -50 0
-16 40 0
19 22 0
39 -46 0
-12 -27 0
-34 46 0
-34 43 0
25 35 0
-39 42 0
-6 10 0
15 26 0
25 -31 0
4 -38 0
