c description: Random 2-CNF over 180 variables and 360 clauses
c generator: CNFgen (0.9.5)
c copyright: (C) 2012-2026 Massimo Lauria <massimo.lauria@uniroma1.it>
c url: https://massimolauria.net/cnfgen
c random seed: 31025
c command line: cnfgen -S 31025 -o cnfgen_regression_pack/cnfgen_cases/planted_rand2cnf_v180_m360_s2_sat.cnf randkcnf -p 2 180 360
c
c known_status: SAT
c pack_family: planted_randkcnf
c pack_level: moderate
c pack_notes: CNFgen planted random k-CNF
p cnf 180 360
84 -118 0
50 -77 0
105 123 0
36 -37 0
98 -104 0
-133 175 0
-97 -105 0
66 -93 0
32 133 0
-1 -46 0
-68 75 0
-124 129 0
84 -131 0
-4 104 0
-33 116 0
-2 136 0
-144 158 0
168 178 0
-171 177 0
-132 -176 0
-35 -115 0
-121 168 0
30 76 0
142 -167 0
68 100 0
63 78 0
82 -83 0
-89 143 0
21 143 0
31 123 0
-54 162 0
-77 162 0
-92 -177 0
-128 -151 0
-7 106 0
47 170 0
-74 133 0
64 -168 0
134 167 0
22 65 0
47 -124 0
61 161 0
141 -178 0
-17 102 0
90 97 0
-38 175 0
-28 102 0
12 57 0
3 173 0
3 140 0
24 -148 0
86 -98 0
99 -109 0
4 -126 0
65 143 0
-32 104 0
148 154 0
-19 93 0
77 112 0
-54 93 0
9 -39 0
5 42 0
-90 103 0
-14 25 0
-116 -175 0
-152 180 0
-57 62 0
121 140 0
2 9 0
-48 64 0
-113 126 0
-81 162 0
16 146 0
-56 134 0
36 -169 0
112 124 0
16 -148 0
-30 90 0
52 -122 0
-171 -179 0
-58 146 0
52 67 0
-23 -109 0
75 -135 0
66 -180 0
-5 -8 0
65 -82 0
95 -126 0
76 157 0
-44 -54 0
-61 103 0
24 -53 0
-74 96 0
88 146 0
-97 138 0
-41 -126 0
26 58 0
3 -97 0
124 170 0
-14 180 0
86 -106 0
-24 -133 0
24 -157 0
27 106 0
88 -109 0
5 -43 0
5 142 0
59 168 0
43 102 0
123 152 0
-140 -156 0
42 -96 0
-25 110 0
36 60 0
47 -128 0
18 -19 0
101 157 0
-160 177 0
-48 -105 0
-55 -175 0
99 164 0
64 -67 0
-132 -136 0
-5 164 0
40 -86 0
17 21 0
-21 27 0
-53 162 0
-24 -97 0
-36 47 0
-13 102 0
-52 -92 0
73 170 0
-99 -123 0
2 25 0
100 -172 0
30 164 0
98 177 0
49 176 0
4 -143 0
90 176 0
-92 156 0
-78 -105 0
50 -84 0
168 -180 0
85 -111 0
-28 179 0
-98 123 0
103 111 0
-33 -121 0
-54 140 0
-67 -150 0
81 -132 0
-25 109 0
136 -159 0
-14 24 0
44 75 0
60 -68 0
-11 -160 0
-17 94 0
-37 -103 0
60 -61 0
-81 -162 0
5 44 0
-25 92 0
-13 78 0
137 139 0
5 85 0
85 -108 0
-18 -76 0
13 69 0
127 -131 0
43 -130 0
-34 173 0
-105 -178 0
98 124 0
-99 104 0
-4 56 0
66 -135 0
32 118 0
-146 168 0
-118 139 0
10 -17 0
-127 -175 0
5 70 0
-88 124 0
13 48 0
-19 -105 0
-111 -141 0
38 96 0
-2 -109 0
95 144 0
2 -157 0
-75 -81 0
136 180 0
-111 -136 0
48 -80 0
-85 142 0
-105 -179 0
-15 37 0
106 157 0
41 167 0
53 136 0
104 169 0
11 71 0
-112 116 0
34 170 0
121 179 0
69 86 0
64 -178 0
-38 48 0
-91 93 0
-131 -139 0
7 -120 0
-8 -154 0
36 -100 0
-49 88 0
-128 155 0
73 75 0
12 -120 0
-21 142 0
-132 -171 0
87 -178 0
-111 -175 0
37 72 0
31 -130 0
30 121 0
25 -166 0
-68 -146 0
7 168 0
125 -146 0
96 -120 0
-57 143 0
23 64 0
12 -15 0
-19 104 0
-54 -154 0
147 169 0
-43 102 0
-42 -92 0
-135 151 0
30 168 0
-32 -70 0
-47 -153 0
50 137 0
96 -100 0
-72 -177 0
-15 60 0
23 43 0
-139 141 0
27 -95 0
-130 -160 0
64 67 0
137 -180 0
150 168 0
16 -152 0
138 170 0
43 142 0
78 131 0
-25 -109 0
-147 -162 0
7 112 0
56 -126 0
166 176 0
-55 -131 0
-23 -80 0
46 -132 0
13 -76 0
63 -91 0
-52 -127 0
106 -140 0
79 -151 0
-61 -74 0
-2 158 0
65 -88 0
-120 135 0
36 178 0
-100 180 0
119 173 0
125 157 0
-19 135 0
-160 -179 0
-54 155 0
-8 123 0
-38 56 0
-60 170 0
-135 162 0
91 101 0
-84 128 0
-94 141 0
121 -150 0
-55 -117 0
-19 -128 0
43 -76 0
5 82 0
-23 164 0
69 -135 0
30 -173 0
-30 125 0
-10 -89 0
91 -147 0
-2 21 0
-100 -150 0
56 -86 0
36 -80 0
110 -144 0
63 179 0
5 97 0
-57 -127 0
40 89 0
-18 146 0
35 165 0
-13 -29 0
-115 -128 0
-116 -146 0
-32 -132 0
28 -111 0
30 -40 0
106 -114 0
41 -145 0
123 -159 0
34 -120 0
85 159 0
55 -178 0
27 78 0
26 118 0
83 119 0
59 -104 0
-32 86 0
21 171 0
-37 68 0
60 131 0
87 90 0
69 90 0
60 -167 0
-20 174 0
-35 -109 0
-50 135 0
-169 170 0
-111 150 0
-105 166 0
-1 59 0
118 163 0
-94 175 0
57 -139 0
60 -142 0
150 161 0
-112 161 0
-173 -177 0
31 -169 0
120 159 0
53 180 0
96 144 0
128 -146 0
52 -73 0
66 122 0
20 -155 0
-36 137 0
70 -171 0
-12 111 0
