c description: Random 3-CNF over 200 variables and 860 clauses
c generator: CNFgen (0.9.5)
c copyright: (C) 2012-2026 Massimo Lauria <massimo.lauria@uniroma1.it>
c url: https://massimolauria.net/cnfgen
c random seed: 31044
c command line: cnfgen -S 31044 -o cnfgen_regression_pack/cnfgen_cases/planted_rand3cnf_v200_m860_s2_sat.cnf randkcnf -p 3 200 860
c
c known_status: SAT
c pack_family: planted_randkcnf
c pack_level: stress
c pack_notes: CNFgen planted random k-CNF
p cnf 200 860
-86 108 -120 0
-23 54 -111 0
16 82 136 0
-114 142 -176 0
-29 -43 -96 0
-39 -104 -111 0
-112 113 146 0
81 127 171 0
4 31 -116 0
-45 67 180 0
-44 -166 -189 0
37 109 152 0
20 45 -91 0
49 78 161 0
-11 -66 -146 0
-10 64 76 0
11 -126 136 0
-7 -9 -102 0
-76 122 133 0
-41 96 -194 0
-18 44 -179 0
-24 -75 -163 0
-5 120 -148 0
-67 -184 186 0
-23 -147 -182 0
36 -156 -163 0
18 -87 -160 0
89 91 -187 0
5 -88 151 0
23 26 -53 0
-4 82 158 0
53 -63 77 0
25 39 -72 0
14 151 -190 0
-34 48 159 0
1 -7 155 0
-6 20 195 0
3 -140 -146 0
-68 -146 -171 0
-42 -122 135 0
39 55 -170 0
-12 149 171 0
34 -49 51 0
-53 87 137 0
11 94 -134 0
-15 121 194 0
14 -21 81 0
-4 111 172 0
-36 46 87 0
-51 129 139 0
38 -47 -72 0
-77 89 -108 0
-55 157 162 0
1 -58 -132 0
56 -74 -156 0
-96 -104 -188 0
-103 -136 -162 0
63 117 122 0
25 122 151 0
40 -45 72 0
64 100 -139 0
60 -65 80 0
-9 -71 96 0
26 118 -192 0
52 93 -167 0
166 -181 -184 0
-38 99 -168 0
29 -174 197 0
-58 130 -158 0
-138 -191 195 0
13 -58 127 0
4 -35 -162 0
-91 114 -154 0
-43 -46 175 0
-7 -93 150 0
105 156 -200 0
-23 -170 176 0
-41 61 -85 0
-33 -47 101 0
4 5 -140 0
3 44 -128 0
-35 97 162 0
-18 52 -140 0
-18 -83 -143 0
32 161 167 0
108 -117 -126 0
-118 148 155 0
60 -84 -107 0
-152 178 -192 0
-79 119 135 0
7 16 -181 0
49 144 -167 0
73 -97 -108 0
26 -28 165 0
-17 -110 -197 0
35 -55 93 0
-17 -34 -127 0
-76 140 200 0
-128 -141 192 0
26 -50 189 0
-8 146 -181 0
130 136 200 0
-48 -68 -154 0
-108 122 183 0
-57 77 -143 0
-57 -96 108 0
-5 147 -181 0
28 43 140 0
34 143 -161 0
42 77 -95 0
25 107 -177 0
101 -173 179 0
78 154 -163 0
118 -120 165 0
-29 -95 -186 0
-11 55 142 0
-29 35 -100 0
7 -70 -157 0
-50 100 104 0
9 -73 76 0
-42 -76 -156 0
-55 145 -166 0
-111 -112 164 0
20 -58 95 0
-18 43 -155 0
-45 109 111 0
2 52 -145 0
-69 78 174 0
8 -75 191 0
42 133 169 0
-1 57 83 0
1 68 -143 0
59 80 -106 0
-34 -68 177 0
74 -161 -187 0
19 -117 137 0
-58 59 -105 0
-49 -157 -175 0
-49 184 189 0
-18 -58 117 0
-65 -134 188 0
114 167 187 0
-55 -181 194 0
-25 -55 82 0
-61 -98 -137 0
59 130 152 0
17 69 -153 0
-33 99 120 0
37 -77 -102 0
76 165 -189 0
24 -56 121 0
-44 87 149 0
15 49 -159 0
-38 134 164 0
1 -117 146 0
4 -17 149 0
13 134 194 0
-19 -139 159 0
-64 74 148 0
-25 136 -174 0
-6 69 -170 0
76 -113 -123 0
116 -123 189 0
-43 -61 134 0
25 38 124 0
-117 -132 178 0
-3 -62 136 0
-41 152 -192 0
-54 -119 154 0
-55 58 131 0
92 117 125 0
18 133 146 0
23 125 147 0
-67 -77 118 0
-11 84 -166 0
16 84 -121 0
-24 -92 169 0
25 74 81 0
38 -106 107 0
118 -144 156 0
79 -84 -156 0
20 91 -193 0
3 80 -108 0
41 101 147 0
90 -167 183 0
-71 149 -153 0
109 134 -186 0
30 -88 122 0
3 -76 -119 0
29 -58 144 0
30 -54 136 0
-18 -79 161 0
4 63 -156 0
53 73 114 0
79 -123 177 0
-36 -74 162 0
-63 109 114 0
-4 49 121 0
40 -126 182 0
6 17 43 0
-28 -137 162 0
-97 143 146 0
152 -161 185 0
-60 112 140 0
55 -130 -191 0
-28 -103 -159 0
-5 161 -173 0
-89 125 -164 0
22 94 -166 0
24 84 180 0
-29 147 187 0
-51 82 -91 0
-3 -48 -198 0
-67 91 -93 0
-57 -97 197 0
113 -139 197 0
6 39 -172 0
-80 -144 -200 0
40 -155 -174 0
9 -101 120 0
96 -161 172 0
-47 -66 180 0
-24 -33 188 0
-6 -40 152 0
-12 -111 -137 0
-13 -96 128 0
-79 94 199 0
-8 -45 89 0
-43 69 -101 0
-76 117 183 0
25 64 120 0
50 -108 -157 0
54 -87 139 0
-34 90 159 0
22 -71 -120 0
28 77 -176 0
-27 180 195 0
18 101 -122 0
-42 -46 -148 0
-30 -77 154 0
40 83 121 0
1 127 163 0
-145 155 198 0
16 -123 -193 0
41 -47 126 0
-65 -139 -174 0
66 -153 -198 0
-175 -180 199 0
41 -51 -118 0
-3 105 187 0
-41 107 149 0
41 -53 -96 0
30 -123 184 0
-30 116 163 0
-9 40 -189 0
-1 15 -181 0
-121 129 147 0
57 86 -192 0
-5 -7 194 0
12 43 80 0
-12 -121 168 0
-8 -67 -118 0
92 110 148 0
-19 -180 185 0
124 -134 154 0
27 62 179 0
-33 108 145 0
9 132 -165 0
-15 -47 99 0
-37 -54 181 0
60 -139 171 0
64 -66 -85 0
-145 184 191 0
19 -57 116 0
30 -42 -46 0
12 -65 149 0
26 173 175 0
36 98 121 0
-18 158 187 0
-21 66 -156 0
19 40 -60 0
-33 136 165 0
-184 187 191 0
-8 -119 120 0
-92 -103 -144 0
-6 34 39 0
24 110 -193 0
93 -115 170 0
100 160 182 0
37 78 -198 0
-1 47 188 0
-72 -77 -122 0
68 -77 158 0
5 -67 -115 0
-15 25 -73 0
-51 58 86 0
16 31 -172 0
-12 151 -183 0
-86 -106 -131 0
47 92 99 0
-52 179 185 0
155 -160 -186 0
7 11 -185 0
16 178 197 0
11 -60 -187 0
104 -164 176 0
84 93 -108 0
5 120 185 0
-29 -155 -166 0
51 132 -195 0
-63 165 182 0
12 19 120 0
-31 -135 145 0
-47 48 -109 0
-2 172 -184 0
98 161 192 0
-27 99 -152 0
52 -85 128 0
-11 39 -176 0
62 128 199 0
-6 -97 -163 0
-54 -69 -114 0
33 75 158 0
-1 -35 166 0
-24 125 -186 0
22 -66 -83 0
33 -40 176 0
-22 126 179 0
-80 82 115 0
-68 -145 -192 0
56 65 78 0
3 74 141 0
-55 -98 110 0
-87 -123 -132 0
67 -69 187 0
-11 42 79 0
-22 52 -65 0
54 154 -179 0
-84 148 170 0
-24 43 -116 0
104 -138 170 0
30 43 104 0
-24 -105 -149 0
-21 44 128 0
-45 61 -190 0
-28 -102 -154 0
12 -29 49 0
116 -140 -154 0
-58 88 112 0
-17 149 172 0
-107 110 -146 0
35 50 191 0
53 -79 -165 0
-49 68 118 0
34 -118 -196 0
-58 75 124 0
46 52 155 0
44 50 73 0
153 170 -185 0
-23 -180 -193 0
148 158 162 0
14 37 54 0
-3 -42 -110 0
22 -86 -187 0
-150 -159 -196 0
-46 -136 -191 0
-40 65 81 0
-46 69 154 0
-15 -80 190 0
53 -117 161 0
98 155 -158 0
-58 -150 177 0
-12 -32 123 0
31 -59 119 0
-19 -112 131 0
-57 71 181 0
164 -171 172 0
-1 -121 164 0
-6 -18 97 0
-22 45 -93 0
2 67 -171 0
51 -118 -173 0
162 182 184 0
-66 -71 -185 0
89 116 148 0
-3 13 173 0
12 -72 -181 0
16 49 123 0
-9 78 -141 0
130 -151 160 0
-113 -128 180 0
62 96 -176 0
24 72 162 0
135 145 168 0
-15 31 -125 0
118 -138 175 0
-43 136 155 0
34 -89 169 0
-27 59 -112 0
66 77 100 0
41 -91 116 0
128 168 -169 0
-85 -92 -156 0
-22 30 198 0
21 -68 -100 0
13 61 -129 0
20 191 -192 0
2 17 -27 0
40 139 185 0
-137 151 -164 0
-57 -163 170 0
40 -71 166 0
-37 -81 157 0
-100 145 -200 0
11 -32 -75 0
-22 31 190 0
-22 130 -160 0
33 -44 119 0
12 -58 145 0
141 -160 -174 0
101 161 -189 0
90 101 190 0
73 -106 -198 0
-176 184 -189 0
91 -100 184 0
-44 78 -122 0
38 72 132 0
-55 178 -181 0
-32 91 167 0
-3 81 89 0
52 131 192 0
-89 113 190 0
64 -109 -131 0
39 111 -160 0
33 128 -155 0
-34 66 -136 0
26 72 163 0
23 133 139 0
-31 132 176 0
-108 156 192 0
-91 103 158 0
35 95 133 0
42 -78 92 0
-24 -42 139 0
-9 -68 92 0
-41 124 -144 0
49 78 -125 0
-27 81 -184 0
-25 -98 154 0
32 -94 109 0
-40 -150 177 0
5 16 151 0
104 106 -117 0
73 85 115 0
-76 105 -114 0
-27 40 160 0
31 -72 157 0
56 -169 190 0
45 67 184 0
59 -167 -192 0
62 -98 -196 0
-109 -116 161 0
-133 139 -169 0
75 -86 130 0
-105 -131 -173 0
-3 48 198 0
99 -147 -166 0
136 -138 -174 0
-105 -167 -190 0
40 -100 -151 0
65 171 -198 0
57 -69 -117 0
19 94 -165 0
98 161 171 0
-45 -83 173 0
-48 78 -199 0
24 102 120 0
76 91 192 0
-39 131 -173 0
-87 175 190 0
27 113 147 0
-92 112 170 0
84 -183 -196 0
-16 54 160 0
-85 -106 107 0
62 71 -109 0
72 92 182 0
72 99 -193 0
33 -146 -152 0
6 57 -79 0
14 64 -182 0
94 -163 -184 0
87 145 -197 0
96 188 190 0
22 48 -165 0
25 -30 -41 0
66 81 -171 0
-58 -86 -189 0
-5 -18 -123 0
28 -73 190 0
-29 -140 -174 0
119 -180 196 0
-98 179 182 0
53 109 154 0
-8 31 -139 0
-89 -105 -174 0
10 -83 -173 0
-19 -119 -141 0
19 97 125 0
78 -115 121 0
-6 -73 191 0
-56 -105 -110 0
-5 -54 -190 0
58 60 -129 0
11 98 153 0
39 -51 -90 0
73 -79 -137 0
-89 110 -122 0
14 -36 -76 0
-44 -46 152 0
-3 -14 -35 0
-49 53 198 0
-6 62 169 0
12 -112 -155 0
103 -142 190 0
-33 -69 184 0
-12 -85 -89 0
-116 -122 -127 0
-27 -74 -94 0
-90 195 196 0
-28 -62 158 0
-175 177 -185 0
-71 74 89 0
13 -98 -195 0
-3 -49 -92 0
-4 -158 188 0
26 -50 101 0
58 -161 196 0
-44 -87 -160 0
-78 -101 -143 0
-17 -59 -65 0
46 -74 193 0
98 -102 -131 0
30 34 -114 0
-64 -134 -184 0
-22 -40 57 0
7 54 89 0
-16 70 118 0
-2 -45 -53 0
9 -75 136 0
-7 -14 181 0
-84 131 -172 0
73 -111 -176 0
15 -167 -200 0
-79 148 -200 0
-55 88 -192 0
-59 -90 136 0
-133 146 -171 0
150 155 173 0
-44 147 153 0
-39 48 169 0
75 163 181 0
-62 -115 -164 0
34 161 169 0
15 117 -130 0
-7 61 150 0
60 -112 133 0
-54 -132 138 0
113 115 -128 0
-25 -32 -189 0
100 107 -161 0
59 -74 111 0
57 -82 -146 0
1 14 -198 0
-173 182 -190 0
20 171 -186 0
-142 -154 162 0
-137 -143 -156 0
-73 123 155 0
32 126 -143 0
11 33 135 0
-47 -136 -155 0
-8 18 -122 0
-11 134 161 0
-43 -72 73 0
89 103 131 0
11 -13 125 0
-64 106 149 0
66 147 -148 0
-14 -38 143 0
-60 129 145 0
-6 113 -185 0
-34 -69 77 0
2 -34 188 0
-10 66 171 0
42 -51 71 0
61 63 165 0
-5 -46 -164 0
53 -111 139 0
68 -121 161 0
22 68 182 0
7 36 -158 0
56 -149 -153 0
31 115 -142 0
-14 -73 -155 0
-1 -66 -123 0
44 -136 -191 0
33 -122 148 0
-19 -43 -171 0
-4 -39 186 0
-46 129 148 0
-73 -95 -161 0
39 -91 142 0
57 -137 -153 0
-28 -42 45 0
46 160 185 0
132 190 -193 0
110 169 -199 0
-10 -35 -185 0
-34 -125 134 0
-22 137 -186 0
22 23 -96 0
-66 182 183 0
-58 -63 167 0
-34 -41 -93 0
-50 69 134 0
-63 135 -175 0
-2 131 -162 0
65 -82 90 0
-72 -176 198 0
50 112 142 0
21 -32 182 0
-25 -29 89 0
2 54 -133 0
-53 82 124 0
-104 168 -176 0
-6 -109 -156 0
-3 -97 -152 0
19 -127 172 0
-1 90 154 0
122 129 188 0
22 -30 164 0
3 -59 -197 0
126 -159 -177 0
27 -38 -113 0
5 29 -165 0
-26 -42 177 0
19 35 -176 0
97 145 -158 0
13 -148 181 0
-1 37 193 0
54 115 118 0
-38 -44 -46 0
-29 -161 -168 0
-4 -19 33 0
-75 132 150 0
-22 -37 -148 0
5 -66 139 0
39 107 -197 0
-5 -10 80 0
10 -48 184 0
2 -49 96 0
22 -27 48 0
24 -142 -164 0
55 -156 -186 0
-102 118 161 0
-18 126 -144 0
27 171 -181 0
-7 152 -173 0
40 169 -191 0
55 -73 163 0
-60 -92 141 0
46 115 199 0
-28 -166 195 0
-2 -126 -189 0
32 68 -200 0
-36 45 155 0
-25 -56 -194 0
40 88 -101 0
-8 -34 -124 0
33 135 192 0
25 -63 111 0
1 8 -98 0
-14 57 -197 0
34 114 125 0
25 -133 -159 0
-74 110 -132 0
-6 -89 -160 0
-60 72 -130 0
43 130 -158 0
-90 -113 142 0
-67 94 156 0
-147 -169 180 0
83 91 172 0
-149 -154 -185 0
31 -73 140 0
-16 -46 153 0
4 87 102 0
65 116 -161 0
-35 120 -165 0
-5 59 163 0
63 97 200 0
1 -61 137 0
52 -167 171 0
5 16 193 0
44 102 144 0
59 137 -150 0
36 75 171 0
74 92 195 0
-53 106 190 0
9 -52 115 0
-19 -146 -180 0
18 100 168 0
-59 145 -160 0
-161 191 -200 0
-77 95 -151 0
11 -14 -110 0
7 -123 -183 0
39 -156 -180 0
-43 -52 131 0
-43 109 -118 0
27 63 154 0
-22 33 -136 0
12 -37 60 0
81 -128 -147 0
-30 -49 -174 0
40 90 -167 0
92 128 -192 0
-4 -19 -79 0
51 57 106 0
-72 -175 -189 0
33 40 66 0
20 82 -170 0
-51 121 187 0
70 -81 -196 0
-30 33 -54 0
2 7 -23 0
91 -127 190 0
45 -51 66 0
-39 -46 144 0
-89 163 176 0
17 -29 -108 0
-2 -178 191 0
-61 -173 200 0
-65 -127 147 0
-42 136 189 0
97 -113 190 0
-15 28 -169 0
-95 113 177 0
-43 -52 -144 0
-3 -73 91 0
78 112 -118 0
-96 -113 197 0
12 -32 -92 0
72 147 198 0
-65 126 -139 0
71 -89 121 0
16 20 -142 0
95 149 159 0
-100 102 -179 0
-39 77 -128 0
-30 -49 -94 0
-37 -74 132 0
37 -84 -167 0
54 -139 -180 0
106 121 186 0
-34 -90 99 0
47 -74 115 0
-52 -95 -157 0
-10 104 -109 0
-30 173 -176 0
-126 -146 194 0
-29 47 102 0
-84 -91 -133 0
12 73 158 0
7 -24 183 0
48 65 192 0
-17 121 188 0
-50 -79 140 0
42 -119 195 0
29 -45 91 0
-5 21 -68 0
-127 159 167 0
-93 -133 136 0
105 -144 198 0
-55 -117 -122 0
93 113 189 0
-56 68 109 0
23 149 -162 0
-80 81 -140 0
-27 31 46 0
70 -93 141 0
48 93 196 0
-26 -153 -169 0
86 -88 -111 0
-65 118 163 0
68 133 -168 0
28 111 195 0
4 -8 24 0
-143 -157 191 0
-13 -27 -136 0
-116 131 -178 0
75 122 -168 0
-138 -178 -200 0
-29 37 52 0
81 -108 131 0
-3 5 52 0
121 -141 -197 0
66 96 -127 0
97 -101 -148 0
25 146 200 0
7 62 76 0
-108 -117 165 0
17 -40 56 0
68 155 -160 0
18 -28 -59 0
-23 46 -177 0
-93 -136 -139 0
-52 59 -79 0
-54 80 104 0
-3 50 108 0
-29 -56 161 0
-2 84 -167 0
12 -119 190 0
-17 59 160 0
99 -150 200 0
75 145 -181 0
126 -131 -183 0
-94 96 -100 0
-41 134 -153 0
159 -161 -200 0
13 -27 43 0
84 85 174 0
-34 -133 195 0
-14 42 -73 0
-71 -82 136 0
20 -178 -192 0
64 -157 -198 0
31 114 155 0
36 -105 -106 0
27 65 -173 0
151 170 -196 0
89 -114 -149 0
67 126 -173 0
-13 -16 -196 0
-84 102 147 0
-68 166 -191 0
31 97 -99 0
-12 -68 -188 0
39 41 80 0
38 86 -185 0
-10 -117 -167 0
61 122 -199 0
1 126 -164 0
11 56 -65 0
116 149 175 0
-26 61 -66 0
-23 -42 -188 0
-7 -151 -173 0
9 63 -154 0
