c description: Random 3-CNF over 90 variables and 380 clauses
c generator: CNFgen (0.9.5)
c copyright: (C) 2012-2026 Massimo Lauria <massimo.lauria@uniroma1.it>
c url: https://massimolauria.net/cnfgen
c random seed: 31042
c command line: cnfgen -S 31042 -o cnfgen_regression_pack/cnfgen_cases/planted_rand3cnf_v90_m380_s2_sat.cnf randkcnf -p 3 90 380
c
c known_status: SAT
c pack_family: planted_randkcnf
c pack_level: moderate
c pack_notes: CNFgen planted random k-CNF
p cnf 90 380
15 -43 63 0
85 -86 -88 0
21 -31 84 0
5 -52 74 0
-4 -68 -70 0
1 10 -85 0
6 19 40 0
-11 31 36 0
40 54 78 0
-10 -46 -63 0
-33 -53 -55 0
11 -14 -81 0
7 27 29 0
19 43 62 0
66 86 -90 0
-10 17 58 0
-8 -14 40 0
41 -71 83 0
2 -37 50 0
-19 52 -61 0
55 -67 -74 0
-4 67 -76 0
-62 63 85 0
5 -53 85 0
24 -25 -28 0
24 55 -56 0
-28 -52 79 0
-23 46 -84 0
4 7 -63 0
-35 -51 -56 0
56 73 89 0
16 33 -67 0
-14 -68 80 0
-19 -42 70 0
13 -15 -20 0
8 -76 88 0
25 -83 85 0
2 54 60 0
23 62 -67 0
-29 -67 -74 0
8 -15 51 0
57 70 87 0
-31 -42 63 0
50 -71 83 0
65 68 -81 0
-17 22 30 0
-6 -55 70 0
-39 -40 -42 0
-3 -27 -78 0
-4 -49 -84 0
5 10 14 0
-50 -53 54 0
3 13 -30 0
73 -74 -79 0
29 -63 -84 0
20 -28 -35 0
7 -34 70 0
25 -64 72 0
12 53 -88 0
12 -28 82 0
-57 60 -75 0
16 -32 -62 0
22 -43 -61 0
-10 -65 73 0
49 -53 77 0
-67 -76 -90 0
-35 76 -78 0
41 -46 -84 0
-11 -43 55 0
9 -10 90 0
-39 56 73 0
-4 -36 89 0
-17 -37 -49 0
1 5 29 0
-33 50 -54 0
-5 -32 34 0
-60 -62 -69 0
-21 44 -66 0
-23 38 -42 0
-61 72 -79 0
7 -17 41 0
-17 26 32 0
-9 67 78 0
2 -41 -74 0
3 -59 79 0
-5 6 26 0
14 -40 78 0
-27 65 -68 0
-60 -64 65 0
39 54 -86 0
33 -39 -40 0
-9 -10 32 0
-59 77 88 0
-61 62 -86 0
-14 55 83 0
-1 -57 81 0
-6 -66 86 0
3 -21 40 0
1 14 55 0
4 37 -48 0
7 -18 -73 0
42 63 72 0
-6 66 85 0
-14 -57 -82 0
12 34 79 0
-28 -72 77 0
5 20 60 0
31 60 -64 0
13 -31 -75 0
-72 -79 83 0
19 60 -73 0
13 31 -32 0
13 -54 57 0
-5 -17 75 0
-39 -80 -83 0
9 -16 -82 0
-35 49 -68 0
-64 71 72 0
-26 -42 -88 0
-10 -44 -82 0
-4 -12 -44 0
3 6 -17 0
12 32 -80 0
21 62 -79 0
-9 -60 77 0
15 32 -65 0
13 22 78 0
24 42 52 0
-19 -26 56 0
6 -24 41 0
14 -43 -45 0
39 -56 68 0
27 -66 81 0
-34 -47 -61 0
26 -34 86 0
-44 45 69 0
2 -3 -37 0
15 60 89 0
35 -59 -65 0
-1 -10 -49 0
-8 -39 -46 0
2 -36 51 0
-27 72 -84 0
9 -16 21 0
7 31 65 0
33 42 -59 0
5 -16 -55 0
-15 42 -84 0
-16 78 81 0
-6 -44 61 0
-29 -37 -75 0
-26 28 -82 0
33 -40 -49 0
23 61 -82 0
-13 -20 -60 0
34 -37 -59 0
-61 -65 90 0
-5 -69 70 0
13 31 -78 0
-23 -39 -71 0
-12 40 72 0
-11 -43 -52 0
-17 20 52 0
19 35 80 0
13 70 79 0
29 -39 56 0
-26 -38 -43 0
36 -50 -72 0
3 49 -87 0
-14 18 62 0
-4 -22 -49 0
38 59 -77 0
-25 27 29 0
50 -74 -82 0
8 27 -33 0
20 68 -72 0
-28 -29 50 0
2 39 82 0
14 -70 -88 0
-5 7 -75 0
28 65 87 0
53 -82 -87 0
-9 -13 -75 0
5 21 85 0
-35 -38 42 0
6 -9 -37 0
-11 56 77 0
8 -50 81 0
11 -41 -66 0
17 22 -66 0
-10 -78 -80 0
24 -44 83 0
48 -57 -85 0
16 40 76 0
20 37 -60 0
13 -15 -27 0
-28 -38 83 0
45 -62 -87 0
-28 -55 60 0
-55 63 77 0
-52 73 -82 0
40 -60 -84 0
-60 69 -83 0
-24 -71 87 0
5 -8 -77 0
-2 -35 74 0
-39 62 83 0
-19 -45 51 0
10 66 86 0
24 43 -64 0
30 -52 70 0
22 27 -59 0
67 -69 -84 0
16 -24 -44 0
-28 -38 -79 0
-19 -31 -76 0
37 57 67 0
-23 -74 88 0
-6 -32 89 0
4 -23 61 0
32 40 -88 0
-3 -59 78 0
6 77 -86 0
29 -69 88 0
17 -28 -84 0
-8 17 -71 0
-32 51 -87 0
-5 9 18 0
27 -41 86 0
60 61 67 0
30 -56 -62 0
8 -48 69 0
31 42 85 0
19 33 -74 0
5 52 84 0
15 16 -57 0
11 22 -67 0
-13 -64 -65 0
43 -71 83 0
13 -54 62 0
2 20 31 0
8 40 -48 0
4 -6 -89 0
-7 -51 -89 0
11 41 -44 0
20 -53 -69 0
-21 -28 -87 0
1 -11 51 0
7 -20 25 0
-10 -23 39 0
8 -43 75 0
3 25 -55 0
-32 59 80 0
-12 -14 51 0
-1 -48 -52 0
10 38 61 0
-9 -68 88 0
5 43 66 0
-40 -66 71 0
13 50 -86 0
7 47 79 0
-38 70 -75 0
41 -66 -81 0
-23 -67 -74 0
-14 42 -82 0
12 -65 -77 0
11 -26 -64 0
28 79 -81 0
45 -54 -85 0
8 -24 26 0
38 -58 -78 0
2 48 83 0
12 -41 45 0
-7 -78 -89 0
15 -23 70 0
-14 27 -36 0
-2 19 81 0
-1 27 63 0
8 9 -84 0
7 18 -79 0
-8 35 36 0
11 18 67 0
1 -45 -68 0
67 69 82 0
-29 -35 -67 0
5 -63 -76 0
-10 -43 72 0
-23 46 48 0
-11 -31 37 0
10 55 86 0
30 48 67 0
-26 -45 86 0
-4 52 83 0
1 49 59 0
15 -36 -88 0
45 46 -51 0
-35 -41 -77 0
-32 67 -71 0
-10 17 47 0
-50 62 -63 0
4 15 -53 0
24 -36 -66 0
7 21 63 0
5 -31 -52 0
45 -67 -85 0
8 -31 -36 0
30 51 81 0
30 51 63 0
-34 39 -63 0
22 32 80 0
-8 54 65 0
66 -70 -79 0
-15 23 -88 0
-28 -36 90 0
-15 -39 -55 0
-1 11 15 0
15 -25 -53 0
-19 26 49 0
-17 31 66 0
-28 -38 -41 0
70 79 -89 0
-15 49 60 0
15 46 -71 0
28 -36 -53 0
17 -22 -71 0
26 29 43 0
-23 66 88 0
21 -43 -79 0
-44 -55 90 0
-67 84 -88 0
16 19 -42 0
-4 -61 -82 0
37 -47 -84 0
-37 -48 64 0
-17 47 -69 0
-13 -44 -86 0
9 36 74 0
-49 57 87 0
-6 -31 -50 0
-59 -64 79 0
13 -42 45 0
-12 -53 69 0
-67 71 73 0
-13 -15 58 0
11 43 -46 0
2 5 -40 0
-9 37 73 0
-32 -53 74 0
-18 -32 56 0
58 59 86 0
10 49 -65 0
7 33 -78 0
-13 21 29 0
-39 -50 68 0
-4 -35 85 0
25 37 82 0
-4 36 55 0
-12 13 58 0
-5 6 63 0
-34 -48 87 0
2 78 -80 0
5 -9 -81 0
-20 -43 56 0
-10 50 84 0
-10 22 -57 0
-46 -62 -82 0
7 -86 89 0
55 75 77 0
8 27 87 0
5 11 -15 0
-74 -78 80 0
-29 -30 -32 0
-10 -55 -86 0
19 -63 73 0
10 27 -62 0
-11 75 -81 0
22 -36 -80 0
23 42 84 0
-23 -49 84 0
5 -50 71 0
