c description: Random 3-CNF over 60 variables and 240 clauses
c generator: CNFgen (0.9.5)
c copyright: (C) 2012-2026 Massimo Lauria <massimo.lauria@uniroma1.it>
c url: https://massimolauria.net/cnfgen
c random seed: 31048
c command line: cnfgen -S 31048 -o cnfgen_regression_pack/cnfgen_cases/planted_rand3cnf_v60_m240_s3_sat.cnf randkcnf -p 3 60 240
c
c known_status: SAT
c pack_family: planted_randkcnf
c pack_level: easy
c pack_notes: CNFgen planted random k-CNF
p cnf 60 240
-2 40 -57 0
8 -22 -56 0
-27 -38 -48 0
-2 -46 -56 0
6 10 -24 0
-17 20 -48 0
13 26 -35 0
-5 30 -36 0
-17 -21 -58 0
-14 17 -29 0
13 35 -56 0
-22 43 -57 0
20 -46 47 0
31 47 58 0
-8 9 38 0
8 31 -50 0
1 29 -59 0
-40 49 56 0
20 23 51 0
-18 -23 34 0
11 49 -51 0
-39 -53 -58 0
-2 31 -47 0
-5 -8 -47 0
-6 40 45 0
3 8 -9 0
-5 -36 54 0
-13 23 41 0
-8 -9 38 0
-1 -19 -50 0
4 23 -46 0
1 26 -58 0
38 -42 50 0
34 -44 -47 0
7 10 36 0
-15 -21 -49 0
-21 26 57 0
23 -32 -39 0
-3 -31 -35 0
14 -26 39 0
-3 7 16 0
-5 -56 60 0
23 -48 -59 0
1 26 -50 0
3 -25 49 0
-18 36 -57 0
-11 -49 59 0
-12 -43 50 0
2 15 -33 0
-27 38 51 0
-20 30 -37 0
6 -27 45 0
43 -49 -59 0
1 -27 -30 0
3 -13 22 0
30 53 60 0
-16 20 50 0
-4 17 -32 0
-35 39 -49 0
16 -22 51 0
-6 22 -50 0
-13 37 42 0
-18 35 -53 0
32 -41 -44 0
20 28 -30 0
5 14 44 0
27 29 -55 0
26 -38 43 0
3 -4 -5 0
4 17 49 0
-1 11 -15 0
-31 -37 45 0
16 37 -55 0
27 -35 -43 0
-1 36 46 0
-1 -31 -55 0
-9 42 -43 0
1 -49 55 0
-7 26 43 0
-4 23 -26 0
-22 42 -57 0
-2 -19 50 0
-8 -21 26 0
28 -30 60 0
-5 18 37 0
2 8 -47 0
28 -29 -55 0
-5 37 -54 0
31 -36 54 0
-11 13 22 0
-3 -13 -50 0
-4 15 -16 0
-1 28 -38 0
15 -17 34 0
17 -20 -51 0
1 -21 -36 0
10 30 52 0
4 33 -39 0
-19 43 -44 0
22 -25 -29 0
1 23 49 0
-12 -25 32 0
-18 24 42 0
13 -33 -58 0
-20 -21 -58 0
-9 53 60 0
-15 -43 49 0
8 41 58 0
4 8 -35 0
-12 33 40 0
-13 -27 39 0
12 -34 -37 0
2 9 -40 0
12 19 -55 0
-7 -28 -37 0
-2 12 15 0
21 -27 60 0
18 22 -50 0
6 -11 22 0
-28 32 -55 0
-35 36 54 0
7 48 -52 0
-30 -51 -54 0
-9 51 52 0
-9 -41 51 0
26 29 -51 0
-5 -56 -58 0
-27 41 -42 0
44 -49 55 0
-16 -28 -37 0
31 50 -57 0
-6 -15 -35 0
14 -16 44 0
38 -52 54 0
-13 -34 -52 0
-29 46 60 0
-43 46 50 0
-2 4 31 0
-19 26 -37 0
-11 23 -39 0
-40 42 -57 0
-17 -40 50 0
17 52 -56 0
-16 24 36 0
-3 -11 -56 0
12 23 -37 0
27 -28 -37 0
-12 26 32 0
27 -34 51 0
1 19 36 0
-31 -42 52 0
37 -46 -49 0
-3 -6 -8 0
-2 11 51 0
16 -42 -55 0
4 10 36 0
-14 -27 -35 0
12 24 -43 0
25 -49 52 0
27 32 46 0
20 -51 -55 0
1 20 50 0
-27 29 -31 0
23 -37 44 0
30 -37 -41 0
-37 -43 -44 0
-7 -29 57 0
-7 8 35 0
34 44 56 0
-17 42 -55 0
-16 31 -42 0
14 18 52 0
-21 32 -55 0
37 -45 59 0
26 31 -44 0
11 -37 58 0
24 -30 -53 0
22 -24 59 0
20 45 -55 0
21 -31 49 0
26 34 42 0
13 24 -60 0
-3 34 43 0
41 -42 46 0
3 -47 -52 0
23 -38 39 0
8 -46 -58 0
6 -21 34 0
26 51 60 0
2 10 -24 0
-6 32 41 0
30 46 -47 0
21 -49 50 0
8 25 52 0
22 -41 56 0
8 -23 24 0
-30 32 41 0
20 -31 33 0
2 13 -21 0
-29 37 -53 0
-6 -17 35 0
14 -48 53 0
15 -31 -37 0
16 -18 -35 0
34 -36 -48 0
-42 44 -55 0
-16 46 58 0
-28 -31 40 0
-9 13 -49 0
-34 -42 53 0
5 7 -8 0
7 -23 27 0
9 21 52 0
7 -34 -39 0
-2 7 41 0
15 30 -50 0
-13 -22 -35 0
-32 42 54 0
11 19 -29 0
12 46 -56 0
16 -20 25 0
27 48 -58 0
14 36 40 0
-30 31 33 0
-21 33 47 0
-22 -30 -38 0
-5 -36 60 0
-13 -21 -39 0
5 40 51 0
24 33 -53 0
16 38 -59 0
-6 17 -39 0
6 -11 -27 0
-6 -28 32 0
-25 -36 51 0
-7 -33 -60 0
-10 -22 23 0
-4 -22 -29 0
29 42 -50 0
10 17 50 0
