c description: Random 4-xor over 24 variables and 18 clauses
c generator: CNFgen (0.9.5)
c copyright: (C) 2012-2026 Massimo Lauria <massimo.lauria@uniroma1.it>
c url: https://massimolauria.net/cnfgen
c random seed: 31132
c command line: cnfgen -S 31132 -o cnfgen_regression_pack/cnfgen_cases/planted_rand4xor_v24_e18_s1_sat.cnf randkxor -p 4 24 18
c
c known_status: SAT
c pack_family: planted_randkxor
c pack_level: easy
c pack_notes: CNFgen planted random XOR encoded as CNF
p cnf 24 144
2 4 6 12 0
2 4 -6 -12 0
2 -4 6 -12 0
2 -4 -6 12 0
-2 4 6 -12 0
-2 4 -6 12 0
-2 -4 6 12 0
-2 -4 -6 -12 0
5 6 7 -10 0
5 6 -7 10 0
5 -6 7 10 0
5 -6 -7 -10 0
-5 6 7 10 0
-5 6 -7 -10 0
-5 -6 7 -10 0
-5 -6 -7 10 0
4 12 14 20 0
4 12 -14 -20 0
4 -12 14 -20 0
4 -12 -14 20 0
-4 12 14 -20 0
-4 12 -14 20 0
-4 -12 14 20 0
-4 -12 -14 -20 0
7 9 19 20 0
7 9 -19 -20 0
7 -9 19 -20 0
7 -9 -19 20 0
-7 9 19 -20 0
-7 9 -19 20 0
-7 -9 19 20 0
-7 -9 -19 -20 0
4 8 16 -19 0
4 8 -16 19 0
4 -8 16 19 0
4 -8 -16 -19 0
-4 8 16 19 0
-4 8 -16 -19 0
-4 -8 16 -19 0
-4 -8 -16 19 0
6 8 16 20 0
6 8 -16 -20 0
6 -8 16 -20 0
6 -8 -16 20 0
-6 8 16 -20 0
-6 8 -16 20 0
-6 -8 16 20 0
-6 -8 -16 -20 0
11 14 15 -18 0
11 14 -15 18 0
11 -14 15 18 0
11 -14 -15 -18 0
-11 14 15 18 0
-11 14 -15 -18 0
-11 -14 15 -18 0
-11 -14 -15 18 0
6 7 17 19 0
6 7 -17 -19 0
6 -7 17 -19 0
6 -7 -17 19 0
-6 7 17 -19 0
-6 7 -17 19 0
-6 -7 17 19 0
-6 -7 -17 -19 0
3 18 21 24 0
3 18 -21 -24 0
3 -18 21 -24 0
3 -18 -21 24 0
-3 18 21 -24 0
-3 18 -21 24 0
-3 -18 21 24 0
-3 -18 -21 -24 0
4 18 19 -22 0
4 18 -19 22 0
4 -18 19 22 0
4 -18 -19 -22 0
-4 18 19 22 0
-4 18 -19 -22 0
-4 -18 19 -22 0
-4 -18 -19 22 0
1 5 14 17 0
1 5 -14 -17 0
1 -5 14 -17 0
1 -5 -14 17 0
-1 5 14 -17 0
-1 5 -14 17 0
-1 -5 14 17 0
-1 -5 -14 -17 0
8 10 22 -23 0
8 10 -22 23 0
8 -10 22 23 0
8 -10 -22 -23 0
-8 10 22 23 0
-8 10 -22 -23 0
-8 -10 22 -23 0
-8 -10 -22 23 0
9 10 16 -18 0
9 10 -16 18 0
9 -10 16 18 0
9 -10 -16 -18 0
-9 10 16 18 0
-9 10 -16 -18 0
-9 -10 16 -18 0
-9 -10 -16 18 0
2 7 21 24 0
2 7 -21 -24 0
2 -7 21 -24 0
2 -7 -21 24 0
-2 7 21 -24 0
-2 7 -21 24 0
-2 -7 21 24 0
-2 -7 -21 -24 0
2 5 7 11 0
2 5 -7 -11 0
2 -5 7 -11 0
2 -5 -7 11 0
-2 5 7 -11 0
-2 5 -7 11 0
-2 -5 7 11 0
-2 -5 -7 -11 0
4 10 17 -18 0
4 10 -17 18 0
4 -10 17 18 0
4 -10 -17 -18 0
-4 10 17 18 0
-4 10 -17 -18 0
-4 -10 17 -18 0
-4 -10 -17 18 0
6 12 16 -21 0
6 12 -16 21 0
6 -12 16 21 0
6 -12 -16 -21 0
-6 12 16 21 0
-6 12 -16 -21 0
-6 -12 16 -21 0
-6 -12 -16 21 0
2 5 9 -10 0
2 5 -9 10 0
2 -5 9 10 0
2 -5 -9 -10 0
-2 5 9 10 0
-2 5 -9 -10 0
-2 -5 9 -10 0
-2 -5 -9 10 0
