c description: Random 2-CNF over 240 variables and 520 clauses
c generator: CNFgen (0.9.5)
c copyright: (C) 2012-2026 Massimo Lauria <massimo.lauria@uniroma1.it>
c url: https://massimolauria.net/cnfgen
c random seed: 31032
c command line: cnfgen -S 31032 -o cnfgen_regression_pack/cnfgen_cases/planted_rand2cnf_v240_m520_s3_sat.cnf randkcnf -p 2 240 520
c
c known_status: SAT
c pack_family: planted_randkcnf
c pack_level: stress
c pack_notes: CNFgen planted random k-CNF
p cnf 240 520
-93 -127 0
56 193 0
-41 43 0
-159 -184 0
-23 240 0
64 233 0
-121 -163 0
-40 194 0
39 -97 0
179 214 0
32 85 0
65 -183 0
9 -160 0
127 -232 0
-61 -230 0
9 34 0
-85 -141 0
67 -229 0
128 164 0
71 -75 0
75 77 0
-40 212 0
-131 137 0
-125 179 0
-162 215 0
80 203 0
-56 -88 0
-21 72 0
165 -211 0
-46 -139 0
-82 141 0
-82 -136 0
83 226 0
-37 80 0
99 122 0
6 -234 0
81 165 0
47 -111 0
20 -90 0
-48 137 0
-85 103 0
-2 64 0
147 220 0
108 -176 0
96 136 0
-44 -46 0
22 74 0
86 122 0
99 -219 0
-155 223 0
-17 -163 0
-62 72 0
-141 -189 0
-39 -76 0
9 -59 0
15 -25 0
117 -165 0
-79 152 0
-75 194 0
-113 205 0
38 112 0
-59 -204 0
138 -219 0
-25 132 0
-38 83 0
-52 88 0
16 211 0
2 72 0
7 -26 0
22 -31 0
29 -157 0
-16 -213 0
11 -99 0
-107 169 0
123 203 0
-56 75 0
-140 158 0
-90 -94 0
108 189 0
59 -155 0
69 -100 0
31 -121 0
47 -112 0
91 103 0
161 170 0
72 -206 0
131 -141 0
-10 183 0
-136 -168 0
52 71 0
-65 -129 0
17 159 0
-120 -174 0
17 163 0
-8 81 0
-18 29 0
118 -144 0
-76 196 0
75 140 0
93 -141 0
65 183 0
64 -111 0
-66 -216 0
49 165 0
-79 194 0
-149 223 0
-200 234 0
38 193 0
-59 -209 0
108 222 0
90 98 0
71 175 0
11 -127 0
61 169 0
-27 104 0
-11 -232 0
7 -95 0
-150 187 0
-192 214 0
-100 219 0
-24 205 0
18 188 0
6 126 0
32 113 0
-63 111 0
24 70 0
89 -209 0
60 92 0
140 184 0
-125 138 0
-12 193 0
-1 199 0
2 16 0
46 -58 0
29 203 0
3 195 0
-74 182 0
-111 228 0
-94 131 0
9 -79 0
46 49 0
7 -87 0
-103 148 0
66 -159 0
193 -221 0
10 -136 0
12 -94 0
-60 -156 0
6 237 0
-83 -117 0
4 9 0
-49 -64 0
-90 162 0
93 106 0
-145 -211 0
4 -18 0
206 -231 0
52 -227 0
186 -202 0
85 -202 0
145 -178 0
-53 -216 0
-45 -152 0
-199 -232 0
-196 -211 0
158 160 0
-109 221 0
47 194 0
17 212 0
138 196 0
101 220 0
99 -193 0
-61 142 0
-25 124 0
-41 186 0
17 127 0
-102 220 0
138 173 0
-6 182 0
15 -152 0
62 200 0
-99 -191 0
-85 -204 0
65 109 0
-211 -233 0
108 157 0
7 -53 0
-35 -96 0
33 174 0
39 125 0
96 -212 0
-38 -173 0
-45 169 0
13 162 0
3 -64 0
40 186 0
84 147 0
-89 -192 0
4 -89 0
-57 -126 0
-138 -201 0
60 -155 0
216 -236 0
-141 201 0
147 -163 0
111 183 0
-196 -201 0
-117 -139 0
-36 -117 0
-14 172 0
104 148 0
-93 239 0
135 229 0
-139 -208 0
182 196 0
-97 -192 0
8 -105 0
92 -190 0
4 -28 0
84 -198 0
121 -163 0
156 223 0
47 100 0
44 67 0
-226 -240 0
-78 -192 0
53 -195 0
196 -226 0
19 79 0
-216 238 0
48 -97 0
-157 192 0
-112 229 0
-140 146 0
99 -161 0
180 182 0
65 173 0
-2 205 0
150 -201 0
-25 154 0
-115 237 0
-57 132 0
101 -234 0
52 -93 0
26 -96 0
89 146 0
-69 113 0
170 174 0
-67 220 0
91 141 0
32 152 0
-59 216 0
-117 -159 0
-94 -233 0
140 -188 0
58 -239 0
-107 229 0
87 -161 0
7 200 0
128 -212 0
29 77 0
1 133 0
-50 191 0
-11 -145 0
-13 -234 0
36 -215 0
26 131 0
-162 190 0
87 -152 0
34 -178 0
-170 -230 0
56 62 0
41 -117 0
10 26 0
-101 206 0
78 -223 0
-31 172 0
-151 206 0
53 55 0
-143 150 0
-81 235 0
16 125 0
-116 -140 0
48 -73 0
-83 219 0
72 -124 0
182 -195 0
71 110 0
-36 -192 0
-48 -122 0
-109 -171 0
1 -240 0
74 163 0
-4 -120 0
106 136 0
190 233 0
-2 95 0
-202 -213 0
170 202 0
-178 206 0
135 205 0
-158 175 0
-10 81 0
-66 -163 0
-167 234 0
-69 144 0
-85 169 0
-50 -59 0
-105 170 0
136 149 0
153 -196 0
-63 -72 0
-55 -121 0
70 193 0
11 -128 0
-127 -239 0
-69 -176 0
17 -230 0
140 -232 0
-24 185 0
-120 -184 0
4 -172 0
-3 133 0
-83 -166 0
-8 231 0
93 -173 0
2 -173 0
-217 -224 0
109 136 0
-52 -64 0
-55 98 0
-108 -177 0
-4 -207 0
-138 -227 0
54 -59 0
-94 138 0
14 -155 0
-129 -174 0
-104 227 0
66 -136 0
25 -134 0
212 226 0
79 80 0
59 103 0
9 198 0
169 -239 0
-157 -176 0
-50 236 0
206 -239 0
97 -218 0
106 119 0
-160 227 0
132 203 0
97 101 0
47 -106 0
77 89 0
91 100 0
-84 124 0
-5 -194 0
62 -116 0
-122 -124 0
-90 -132 0
158 -178 0
137 -158 0
-135 -170 0
67 -81 0
199 -233 0
39 54 0
9 140 0
-138 -211 0
61 -107 0
83 -201 0
-44 69 0
81 -130 0
137 231 0
-117 150 0
42 87 0
168 -173 0
29 163 0
49 -112 0
80 153 0
-3 -77 0
-138 -171 0
165 -218 0
2 -212 0
38 144 0
32 -210 0
194 -205 0
-177 211 0
-20 108 0
-12 70 0
-18 -170 0
-122 -218 0
-63 72 0
-10 224 0
45 -212 0
-134 -141 0
-52 -186 0
96 -214 0
-186 203 0
-235 -238 0
178 -214 0
103 132 0
-208 237 0
44 -100 0
54 149 0
-55 197 0
-78 196 0
-50 158 0
-10 -135 0
-16 184 0
-25 -128 0
3 -215 0
-165 -171 0
39 -225 0
102 206 0
-18 -173 0
-82 -89 0
-98 154 0
-10 -153 0
60 74 0
1 -156 0
49 203 0
56 -168 0
-113 176 0
70 178 0
-126 -174 0
112 -175 0
146 -186 0
80 -142 0
42 175 0
-139 204 0
-216 228 0
148 210 0
-28 -55 0
-149 -236 0
-1 69 0
-145 190 0
-32 -56 0
-4 -44 0
-110 226 0
-102 151 0
29 -38 0
-163 -174 0
-104 210 0
92 192 0
-134 224 0
103 111 0
-23 -221 0
-148 -155 0
7 -180 0
29 -168 0
-95 -131 0
-217 240 0
-121 174 0
66 -100 0
-56 195 0
181 -235 0
51 61 0
-36 -230 0
55 -174 0
9 48 0
62 141 0
-164 230 0
-27 48 0
48 -50 0
19 207 0
-149 -159 0
-111 197 0
-2 -109 0
-156 -223 0
36 -189 0
70 -178 0
-73 -156 0
114 -127 0
-155 -238 0
59 -94 0
-5 -30 0
-104 142 0
-23 -162 0
-17 21 0
97 182 0
-58 189 0
-120 -139 0
-57 235 0
125 156 0
61 -236 0
-54 202 0
-7 -119 0
89 -104 0
-124 169 0
111 -217 0
17 229 0
-20 62 0
48 77 0
-103 -232 0
-22 70 0
-34 -141 0
-53 -59 0
132 153 0
-85 91 0
76 -157 0
140 145 0
43 -235 0
-38 192 0
33 168 0
10 225 0
66 -110 0
15 57 0
-218 240 0
-15 48 0
-13 -69 0
108 205 0
30 74 0
-217 -229 0
-40 41 0
-102 -119 0
-59 186 0
-104 178 0
-58 -199 0
