c description: Random 3-xor over 128 variables and 180 clauses
c generator: CNFgen (0.9.5)
c copyright: (C) 2012-2026 Massimo Lauria <massimo.lauria@uniroma1.it>
c url: https://massimolauria.net/cnfgen
c random seed: 31125
c command line: cnfgen -S 31125 -o cnfgen_regression_pack/cnfgen_cases/planted_rand3xor_v128_e180_s1_sat.cnf randkxor -p 3 128 180
c
c known_status: SAT
c pack_family: planted_randkxor
c pack_level: stress
c pack_notes: CNFgen planted random XOR encoded as CNF
p cnf 128 720
52 72 -87 0
52 -72 87 0
-52 72 87 0
-52 -72 -87 0
13 57 118 0
13 -57 -118 0
-13 57 -118 0
-13 -57 118 0
4 61 106 0
4 -61 -106 0
-4 61 -106 0
-4 -61 106 0
7 76 -123 0
7 -76 123 0
-7 76 123 0
-7 -76 -123 0
78 89 125 0
78 -89 -125 0
-78 89 -125 0
-78 -89 125 0
30 41 44 0
30 -41 -44 0
-30 41 -44 0
-30 -41 44 0
13 76 107 0
13 -76 -107 0
-13 76 -107 0
-13 -76 107 0
58 69 90 0
58 -69 -90 0
-58 69 -90 0
-58 -69 90 0
14 43 57 0
14 -43 -57 0
-14 43 -57 0
-14 -43 57 0
4 65 -104 0
4 -65 104 0
-4 65 104 0
-4 -65 -104 0
1 30 -77 0
1 -30 77 0
-1 30 77 0
-1 -30 -77 0
65 94 102 0
65 -94 -102 0
-65 94 -102 0
-65 -94 102 0
51 112 -118 0
51 -112 118 0
-51 112 118 0
-51 -112 -118 0
34 115 -116 0
34 -115 116 0
-34 115 116 0
-34 -115 -116 0
1 40 -64 0
1 -40 64 0
-1 40 64 0
-1 -40 -64 0
42 75 -112 0
42 -75 112 0
-42 75 112 0
-42 -75 -112 0
40 67 90 0
40 -67 -90 0
-40 67 -90 0
-40 -67 90 0
38 46 116 0
38 -46 -116 0
-38 46 -116 0
-38 -46 116 0
6 53 98 0
6 -53 -98 0
-6 53 -98 0
-6 -53 98 0
8 58 -73 0
8 -58 73 0
-8 58 73 0
-8 -58 -73 0
46 95 104 0
46 -95 -104 0
-46 95 -104 0
-46 -95 104 0
10 21 107 0
10 -21 -107 0
-10 21 -107 0
-10 -21 107 0
23 53 -68 0
23 -53 68 0
-23 53 68 0
-23 -53 -68 0
48 66 -89 0
48 -66 89 0
-48 66 89 0
-48 -66 -89 0
3 73 93 0
3 -73 -93 0
-3 73 -93 0
-3 -73 93 0
45 46 -61 0
45 -46 61 0
-45 46 61 0
-45 -46 -61 0
10 26 46 0
10 -26 -46 0
-10 26 -46 0
-10 -26 46 0
86 120 124 0
86 -120 -124 0
-86 120 -124 0
-86 -120 124 0
41 50 -128 0
41 -50 128 0
-41 50 128 0
-41 -50 -128 0
65 87 -128 0
65 -87 128 0
-65 87 128 0
-65 -87 -128 0
45 100 -111 0
45 -100 111 0
-45 100 111 0
-45 -100 -111 0
8 30 36 0
8 -30 -36 0
-8 30 -36 0
-8 -30 36 0
31 34 -44 0
31 -34 44 0
-31 34 44 0
-31 -34 -44 0
3 102 114 0
3 -102 -114 0
-3 102 -114 0
-3 -102 114 0
1 43 63 0
1 -43 -63 0
-1 43 -63 0
-1 -43 63 0
13 47 -60 0
13 -47 60 0
-13 47 60 0
-13 -47 -60 0
75 92 125 0
75 -92 -125 0
-75 92 -125 0
-75 -92 125 0
82 112 126 0
82 -112 -126 0
-82 112 -126 0
-82 -112 126 0
1 14 -100 0
1 -14 100 0
-1 14 100 0
-1 -14 -100 0
53 76 123 0
53 -76 -123 0
-53 76 -123 0
-53 -76 123 0
18 77 91 0
18 -77 -91 0
-18 77 -91 0
-18 -77 91 0
27 85 106 0
27 -85 -106 0
-27 85 -106 0
-27 -85 106 0
14 34 -82 0
14 -34 82 0
-14 34 82 0
-14 -34 -82 0
5 86 93 0
5 -86 -93 0
-5 86 -93 0
-5 -86 93 0
29 109 128 0
29 -109 -128 0
-29 109 -128 0
-29 -109 128 0
28 61 84 0
28 -61 -84 0
-28 61 -84 0
-28 -61 84 0
11 90 119 0
11 -90 -119 0
-11 90 -119 0
-11 -90 119 0
6 18 -58 0
6 -18 58 0
-6 18 58 0
-6 -18 -58 0
16 81 121 0
16 -81 -121 0
-16 81 -121 0
-16 -81 121 0
13 49 -106 0
13 -49 106 0
-13 49 106 0
-13 -49 -106 0
14 35 -103 0
14 -35 103 0
-14 35 103 0
-14 -35 -103 0
20 56 112 0
20 -56 -112 0
-20 56 -112 0
-20 -56 112 0
37 61 94 0
37 -61 -94 0
-37 61 -94 0
-37 -61 94 0
74 103 117 0
74 -103 -117 0
-74 103 -117 0
-74 -103 117 0
1 48 -111 0
1 -48 111 0
-1 48 111 0
-1 -48 -111 0
38 59 94 0
38 -59 -94 0
-38 59 -94 0
-38 -59 94 0
34 43 -90 0
34 -43 90 0
-34 43 90 0
-34 -43 -90 0
32 58 59 0
32 -58 -59 0
-32 58 -59 0
-32 -58 59 0
13 36 110 0
13 -36 -110 0
-13 36 -110 0
-13 -36 110 0
23 34 106 0
23 -34 -106 0
-23 34 -106 0
-23 -34 106 0
5 28 -120 0
5 -28 120 0
-5 28 120 0
-5 -28 -120 0
49 102 -115 0
49 -102 115 0
-49 102 115 0
-49 -102 -115 0
77 105 117 0
77 -105 -117 0
-77 105 -117 0
-77 -105 117 0
17 28 -122 0
17 -28 122 0
-17 28 122 0
-17 -28 -122 0
48 61 -86 0
48 -61 86 0
-48 61 86 0
-48 -61 -86 0
16 79 -106 0
16 -79 106 0
-16 79 106 0
-16 -79 -106 0
11 36 65 0
11 -36 -65 0
-11 36 -65 0
-11 -36 65 0
70 76 -101 0
70 -76 101 0
-70 76 101 0
-70 -76 -101 0
65 108 123 0
65 -108 -123 0
-65 108 -123 0
-65 -108 123 0
22 96 -102 0
22 -96 102 0
-22 96 102 0
-22 -96 -102 0
21 58 -75 0
21 -58 75 0
-21 58 75 0
-21 -58 -75 0
25 95 -118 0
25 -95 118 0
-25 95 118 0
-25 -95 -118 0
80 118 126 0
80 -118 -126 0
-80 118 -126 0
-80 -118 126 0
16 24 -58 0
16 -24 58 0
-16 24 58 0
-16 -24 -58 0
8 76 121 0
8 -76 -121 0
-8 76 -121 0
-8 -76 121 0
35 84 -105 0
35 -84 105 0
-35 84 105 0
-35 -84 -105 0
35 78 -98 0
35 -78 98 0
-35 78 98 0
-35 -78 -98 0
6 86 101 0
6 -86 -101 0
-6 86 -101 0
-6 -86 101 0
7 58 59 0
7 -58 -59 0
-7 58 -59 0
-7 -58 59 0
7 32 -103 0
7 -32 103 0
-7 32 103 0
-7 -32 -103 0
24 58 -66 0
24 -58 66 0
-24 58 66 0
-24 -58 -66 0
14 34 -77 0
14 -34 77 0
-14 34 77 0
-14 -34 -77 0
3 10 15 0
3 -10 -15 0
-3 10 -15 0
-3 -10 15 0
15 98 122 0
15 -98 -122 0
-15 98 -122 0
-15 -98 122 0
10 76 97 0
10 -76 -97 0
-10 76 -97 0
-10 -76 97 0
37 118 123 0
37 -118 -123 0
-37 118 -123 0
-37 -118 123 0
56 77 -106 0
56 -77 106 0
-56 77 106 0
-56 -77 -106 0
36 63 -111 0
36 -63 111 0
-36 63 111 0
-36 -63 -111 0
19 23 -78 0
19 -23 78 0
-19 23 78 0
-19 -23 -78 0
25 43 72 0
25 -43 -72 0
-25 43 -72 0
-25 -43 72 0
64 70 -108 0
64 -70 108 0
-64 70 108 0
-64 -70 -108 0
16 26 71 0
16 -26 -71 0
-16 26 -71 0
-16 -26 71 0
28 84 -120 0
28 -84 120 0
-28 84 120 0
-28 -84 -120 0
35 52 74 0
35 -52 -74 0
-35 52 -74 0
-35 -52 74 0
17 51 -75 0
17 -51 75 0
-17 51 75 0
-17 -51 -75 0
37 49 50 0
37 -49 -50 0
-37 49 -50 0
-37 -49 50 0
13 100 -125 0
13 -100 125 0
-13 100 125 0
-13 -100 -125 0
22 42 91 0
22 -42 -91 0
-22 42 -91 0
-22 -42 91 0
49 56 88 0
49 -56 -88 0
-49 56 -88 0
-49 -56 88 0
22 55 -58 0
22 -55 58 0
-22 55 58 0
-22 -55 -58 0
2 102 -123 0
2 -102 123 0
-2 102 123 0
-2 -102 -123 0
83 117 128 0
83 -117 -128 0
-83 117 -128 0
-83 -117 128 0
64 83 116 0
64 -83 -116 0
-64 83 -116 0
-64 -83 116 0
109 120 -121 0
109 -120 121 0
-109 120 121 0
-109 -120 -121 0
45 87 -99 0
45 -87 99 0
-45 87 99 0
-45 -87 -99 0
28 65 114 0
28 -65 -114 0
-28 65 -114 0
-28 -65 114 0
31 84 95 0
31 -84 -95 0
-31 84 -95 0
-31 -84 95 0
36 41 -72 0
36 -41 72 0
-36 41 72 0
-36 -41 -72 0
5 55 100 0
5 -55 -100 0
-5 55 -100 0
-5 -55 100 0
28 39 -75 0
28 -39 75 0
-28 39 75 0
-28 -39 -75 0
9 32 -77 0
9 -32 77 0
-9 32 77 0
-9 -32 -77 0
14 20 -40 0
14 -20 40 0
-14 20 40 0
-14 -20 -40 0
7 21 82 0
7 -21 -82 0
-7 21 -82 0
-7 -21 82 0
93 95 104 0
93 -95 -104 0
-93 95 -104 0
-93 -95 104 0
68 102 111 0
68 -102 -111 0
-68 102 -111 0
-68 -102 111 0
11 35 52 0
11 -35 -52 0
-11 35 -52 0
-11 -35 52 0
27 58 71 0
27 -58 -71 0
-27 58 -71 0
-27 -58 71 0
47 75 113 0
47 -75 -113 0
-47 75 -113 0
-47 -75 113 0
23 89 -111 0
23 -89 111 0
-23 89 111 0
-23 -89 -111 0
32 112 117 0
32 -112 -117 0
-32 112 -117 0
-32 -112 117 0
61 74 -105 0
61 -74 105 0
-61 74 105 0
-61 -74 -105 0
61 122 -126 0
61 -122 126 0
-61 122 126 0
-61 -122 -126 0
2 97 104 0
2 -97 -104 0
-2 97 -104 0
-2 -97 104 0
30 32 116 0
30 -32 -116 0
-30 32 -116 0
-30 -32 116 0
3 17 -84 0
3 -17 84 0
-3 17 84 0
-3 -17 -84 0
31 39 -106 0
31 -39 106 0
-31 39 106 0
-31 -39 -106 0
67 112 -114 0
67 -112 114 0
-67 112 114 0
-67 -112 -114 0
9 56 69 0
9 -56 -69 0
-9 56 -69 0
-9 -56 69 0
12 95 96 0
12 -95 -96 0
-12 95 -96 0
-12 -95 96 0
7 92 -121 0
7 -92 121 0
-7 92 121 0
-7 -92 -121 0
19 116 123 0
19 -116 -123 0
-19 116 -123 0
-19 -116 123 0
48 71 72 0
48 -71 -72 0
-48 71 -72 0
-48 -71 72 0
43 75 -92 0
43 -75 92 0
-43 75 92 0
-43 -75 -92 0
27 57 61 0
27 -57 -61 0
-27 57 -61 0
-27 -57 61 0
39 51 -109 0
39 -51 109 0
-39 51 109 0
-39 -51 -109 0
66 75 -79 0
66 -75 79 0
-66 75 79 0
-66 -75 -79 0
105 113 -127 0
105 -113 127 0
-105 113 127 0
-105 -113 -127 0
7 43 -116 0
7 -43 116 0
-7 43 116 0
-7 -43 -116 0
28 55 -76 0
28 -55 76 0
-28 55 76 0
-28 -55 -76 0
37 43 -72 0
37 -43 72 0
-37 43 72 0
-37 -43 -72 0
40 44 90 0
40 -44 -90 0
-40 44 -90 0
-40 -44 90 0
9 64 -109 0
9 -64 109 0
-9 64 109 0
-9 -64 -109 0
21 92 -107 0
21 -92 107 0
-21 92 107 0
-21 -92 -107 0
10 13 90 0
10 -13 -90 0
-10 13 -90 0
-10 -13 90 0
23 46 -85 0
23 -46 85 0
-23 46 85 0
-23 -46 -85 0
4 80 -121 0
4 -80 121 0
-4 80 121 0
-4 -80 -121 0
8 11 -56 0
8 -11 56 0
-8 11 56 0
-8 -11 -56 0
33 67 102 0
33 -67 -102 0
-33 67 -102 0
-33 -67 102 0
46 63 114 0
46 -63 -114 0
-46 63 -114 0
-46 -63 114 0
52 72 112 0
52 -72 -112 0
-52 72 -112 0
-52 -72 112 0
1 33 108 0
1 -33 -108 0
-1 33 -108 0
-1 -33 108 0
13 17 115 0
13 -17 -115 0
-13 17 -115 0
-13 -17 115 0
78 84 -119 0
78 -84 119 0
-78 84 119 0
-78 -84 -119 0
2 7 -60 0
2 -7 60 0
-2 7 60 0
-2 -7 -60 0
79 81 113 0
79 -81 -113 0
-79 81 -113 0
-79 -81 113 0
3 28 -72 0
3 -28 72 0
-3 28 72 0
-3 -28 -72 0
8 49 -116 0
8 -49 116 0
-8 49 116 0
-8 -49 -116 0
39 42 85 0
39 -42 -85 0
-39 42 -85 0
-39 -42 85 0
10 28 78 0
10 -28 -78 0
-10 28 -78 0
-10 -28 78 0
12 110 -113 0
12 -110 113 0
-12 110 113 0
-12 -110 -113 0
23 83 -127 0
23 -83 127 0
-23 83 127 0
-23 -83 -127 0
19 70 -101 0
19 -70 101 0
-19 70 101 0
-19 -70 -101 0
102 104 120 0
102 -104 -120 0
-102 104 -120 0
-102 -104 120 0
7 22 -56 0
7 -22 56 0
-7 22 56 0
-7 -22 -56 0
83 88 95 0
83 -88 -95 0
-83 88 -95 0
-83 -88 95 0
19 38 -64 0
19 -38 64 0
-19 38 64 0
-19 -38 -64 0
94 118 126 0
94 -118 -126 0
-94 118 -126 0
-94 -118 126 0
29 63 103 0
29 -63 -103 0
-29 63 -103 0
-29 -63 103 0
73 97 -104 0
73 -97 104 0
-73 97 104 0
-73 -97 -104 0
30 84 116 0
30 -84 -116 0
-30 84 -116 0
-30 -84 116 0
7 95 -98 0
7 -95 98 0
-7 95 98 0
-7 -95 -98 0
14 83 -85 0
14 -83 85 0
-14 83 85 0
-14 -83 -85 0
70 80 -92 0
70 -80 92 0
-70 80 92 0
-70 -80 -92 0
57 104 -123 0
57 -104 123 0
-57 104 123 0
-57 -104 -123 0
17 92 -118 0
17 -92 118 0
-17 92 118 0
-17 -92 -118 0
106 121 127 0
106 -121 -127 0
-106 121 -127 0
-106 -121 127 0
69 112 -115 0
69 -112 115 0
-69 112 115 0
-69 -112 -115 0
16 52 111 0
16 -52 -111 0
-16 52 -111 0
-16 -52 111 0
3 4 31 0
3 -4 -31 0
-3 4 -31 0
-3 -4 31 0
49 77 -90 0
49 -77 90 0
-49 77 90 0
-49 -77 -90 0
