c description: Random 3-xor over 24 variables and 24 clauses
c generator: CNFgen (0.9.5)
c copyright: (C) 2012-2026 Massimo Lauria <massimo.lauria@uniroma1.it>
c url: https://massimolauria.net/cnfgen
c random seed: 31120
c command line: cnfgen -S 31120 -o cnfgen_regression_pack/cnfgen_cases/planted_rand3xor_v24_e24_s1_sat.cnf randkxor -p 3 24 24
c
c known_status: SAT
c pack_family: planted_randkxor
c pack_level: easy
c pack_notes: CNFgen planted random XOR encoded as CNF
p cnf 24 96
2 18 -21 0
2 -18 21 0
-2 18 21 0
-2 -18 -21 0
12 16 20 0
12 -16 -20 0
-12 16 -20 0
-12 -16 20 0
1 6 -23 0
1 -6 23 0
-1 6 23 0
-1 -6 -23 0
6 13 -19 0
6 -13 19 0
-6 13 19 0
-6 -13 -19 0
3 13 -21 0
3 -13 21 0
-3 13 21 0
-3 -13 -21 0
5 14 -21 0
5 -14 21 0
-5 14 21 0
-5 -14 -21 0
4 8 13 0
4 -8 -13 0
-4 8 -13 0
-4 -8 13 0
1 2 -5 0
1 -2 5 0
-1 2 5 0
-1 -2 -5 0
13 15 20 0
13 -15 -20 0
-13 15 -20 0
-13 -15 20 0
11 22 -24 0
11 -22 24 0
-11 22 24 0
-11 -22 -24 0
8 11 -23 0
8 -11 23 0
-8 11 23 0
-8 -11 -23 0
12 14 20 0
12 -14 -20 0
-12 14 -20 0
-12 -14 20 0
4 6 21 0
4 -6 -21 0
-4 6 -21 0
-4 -6 21 0
9 14 15 0
9 -14 -15 0
-9 14 -15 0
-9 -14 15 0
2 16 -23 0
2 -16 23 0
-2 16 23 0
-2 -16 -23 0
1 5 -16 0
1 -5 16 0
-1 5 16 0
-1 -5 -16 0
4 10 21 0
4 -10 -21 0
-4 10 -21 0
-4 -10 21 0
11 21 22 0
11 -21 -22 0
-11 21 -22 0
-11 -21 22 0
10 20 -22 0
10 -20 22 0
-10 20 22 0
-10 -20 -22 0
1 5 -22 0
1 -5 22 0
-1 5 22 0
-1 -5 -22 0
4 18 20 0
4 -18 -20 0
-4 18 -20 0
-4 -18 20 0
3 12 -20 0
3 -12 20 0
-3 12 20 0
-3 -12 -20 0
13 17 -23 0
13 -17 23 0
-13 17 23 0
-13 -17 -23 0
17 20 -22 0
17 -20 22 0
-17 20 22 0
-17 -20 -22 0
