c description: Random 3-CNF over 90 variables and 380 clauses
c generator: CNFgen (0.9.5)
c copyright: (C) 2012-2026 Massimo Lauria <massimo.lauria@uniroma1.it>
c url: https://massimolauria.net/cnfgen
c random seed: 31035
c command line: cnfgen -S 31035 -o cnfgen_regression_pack/cnfgen_cases/planted_rand3cnf_v90_m380_s1_sat.cnf randkcnf -p 3 90 380
c
c known_status: SAT
c pack_family: planted_randkcnf
c pack_level: moderate
c pack_notes: CNFgen planted random k-CNF
p cnf 90 380
14 16 -20 0
20 77 82 0
30 -45 86 0
29 -44 62 0
-12 -50 -89 0
-2 42 45 0
43 -56 -90 0
-47 51 81 0
9 46 80 0
-15 -55 85 0
-43 62 -70 0
26 39 -49 0
34 -39 -86 0
-16 46 -53 0
27 30 76 0
-8 -45 73 0
-5 -33 -58 0
18 47 -81 0
6 12 84 0
-23 57 -66 0
18 66 67 0
9 53 -62 0
8 65 -74 0
-7 43 66 0
-13 -52 85 0
3 -39 89 0
5 -13 -81 0
-76 -78 -79 0
-10 -30 87 0
-18 52 65 0
-39 -75 80 0
-23 -34 -87 0
6 79 -81 0
-2 37 71 0
-1 9 31 0
7 70 -75 0
57 -73 -90 0
-34 65 77 0
3 16 58 0
32 35 49 0
36 -54 90 0
-15 76 81 0
-47 74 83 0
56 -73 -81 0
-43 -67 -78 0
-8 -12 -72 0
8 28 -67 0
9 -20 -47 0
-39 -40 71 0
10 18 -58 0
-18 -25 33 0
-15 -39 -86 0
23 -44 58 0
75 -79 -89 0
-26 -37 53 0
17 -20 85 0
20 -40 -83 0
45 -74 90 0
37 -44 -64 0
2 31 -34 0
-18 25 70 0
-67 -75 -79 0
6 10 -82 0
26 -60 -87 0
-5 13 -19 0
-13 -33 50 0
17 -29 -47 0
35 74 80 0
56 -80 -84 0
-6 -30 -59 0
19 32 45 0
-11 63 69 0
28 -38 66 0
38 42 51 0
3 33 -65 0
-40 47 63 0
14 38 -76 0
-2 11 87 0
-33 78 83 0
17 48 -83 0
13 17 -35 0
45 76 -88 0
-16 38 -82 0
-52 -63 -77 0
2 -81 82 0
27 58 -63 0
22 75 -78 0
7 25 53 0
-19 -39 74 0
-13 67 72 0
37 -42 -50 0
11 -50 -77 0
-2 10 72 0
-12 -29 32 0
3 27 36 0
10 -18 -28 0
49 58 61 0
-3 -33 37 0
-29 -61 63 0
10 -18 37 0
-11 14 57 0
-56 -70 -77 0
63 -74 -83 0
-28 72 -90 0
10 -56 -57 0
18 33 -45 0
-27 32 -89 0
-3 59 89 0
-24 52 83 0
48 65 -66 0
19 52 56 0
54 70 73 0
4 23 -38 0
44 -51 55 0
-32 67 -83 0
-11 -54 75 0
-48 -71 75 0
11 76 -80 0
-27 -30 56 0
65 67 -68 0
32 84 -89 0
-6 16 -63 0
9 68 -70 0
-1 -50 61 0
47 58 79 0
-10 14 -61 0
-13 -31 58 0
26 52 55 0
10 39 -63 0
22 26 -57 0
48 -72 77 0
7 -21 77 0
38 -67 -70 0
18 -32 -55 0
-30 -46 -59 0
9 31 49 0
18 -43 -72 0
-15 31 78 0
-8 10 27 0
-6 43 -81 0
80 -84 -90 0
14 16 70 0
39 -41 -54 0
38 40 82 0
-18 -38 88 0
14 76 -88 0
21 -83 -84 0
-33 -38 53 0
-34 49 83 0
-19 -28 -33 0
-7 27 40 0
5 19 43 0
-44 -45 76 0
-31 -40 82 0
4 70 76 0
-60 74 80 0
30 -49 -61 0
27 40 51 0
9 27 -40 0
35 43 62 0
-17 -26 65 0
-11 -55 -62 0
-47 -74 86 0
-5 8 60 0
13 -58 65 0
28 47 82 0
62 -71 -87 0
24 65 77 0
17 -20 33 0
-2 -10 -57 0
16 -57 63 0
18 22 -46 0
47 52 -76 0
-29 50 -70 0
-37 73 79 0
5 -54 68 0
42 56 -73 0
2 -36 -52 0
15 -25 62 0
25 -54 56 0
-52 -54 75 0
-24 36 67 0
-53 -64 -70 0
-4 -13 50 0
-15 27 -42 0
7 -37 79 0
-2 11 -84 0
9 -51 84 0
2 -57 63 0
-23 25 56 0
-10 38 68 0
58 84 -90 0
-49 53 66 0
4 -24 79 0
30 65 -89 0
9 -35 55 0
29 -60 -73 0
-19 -82 -89 0
35 54 -78 0
18 20 -78 0
20 46 -71 0
-24 26 -37 0
3 -68 70 0
63 -79 -83 0
2 27 -31 0
-14 20 80 0
40 69 78 0
-48 66 90 0
11 15 -51 0
-9 16 89 0
-21 77 80 0
-7 -71 -82 0
20 49 -88 0
-1 -35 -41 0
10 29 -84 0
-32 42 77 0
14 16 67 0
42 56 -81 0
10 14 -52 0
-21 22 -77 0
-9 45 52 0
-23 24 -77 0
37 -40 70 0
-46 -73 87 0
52 72 89 0
-15 -31 -44 0
-16 67 73 0
1 -40 -70 0
-1 4 15 0
-64 -82 -86 0
-20 -21 28 0
-58 83 -86 0
11 35 68 0
-8 15 -45 0
9 63 84 0
6 46 60 0
33 -68 72 0
-12 -66 -90 0
-33 -53 87 0
-43 -76 89 0
14 -29 46 0
20 -40 -51 0
-19 -73 -90 0
14 -39 -85 0
-41 -57 -90 0
-10 -40 42 0
55 60 -84 0
12 -23 48 0
-41 46 -83 0
-50 55 -83 0
-39 -44 -90 0
42 -84 -87 0
76 -79 87 0
4 18 77 0
-62 -66 -80 0
-14 25 -30 0
28 -33 -35 0
-57 75 -87 0
39 -56 78 0
-19 71 73 0
11 44 80 0
-29 -78 -82 0
-14 17 73 0
-39 -40 73 0
-24 -43 -81 0
-34 83 88 0
26 57 -67 0
-21 27 52 0
25 45 58 0
5 38 -59 0
-12 40 86 0
-19 -22 -83 0
13 37 59 0
-15 -53 81 0
2 45 84 0
10 25 -42 0
54 74 80 0
-28 -51 79 0
-47 55 89 0
-15 -40 -61 0
4 -27 -38 0
59 71 -84 0
26 47 72 0
-25 37 -40 0
45 -56 -75 0
-12 -15 -34 0
6 81 -89 0
-30 -61 -72 0
41 43 -84 0
-26 -56 -57 0
40 71 81 0
-9 -17 -50 0
-4 -22 -88 0
-17 -20 70 0
-37 56 -61 0
15 59 65 0
-29 -32 63 0
-28 -30 -66 0
-25 -43 -89 0
2 -35 -39 0
-40 61 -85 0
44 -76 88 0
-30 65 -76 0
32 -48 85 0
-1 48 -75 0
-1 -63 -69 0
26 -41 60 0
19 -51 63 0
26 27 -82 0
58 -59 78 0
-11 32 61 0
36 57 60 0
31 -45 -87 0
-2 33 80 0
11 26 88 0
-32 51 -66 0
9 -16 53 0
10 16 -72 0
-2 -50 -55 0
-1 27 -44 0
36 63 73 0
26 -67 -74 0
-1 23 -73 0
-2 23 -78 0
21 77 85 0
21 -22 -90 0
10 -30 -37 0
-6 -30 -32 0
62 80 -87 0
-32 37 38 0
11 39 -70 0
-12 28 56 0
-7 53 -54 0
15 -51 79 0
-7 -67 78 0
16 22 -60 0
-14 41 -78 0
35 74 76 0
53 81 83 0
-8 29 90 0
29 45 69 0
35 56 -71 0
53 57 -60 0
57 -61 88 0
14 -34 63 0
23 -45 65 0
-57 -63 -73 0
-17 53 -88 0
-21 24 -28 0
-5 39 -44 0
-9 32 -80 0
28 74 83 0
10 -65 -73 0
-17 -21 84 0
-30 -41 81 0
-19 -53 65 0
-50 -75 -79 0
4 21 66 0
-77 78 -79 0
-38 53 -87 0
-57 -83 -84 0
32 75 -76 0
3 28 74 0
26 -57 70 0
4 -32 -47 0
5 -22 54 0
-15 -65 84 0
12 20 58 0
2 -18 -71 0
59 65 -67 0
-53 75 -79 0
1 42 70 0
-17 50 -84 0
-33 -39 45 0
35 -47 -77 0
-20 26 -83 0
13 46 48 0
-55 -83 84 0
-3 -12 54 0
1 -18 -22 0
