c description: Random 3-CNF over 120 variables and 510 clauses
c generator: CNFgen (0.9.5)
c copyright: (C) 2012-2026 Massimo Lauria <massimo.lauria@uniroma1.it>
c url: https://massimolauria.net/cnfgen
c random seed: 31036
c command line: cnfgen -S 31036 -o cnfgen_regression_pack/cnfgen_cases/planted_rand3cnf_v120_m510_s1_sat.cnf randkcnf -p 3 120 510
c
c known_status: SAT
c pack_family: planted_randkcnf
c pack_level: moderate
c pack_notes: CNFgen planted random k-CNF
p cnf 120 510
-21 -65 -109 0
-12 -15 -84 0
-23 30 118 0
-33 -39 98 0
-25 -39 -98 0
-49 -59 -97 0
-82 -90 -96 0
2 -24 -37 0
-35 47 -62 0
26 -46 58 0
-12 -18 -19 0
27 62 -112 0
-9 -65 102 0
41 47 59 0
-28 34 -96 0
8 -16 -101 0
11 95 106 0
16 -37 -47 0
22 -64 84 0
-19 55 98 0
-35 -44 85 0
16 -52 69 0
22 -40 -56 0
73 79 111 0
24 96 104 0
-8 -10 70 0
-21 40 79 0
-42 -95 105 0
35 38 90 0
-45 83 106 0
-47 106 -109 0
12 52 -53 0
-38 46 -81 0
56 -73 112 0
-10 38 -50 0
-43 -83 -92 0
16 -33 -108 0
43 72 83 0
-28 73 -110 0
53 -77 83 0
34 -61 111 0
-4 -28 -76 0
-8 55 73 0
-3 18 -76 0
35 43 -69 0
-52 -55 -67 0
8 -25 109 0
-85 -110 -113 0
58 -67 110 0
26 55 84 0
77 -78 -83 0
75 -89 -108 0
1 36 -58 0
-20 -37 95 0
32 37 43 0
-5 -62 -95 0
-2 -56 -118 0
31 -33 -53 0
-25 70 93 0
-70 -85 112 0
-34 -40 -67 0
-37 81 111 0
-108 -112 119 0
33 -51 -77 0
-11 28 89 0
-49 -92 94 0
-45 99 115 0
-87 -90 108 0
-48 -103 -116 0
23 -74 -82 0
18 59 115 0
17 23 86 0
-59 61 110 0
40 84 -115 0
33 -57 104 0
56 -64 -73 0
-5 67 115 0
19 56 -110 0
34 80 118 0
3 -27 62 0
-51 54 -117 0
-12 -102 -104 0
-2 62 102 0
25 33 -107 0
-36 -62 -108 0
25 -54 71 0
39 -49 -110 0
-21 -37 116 0
-43 70 81 0
-13 65 -78 0
-87 -88 -106 0
74 -92 119 0
-27 53 -62 0
-24 -51 -77 0
-69 98 -100 0
-27 54 -88 0
63 -94 113 0
50 56 -107 0
-61 77 96 0
-38 113 -118 0
8 -43 119 0
53 -71 76 0
32 -54 -58 0
-1 -63 95 0
41 -49 52 0
-40 78 110 0
5 -40 -75 0
33 -105 -118 0
13 39 46 0
41 -63 112 0
-73 103 -114 0
28 -50 65 0
4 55 85 0
2 -86 92 0
7 -37 -47 0
-24 32 -34 0
-60 -83 108 0
16 -51 -54 0
-11 63 83 0
-18 42 -87 0
71 81 -97 0
27 -29 63 0
-60 -62 -119 0
10 -12 -99 0
-9 15 -77 0
-56 -58 112 0
-104 -107 108 0
-11 -38 45 0
-7 61 65 0
79 89 -105 0
-15 -16 65 0
8 22 -117 0
15 -68 -97 0
26 68 -112 0
16 82 -115 0
19 52 -91 0
-33 -71 -98 0
-34 70 -74 0
16 -59 -68 0
32 -66 87 0
13 48 88 0
31 34 -52 0
48 54 88 0
13 -22 -53 0
-42 107 113 0
5 -40 -100 0
-29 -84 -118 0
-16 34 -62 0
22 23 115 0
-18 20 -34 0
94 -100 -120 0
50 76 -105 0
-32 -59 -62 0
27 72 -92 0
-58 73 94 0
-4 94 -105 0
68 105 -109 0
-29 112 -117 0
7 -61 82 0
-15 41 47 0
-19 -23 -37 0
36 58 -101 0
97 -108 -120 0
2 15 79 0
-4 -85 104 0
49 62 -64 0
-18 -57 -63 0
81 -102 -110 0
-14 54 117 0
-4 -114 -118 0
47 80 -102 0
-79 86 -91 0
34 68 96 0
26 34 -50 0
-69 74 87 0
-24 74 82 0
-18 20 41 0
-25 59 -100 0
-46 70 108 0
-7 -23 71 0
-39 -47 94 0
3 43 -65 0
-43 79 89 0
-33 79 99 0
-29 -56 -89 0
-54 87 95 0
-49 64 -73 0
21 -31 58 0
14 -24 86 0
-6 22 103 0
-59 75 -118 0
21 48 -86 0
-63 72 -74 0
-33 -46 91 0
-53 55 74 0
25 -100 -110 0
-48 -58 -102 0
-38 -43 -95 0
-9 12 94 0
-9 59 91 0
-4 -50 -113 0
-28 -53 -118 0
-12 -81 102 0
-27 31 -64 0
4 70 -74 0
13 -33 -37 0
8 -72 -108 0
14 -79 106 0
47 83 -95 0
-24 -74 -110 0
15 -69 70 0
104 106 114 0
48 -55 84 0
3 30 -58 0
10 -11 -50 0
-18 24 110 0
-38 51 -74 0
-45 -60 -68 0
24 96 -112 0
71 108 116 0
-29 66 111 0
34 67 120 0
72 114 118 0
-37 -42 98 0
-43 49 -50 0
-13 -22 -54 0
-37 -75 -78 0
54 76 113 0
-68 84 93 0
-15 -46 56 0
-62 -94 -118 0
-1 -16 86 0
-11 111 112 0
13 93 96 0
11 -55 93 0
-65 66 104 0
38 -97 -107 0
17 -21 115 0
28 43 -77 0
20 26 -71 0
-24 62 96 0
-26 -65 -86 0
30 -35 120 0
6 13 -100 0
15 96 114 0
66 70 -75 0
-19 61 -73 0
42 50 -68 0
28 -80 -98 0
-10 55 77 0
52 -60 -100 0
-8 -52 -77 0
20 -82 -112 0
-5 -74 98 0
2 -53 59 0
-8 83 -107 0
-18 -25 74 0
-49 -94 120 0
-45 -79 -103 0
-26 -51 96 0
-19 -45 79 0
-58 86 -88 0
-4 54 -104 0
-33 -92 -117 0
-9 54 96 0
-17 -43 -106 0
-14 58 95 0
43 -60 93 0
-54 -61 63 0
88 113 -120 0
36 -92 -112 0
3 54 76 0
32 -61 -74 0
11 -33 66 0
-31 -55 115 0
2 10 45 0
-12 14 -68 0
35 -36 80 0
10 90 -113 0
-54 73 87 0
-56 59 -108 0
14 -52 -61 0
46 61 79 0
28 -53 -59 0
36 94 114 0
-25 -88 -115 0
-31 33 90 0
30 101 -102 0
-16 -31 105 0
-66 78 91 0
1 -28 59 0
28 -36 -47 0
16 36 80 0
23 -97 -101 0
-13 77 86 0
-43 50 79 0
-6 -9 48 0
9 71 -79 0
-33 -43 53 0
31 -52 -66 0
25 -79 -85 0
-9 -11 -17 0
41 -100 110 0
61 -73 -115 0
3 -26 112 0
22 25 68 0
-27 -59 -72 0
-26 -29 -107 0
-10 18 87 0
-14 90 -119 0
-25 -60 -69 0
8 -100 -114 0
85 -90 -95 0
-12 105 -117 0
-52 -58 -68 0
15 101 -108 0
32 86 109 0
16 84 92 0
45 -78 -81 0
-10 -96 -110 0
11 25 83 0
42 48 -80 0
6 33 -52 0
-44 62 -66 0
-52 95 102 0
6 8 77 0
-4 -67 89 0
-1 115 120 0
-2 -63 86 0
22 89 -100 0
-9 -75 76 0
-53 -75 98 0
80 82 110 0
30 73 90 0
28 37 -101 0
-52 96 -112 0
-57 69 -91 0
18 20 -92 0
22 28 54 0
39 -65 -92 0
-21 -23 60 0
-33 58 75 0
-6 19 101 0
-26 -60 104 0
4 -18 64 0
-12 38 -102 0
-19 38 -54 0
-9 81 103 0
16 -47 -58 0
46 72 -88 0
7 52 86 0
31 106 112 0
-17 -47 -48 0
-31 -38 88 0
41 -59 -74 0
-19 90 -117 0
-77 -90 -109 0
37 59 89 0
43 -45 74 0
-22 36 -49 0
-50 67 -75 0
50 96 117 0
7 50 -59 0
-71 -81 -93 0
-15 -22 53 0
10 76 -101 0
-32 -44 -90 0
-30 -35 -66 0
16 -78 111 0
-29 -56 -112 0
-29 -33 48 0
-32 -92 100 0
10 44 105 0
11 54 70 0
4 22 -107 0
15 25 -112 0
-20 46 -98 0
-13 -41 86 0
-47 -91 -93 0
18 41 62 0
8 115 120 0
25 -81 108 0
-3 -34 102 0
-1 -20 -35 0
-45 47 -70 0
44 98 -112 0
-83 98 -99 0
-69 -108 113 0
34 -36 76 0
-17 -72 -111 0
15 19 76 0
-50 76 113 0
32 71 105 0
-29 -36 104 0
15 -21 114 0
-39 74 -83 0
-38 49 -51 0
-8 87 -109 0
31 39 -81 0
76 -90 104 0
-3 -5 81 0
65 -100 113 0
-33 -53 95 0
-19 62 105 0
31 34 82 0
51 56 99 0
33 100 113 0
-19 30 -95 0
-50 -90 107 0
-5 -15 -61 0
-8 -102 -116 0
39 57 -80 0
-9 -69 111 0
27 -57 76 0
39 106 113 0
2 -29 60 0
-66 -81 91 0
1 -27 36 0
-74 -82 -112 0
-26 -99 -107 0
-37 40 85 0
47 77 96 0
29 -82 120 0
26 -70 -99 0
22 -42 -46 0
29 69 -84 0
-39 60 -101 0
34 35 81 0
-6 48 -119 0
72 -103 -115 0
16 17 -54 0
-11 -17 -84 0
11 -44 87 0
-68 70 100 0
13 -54 118 0
-6 15 -29 0
-53 82 -117 0
11 22 -95 0
-84 87 89 0
-22 59 -97 0
2 41 -61 0
-6 -19 -45 0
-46 -56 86 0
108 -112 -114 0
-73 -93 120 0
22 70 101 0
-44 97 104 0
34 -52 97 0
70 -76 -78 0
-31 75 -104 0
6 7 35 0
-3 96 109 0
8 -81 97 0
16 -80 118 0
33 45 -99 0
-102 113 -120 0
-86 -110 114 0
7 -43 -109 0
-46 85 -87 0
8 28 -58 0
54 -98 103 0
-31 -44 76 0
-2 -36 89 0
-4 -30 -92 0
35 51 70 0
4 -13 -59 0
-21 -78 -83 0
-26 -29 73 0
-12 105 -115 0
16 -24 -90 0
-59 -60 63 0
-36 -52 -64 0
32 -35 62 0
-10 98 119 0
73 -92 -94 0
17 70 -100 0
-28 111 119 0
9 45 -99 0
13 62 -99 0
33 -44 -97 0
-27 -54 69 0
6 -26 -120 0
-62 -105 112 0
-4 40 -51 0
2 -8 95 0
37 72 -74 0
28 -50 -57 0
-46 -68 -85 0
-37 69 -96 0
-22 -38 -105 0
38 57 -88 0
-61 -81 93 0
-6 -48 -85 0
5 22 -75 0
-7 28 -43 0
-5 -14 -120 0
-52 71 117 0
15 54 -80 0
2 -63 114 0
-30 -40 111 0
1 14 -18 0
63 -68 71 0
-43 -86 -114 0
8 31 -111 0
5 -13 -91 0
-21 -22 81 0
-26 -29 -90 0
-41 72 -88 0
16 -77 -114 0
-10 48 80 0
