c description: Random 3-CNF over 60 variables and 240 clauses
c generator: CNFgen (0.9.5)
c copyright: (C) 2012-2026 Massimo Lauria <massimo.lauria@uniroma1.it>
c url: https://massimolauria.net/cnfgen
c random seed: 31041
c command line: cnfgen -S 31041 -o cnfgen_regression_pack/cnfgen_cases/planted_rand3cnf_v60_m240_s2_sat.cnf randkcnf -p 3 60 240
c
c known_status: SAT
c pack_family: planted_randkcnf
c pack_level: easy
c pack_notes: CNFgen planted random k-CNF
p cnf 60 240
-3 -10 -32 0
-14 -23 36 0
3 16 -35 0
17 -35 49 0
33 39 -41 0
23 28 36 0
18 33 57 0
-9 -34 -41 0
-2 6 37 0
27 -29 -47 0
4 6 56 0
-6 -21 -27 0
-2 54 -57 0
-22 29 50 0
21 -35 -37 0
10 -27 -55 0
4 -17 -21 0
1 -30 52 0
-3 -6 60 0
-29 36 58 0
-8 28 -52 0
1 -2 40 0
11 -27 41 0
33 -56 60 0
-23 -28 46 0
40 48 49 0
-9 -38 46 0
-3 -25 -43 0
-2 -11 -14 0
-15 -22 38 0
23 25 -42 0
12 -14 28 0
4 12 45 0
-9 34 46 0
33 -37 43 0
-15 52 -55 0
-42 -43 47 0
4 34 -49 0
-12 -20 -53 0
3 22 -59 0
1 19 49 0
-29 -38 54 0
-8 30 37 0
1 27 -59 0
-17 25 28 0
6 22 -58 0
-10 44 -48 0
-2 21 -51 0
8 -44 -54 0
25 31 -44 0
-19 22 57 0
-26 43 48 0
-39 -43 -56 0
-6 52 -58 0
7 20 -34 0
1 -8 -32 0
-13 -15 -29 0
22 52 -56 0
11 -22 -46 0
-3 -44 -57 0
22 31 -50 0
-1 -10 50 0
8 33 -51 0
-2 18 -34 0
-21 -33 58 0
29 33 38 0
44 47 -57 0
-18 32 33 0
24 38 -51 0
-2 -12 55 0
15 -30 32 0
14 37 55 0
-16 20 44 0
-12 26 58 0
-26 -39 50 0
-9 -10 24 0
-4 45 55 0
30 41 59 0
-27 -31 59 0
6 -17 29 0
-25 -29 -54 0
29 -31 -45 0
-21 32 -39 0
-43 -45 54 0
-34 38 -54 0
20 -40 -57 0
24 -29 -39 0
10 -40 47 0
1 -14 -52 0
-9 -10 55 0
2 -23 -35 0
4 -44 -51 0
-6 -13 36 0
-15 32 52 0
16 -37 -60 0
55 -58 59 0
16 34 46 0
-19 -27 39 0
15 16 48 0
8 -27 44 0
-36 -42 -54 0
10 30 -48 0
-15 -36 -48 0
-14 -48 -55 0
-1 42 55 0
21 -29 41 0
-4 41 -46 0
4 5 59 0
22 23 39 0
-12 29 48 0
-6 49 -51 0
-12 16 -46 0
-4 -27 52 0
15 28 -30 0
1 -8 -9 0
-5 15 -41 0
1 6 42 0
-2 4 48 0
-4 10 53 0
-33 54 56 0
-29 48 -50 0
-12 -40 45 0
17 -48 56 0
13 -19 22 0
-19 -36 -49 0
-7 -34 44 0
-21 -32 -59 0
-9 16 34 0
20 -39 -57 0
-5 -40 -53 0
-8 -46 57 0
-2 5 -57 0
-25 32 -51 0
-7 -50 52 0
1 40 58 0
-54 55 56 0
-26 -45 -47 0
-5 -28 -43 0
14 -51 -59 0
-6 33 -47 0
44 -57 60 0
4 -12 -37 0
-1 -11 -60 0
-29 -40 44 0
18 52 59 0
3 28 -57 0
4 -31 -50 0
12 13 -40 0
-23 -43 53 0
8 -16 27 0
14 43 -49 0
14 -17 58 0
-34 -51 54 0
-11 -36 -52 0
10 -13 -58 0
11 14 29 0
-18 -46 56 0
25 41 43 0
5 -20 60 0
-5 23 25 0
2 3 27 0
5 -38 -54 0
-51 -53 56 0
-9 -17 -25 0
10 -40 43 0
46 -51 55 0
11 19 -39 0
-3 15 -33 0
-5 18 -29 0
-5 47 -55 0
17 52 -57 0
-33 -38 53 0
-1 -20 -46 0
-19 -24 53 0
-7 -21 27 0
-5 29 47 0
33 41 50 0
15 -22 -45 0
16 -44 52 0
-6 11 16 0
11 -25 40 0
1 -17 54 0
-2 22 47 0
-6 28 -33 0
16 30 47 0
-12 21 38 0
-12 37 -54 0
-12 -40 -50 0
3 -23 27 0
21 -55 56 0
-25 44 52 0
-19 37 -56 0
-3 -26 32 0
-34 -38 -52 0
18 -40 44 0
3 -5 -55 0
39 -58 -59 0
-23 28 -31 0
10 -45 56 0
-1 -20 -60 0
-15 27 -34 0
-9 19 -36 0
-4 -19 25 0
-27 -33 -42 0
-10 42 51 0
33 49 -58 0
4 8 -24 0
-10 -23 -55 0
4 17 23 0
1 25 -29 0
14 -20 37 0
4 -8 57 0
-27 47 -58 0
3 -35 -45 0
-19 -47 -60 0
4 -13 -27 0
-9 -13 21 0
33 54 60 0
-13 27 -34 0
-22 -53 -57 0
16 31 -41 0
13 43 54 0
-9 -22 56 0
18 33 47 0
2 3 -56 0
-8 -21 -45 0
-18 -34 -58 0
-41 -46 48 0
-17 -20 -40 0
-32 -47 -49 0
-13 28 -37 0
-35 42 51 0
4 10 -45 0
21 31 -32 0
5 8 43 0
-24 41 -54 0
3 25 -34 0
-10 29 54 0
-4 -15 39 0
-12 21 -57 0
