c description: Random 3-CNF over 320 variables and 1360 clauses
c generator: CNFgen (0.9.5)
c copyright: (C) 2012-2026 Massimo Lauria <massimo.lauria@uniroma1.it>
c url: https://massimolauria.net/cnfgen
c random seed: 31038
c command line: cnfgen -S 31038 -o cnfgen_regression_pack/cnfgen_cases/planted_rand3cnf_v320_m1360_s1_sat.cnf randkcnf -p 3 320 1360
c
c known_status: SAT
c pack_family: planted_randkcnf
c pack_level: stress
c pack_notes: CNFgen planted random k-CNF
p cnf 320 1360
26 -113 258 0
89 -236 294 0
146 223 -239 0
-68 -226 255 0
12 -186 -194 0
-68 -96 97 0
29 100 131 0
-210 255 294 0
-114 -118 -194 0
-72 299 302 0
-17 -30 295 0
-83 215 270 0
152 167 290 0
-66 -117 259 0
9 -192 308 0
151 168 -233 0
-145 218 -297 0
-203 216 298 0
-2 130 190 0
141 241 272 0
-34 -156 -288 0
-105 194 -306 0
32 125 237 0
72 84 305 0
100 -184 197 0
11 -40 -125 0
202 -212 245 0
73 229 302 0
140 249 291 0
246 -260 287 0
18 -59 261 0
-70 -141 -295 0
-19 68 -223 0
-122 244 279 0
-97 128 -182 0
-4 -95 271 0
-35 235 281 0
-50 -152 -196 0
16 -102 -183 0
57 155 203 0
-17 -27 66 0
-16 -85 -285 0
-175 220 308 0
106 124 -287 0
98 254 294 0
-22 177 -203 0
-180 265 -285 0
72 -246 260 0
-149 -160 172 0
-110 -199 -313 0
-110 255 305 0
-71 209 272 0
-175 198 -219 0
-69 196 -232 0
7 -127 239 0
71 98 308 0
-14 55 300 0
27 183 -246 0
168 262 315 0
18 -47 179 0
36 -141 252 0
-6 7 109 0
-18 -107 295 0
-55 73 304 0
16 -98 181 0
-33 46 265 0
-4 116 -164 0
-10 209 -269 0
-236 -281 284 0
-51 -103 -138 0
-19 35 -197 0
-29 -75 -166 0
49 94 -176 0
29 -149 210 0
-181 -222 288 0
59 -136 -294 0
110 229 264 0
66 82 -185 0
53 -75 134 0
281 -290 -316 0
8 -55 -95 0
-44 -120 -157 0
96 -111 -135 0
-7 8 121 0
-228 303 308 0
167 258 -301 0
69 242 309 0
-128 194 -283 0
35 60 -222 0
-170 172 -304 0
47 -273 -308 0
-74 -94 146 0
83 98 -199 0
88 139 -228 0
23 -79 -156 0
-41 -146 -150 0
-26 51 -263 0
-60 83 294 0
233 302 307 0
1 -47 -290 0
-66 -103 319 0
-36 -182 -220 0
34 -153 232 0
-269 -285 -314 0
86 -88 -235 0
36 157 -303 0
-118 -121 -208 0
-204 237 315 0
-24 -55 250 0
-122 -158 -271 0
40 227 303 0
132 -188 320 0
85 120 -155 0
50 305 -312 0
53 248 268 0
-56 105 -164 0
114 162 -233 0
-5 -205 -251 0
68 75 -250 0
55 -222 -247 0
40 115 -276 0
-156 173 271 0
79 168 219 0
153 154 -192 0
-135 -181 205 0
72 -155 -313 0
4 -205 271 0
26 83 98 0
243 290 292 0
222 -235 -249 0
-7 157 228 0
-75 207 300 0
176 -204 -305 0
81 247 -278 0
-18 269 -303 0
-74 -173 -316 0
-102 151 -169 0
23 -75 -100 0
-51 79 90 0
15 -143 150 0
234 271 282 0
-128 152 -284 0
-255 -279 283 0
-6 -31 45 0
-114 197 -299 0
20 86 -311 0
24 105 -315 0
17 -141 -317 0
-248 251 308 0
183 220 -275 0
61 255 285 0
203 -216 309 0
165 270 -280 0
-242 -256 -279 0
-31 133 -154 0
-39 -175 -297 0
3 115 -257 0
158 172 202 0
99 -109 -125 0
-93 -162 -264 0
108 -134 -236 0
67 160 -319 0
117 -207 -286 0
59 103 -179 0
17 -121 -240 0
-109 285 318 0
-49 -149 233 0
4 -147 163 0
20 197 -214 0
35 54 -103 0
-67 112 -185 0
-188 226 281 0
125 -163 -239 0
-65 90 113 0
155 198 -289 0
-110 136 281 0
55 167 177 0
51 -151 249 0
19 176 -201 0
-80 -98 163 0
-74 175 182 0
83 -94 186 0
-22 -45 163 0
-12 218 -248 0
64 118 273 0
-47 127 -187 0
-25 -100 -120 0
16 -58 117 0
-80 113 227 0
46 74 -182 0
48 -56 -303 0
84 -117 -164 0
229 -275 292 0
-134 -150 295 0
-24 235 -300 0
-40 53 -310 0
-105 137 255 0
35 -80 93 0
-36 60 61 0
-85 100 302 0
31 -83 104 0
175 -195 -245 0
-100 135 -153 0
-64 155 -276 0
-1 -45 299 0
274 281 317 0
-26 -105 -185 0
-244 -248 -284 0
-59 -182 291 0
20 -61 202 0
-43 -105 -127 0
1 195 312 0
-45 129 -157 0
189 -215 -286 0
32 -274 -307 0
131 -262 -277 0
-48 130 301 0
10 -158 -183 0
130 -184 219 0
-129 -143 170 0
29 -157 -308 0
258 -272 -284 0
-111 262 -278 0
71 151 289 0
-31 85 234 0
-91 -120 -177 0
-104 -201 -277 0
6 -49 -308 0
95 141 223 0
-57 65 -154 0
-25 50 -209 0
-152 -169 -282 0
-154 210 263 0
-54 -64 -194 0
8 -204 287 0
-30 126 -149 0
-166 -201 -261 0
50 -94 -235 0
-84 -135 192 0
50 101 -232 0
-70 -250 304 0
26 32 -210 0
118 141 -184 0
40 82 264 0
-20 88 91 0
-118 193 -264 0
8 -109 313 0
-112 -159 225 0
-113 181 -188 0
-66 -114 -132 0
-13 52 274 0
-44 56 178 0
-16 -83 247 0
-14 107 208 0
215 264 308 0
60 -79 -108 0
26 -56 223 0
-112 -164 -198 0
-136 180 200 0
28 196 218 0
-136 -218 -277 0
51 -121 -147 0
60 86 201 0
136 198 -201 0
28 -207 249 0
28 -205 -239 0
-182 -292 303 0
-10 132 -285 0
94 -218 -315 0
64 -102 210 0
36 43 169 0
-6 80 -129 0
92 -153 173 0
-102 -139 318 0
-150 191 -212 0
226 298 -320 0
11 18 -303 0
-102 149 -219 0
91 201 -243 0
-118 165 269 0
54 -282 -305 0
-139 149 -211 0
246 -287 316 0
-37 -66 -173 0
1 -99 268 0
6 15 -56 0
9 -90 -301 0
-9 11 -149 0
146 -182 190 0
60 -72 -149 0
118 -190 314 0
43 -117 305 0
32 -208 -226 0
-11 30 220 0
129 -197 255 0
-140 -276 -301 0
29 55 -138 0
-80 131 290 0
-74 -202 215 0
-76 -153 -173 0
54 204 244 0
-33 -47 -235 0
-11 144 -315 0
-28 86 -151 0
32 91 -123 0
-250 -292 318 0
5 -193 226 0
-244 254 292 0
-118 205 -223 0
8 255 301 0
-98 123 309 0
80 208 229 0
89 110 -205 0
-69 -157 246 0
-19 -63 -287 0
-43 -195 -291 0
-29 -256 286 0
-36 188 195 0
-125 163 320 0
53 288 301 0
-140 234 264 0
-79 -86 273 0
84 -104 209 0
-48 205 260 0
13 -249 -259 0
-41 131 151 0
91 285 303 0
169 -235 312 0
-42 -61 -308 0
-7 -154 226 0
75 -103 281 0
59 -146 255 0
62 -136 -149 0
-45 -119 -258 0
-53 -133 184 0
120 -135 -165 0
-41 156 227 0
56 58 122 0
-60 -164 -250 0
76 -177 253 0
32 -67 204 0
-105 -153 286 0
-92 106 -293 0
-142 242 287 0
-111 280 293 0
-206 277 -320 0
15 -283 310 0
77 174 190 0
-4 -117 208 0
-25 45 52 0
188 190 -291 0
-71 -109 171 0
86 274 316 0
72 89 -121 0
213 -220 297 0
90 -188 -252 0
124 -247 307 0
111 188 -291 0
154 -166 311 0
-175 226 294 0
174 -201 209 0
-124 -135 319 0
-45 -258 -265 0
56 -294 -300 0
-83 -301 314 0
50 -80 253 0
-64 116 -240 0
-84 -188 -318 0
-56 -88 130 0
98 -221 297 0
235 253 -271 0
152 159 201 0
62 -277 -317 0
163 202 -264 0
35 211 -280 0
-130 191 302 0
73 81 -169 0
63 -91 112 0
-37 106 -281 0
-170 254 -276 0
-69 -141 -301 0
42 -113 181 0
50 156 -226 0
-56 164 217 0
79 307 308 0
-51 101 -235 0
-249 -268 282 0
154 183 -231 0
126 166 299 0
180 -235 275 0
-79 176 207 0
82 107 -296 0
71 -84 184 0
-32 47 237 0
32 -191 276 0
-98 145 218 0
69 150 287 0
-59 -73 -80 0
-210 -239 -279 0
51 103 224 0
62 187 -271 0
-78 161 -167 0
-119 177 270 0
104 -112 -219 0
100 215 -314 0
24 40 213 0
264 274 312 0
-26 80 -147 0
51 125 -165 0
67 -162 236 0
-222 -239 252 0
-102 -227 -255 0
78 -224 305 0
64 -139 -175 0
67 -197 223 0
11 -201 -280 0
-120 -163 289 0
60 168 267 0
76 196 258 0
-95 -165 -174 0
-67 -182 191 0
-74 -107 164 0
-122 181 -277 0
33 -174 -291 0
-22 -81 -173 0
-143 164 -215 0
55 154 -316 0
2 -161 -164 0
35 153 274 0
181 -284 -290 0
190 274 285 0
-30 73 102 0
44 124 -296 0
279 -302 -312 0
-13 131 -201 0
121 128 -286 0
20 54 234 0
-15 182 -191 0
-20 -107 -218 0
93 217 -266 0
-81 164 290 0
-9 -131 -153 0
18 60 184 0
189 -215 262 0
-81 293 316 0
175 -210 -267 0
13 -73 -112 0
63 193 289 0
163 296 317 0
38 -41 -47 0
54 -103 -257 0
239 259 302 0
92 -170 -176 0
-67 -136 288 0
-85 -160 -208 0
43 114 171 0
14 46 -96 0
43 -56 -319 0
27 196 -300 0
-136 -210 -247 0
166 -199 -232 0
38 -108 -248 0
126 167 -175 0
64 -280 310 0
1 170 236 0
-161 -280 315 0
-167 215 289 0
-38 -125 305 0
55 -102 265 0
-45 100 -240 0
-69 72 -280 0
-32 81 127 0
-83 89 154 0
-48 -266 269 0
-41 271 -320 0
-29 42 -138 0
107 -197 -262 0
81 110 -319 0
183 -231 -291 0
6 -207 -284 0
172 275 313 0
96 234 266 0
31 254 256 0
-219 260 291 0
-96 -232 305 0
-18 -49 -180 0
41 -110 -316 0
212 251 277 0
-98 -110 292 0
-135 174 310 0
-36 -73 -185 0
-223 -235 306 0
-27 -174 -246 0
-43 -147 269 0
-185 240 264 0
35 -138 274 0
19 -93 -299 0
-16 181 183 0
99 108 136 0
-97 -188 254 0
60 283 308 0
46 81 212 0
-12 144 -163 0
21 37 148 0
-29 224 242 0
-39 145 161 0
24 130 -164 0
57 271 -287 0
74 -104 -184 0
69 -128 -294 0
-40 -129 269 0
48 -70 176 0
-104 -108 -293 0
28 87 110 0
36 40 -76 0
98 -139 159 0
59 -109 -177 0
117 -144 303 0
-133 -208 -209 0
185 269 -292 0
-91 203 -298 0
28 -265 269 0
-182 225 -260 0
-72 216 291 0
17 -98 148 0
92 112 172 0
-159 -163 -170 0
15 33 -79 0
-173 -177 -231 0
-55 121 171 0
90 161 194 0
-88 -122 -234 0
71 -159 294 0
-48 -166 208 0
-10 54 316 0
200 -206 -296 0
-85 246 -247 0
-27 -237 250 0
21 25 268 0
162 195 314 0
16 -139 225 0
-67 161 -188 0
-22 141 320 0
157 228 305 0
-70 -200 295 0
162 178 -213 0
-116 -131 -212 0
-84 265 311 0
-46 -213 -225 0
-177 -201 300 0
-83 -138 -297 0
89 110 172 0
-57 -82 99 0
28 -195 -265 0
-5 210 -217 0
-94 -264 293 0
45 183 -225 0
-17 96 156 0
-89 -251 -263 0
152 243 -296 0
-79 -205 -219 0
42 -210 308 0
41 256 -281 0
-128 266 -298 0
-91 263 304 0
-149 198 -279 0
-133 -148 211 0
-3 49 -213 0
84 -187 203 0
-171 -239 -320 0
34 -103 199 0
-32 -106 -219 0
108 192 286 0
23 -239 252 0
-21 -124 315 0
-59 170 259 0
116 149 -151 0
29 -71 122 0
109 -276 -284 0
123 -187 -190 0
120 -259 300 0
43 -176 269 0
186 -209 318 0
103 -180 288 0
-117 -164 222 0
108 -115 -271 0
105 -111 172 0
170 217 231 0
102 143 307 0
-26 -128 201 0
-142 -208 -247 0
89 96 285 0
145 -250 289 0
18 -69 -87 0
-64 -120 127 0
-25 50 279 0
95 -180 220 0
-133 173 276 0
35 203 -261 0
209 224 -246 0
9 -75 -91 0
104 -246 -259 0
-30 158 305 0
-36 69 193 0
-56 -224 241 0
-52 120 262 0
104 175 245 0
-56 196 -318 0
64 170 -293 0
-126 164 206 0
32 150 169 0
122 -160 183 0
100 -127 295 0
-25 -69 -145 0
-119 -219 243 0
84 -92 227 0
75 210 -216 0
-38 -58 259 0
-162 -202 -239 0
-46 156 -223 0
23 -54 87 0
81 134 -268 0
34 148 288 0
7 -85 -169 0
-20 204 -254 0
-82 -158 -258 0
23 126 165 0
-19 -176 189 0
124 174 -243 0
-3 -163 251 0
-78 209 -281 0
11 94 186 0
43 200 234 0
29 44 100 0
139 172 -319 0
49 197 -289 0
-14 110 301 0
23 165 -285 0
91 -98 -219 0
95 174 269 0
173 -281 -284 0
83 -110 202 0
41 -132 290 0
15 43 252 0
34 -169 -187 0
9 -168 -242 0
73 99 308 0
37 -240 -299 0
66 -198 -275 0
123 -156 -220 0
124 261 297 0
108 133 -164 0
-11 158 224 0
-23 111 -313 0
-77 -114 -259 0
158 183 205 0
-22 235 -306 0
-28 261 317 0
-18 140 301 0
175 180 253 0
-22 -71 90 0
-5 90 139 0
-36 190 224 0
7 -103 -155 0
-57 317 -319 0
141 223 -268 0
-58 159 -190 0
-39 114 -300 0
137 215 -274 0
38 -85 199 0
132 280 298 0
-12 -182 -313 0
27 101 201 0
253 283 -292 0
-203 277 282 0
-48 86 222 0
-191 -217 228 0
49 -192 -258 0
42 -93 -175 0
-134 209 250 0
-73 233 -290 0
134 248 282 0
31 81 -171 0
78 -99 -117 0
120 186 188 0
-84 266 315 0
-234 302 316 0
-28 -189 263 0
100 -143 291 0
173 187 246 0
161 -219 267 0
41 -98 -190 0
-207 -218 276 0
-170 -172 230 0
34 -205 -214 0
146 159 -228 0
246 286 -316 0
-71 -85 225 0
183 -253 -318 0
-137 -154 296 0
-223 304 -311 0
25 -38 -65 0
99 107 -299 0
-110 -253 -312 0
-100 163 -310 0
48 72 -281 0
-16 280 312 0
-65 -70 -117 0
168 178 -222 0
-44 -259 299 0
56 -173 -274 0
104 125 -225 0
-71 -97 -190 0
25 -230 -300 0
1 -46 195 0
87 -166 207 0
56 72 -146 0
14 187 -209 0
4 103 299 0
-98 -213 309 0
1 -51 312 0
-137 150 187 0
35 63 -256 0
40 -70 -200 0
-85 158 214 0
184 199 -291 0
24 -33 297 0
-34 63 -147 0
-120 -154 251 0
18 190 307 0
-22 -71 197 0
234 302 -317 0
-38 -56 -244 0
-49 -102 308 0
59 -111 -307 0
121 -137 178 0
53 178 -311 0
42 89 270 0
-109 145 271 0
-4 -197 -241 0
-33 85 185 0
-3 -122 -275 0
-36 64 246 0
52 194 255 0
-10 -280 306 0
6 172 297 0
61 -99 -192 0
-2 -132 -261 0
65 -142 -206 0
-27 82 -172 0
-146 171 -282 0
44 -124 302 0
-5 186 -208 0
86 174 -298 0
64 -94 307 0
-59 118 258 0
-58 83 -200 0
16 -33 73 0
19 66 318 0
-37 93 -218 0
104 269 290 0
53 -92 116 0
91 185 -188 0
218 231 -305 0
-155 -216 -310 0
-11 -50 -297 0
51 -150 171 0
-4 -116 -197 0
-185 -263 -272 0
-17 -102 -211 0
-15 77 314 0
-92 -101 -208 0
-67 -68 -93 0
99 -193 -261 0
8 -78 -251 0
-240 253 319 0
17 144 -307 0
15 -160 -273 0
74 -104 -239 0
75 -88 -187 0
142 -143 202 0
22 -181 211 0
4 6 -204 0
-86 207 287 0
109 -142 -191 0
122 -160 204 0
9 44 83 0
-39 -89 -299 0
-67 -157 203 0
-74 86 163 0
126 -259 -266 0
-81 281 -284 0
-115 148 -220 0
-68 94 -304 0
142 234 252 0
-97 188 304 0
-66 -280 286 0
7 -64 -76 0
74 114 -233 0
-90 128 -179 0
31 -114 210 0
-119 162 217 0
172 -208 266 0
168 215 243 0
40 118 243 0
-41 -136 -227 0
27 61 -233 0
109 -110 -245 0
-76 -98 -255 0
18 -20 -63 0
60 111 -131 0
47 -258 -284 0
-99 111 -199 0
-50 162 -192 0
-53 73 286 0
72 173 -186 0
-188 226 276 0
-117 -164 185 0
-140 -271 291 0
-165 -212 274 0
-200 296 304 0
2 127 218 0
146 164 181 0
-5 30 -77 0
39 270 294 0
-120 201 265 0
-3 -63 142 0
-56 97 268 0
3 194 292 0
-252 -300 315 0
241 -260 285 0
230 279 312 0
48 -55 -90 0
32 162 268 0
55 156 311 0
123 -177 179 0
13 140 -163 0
88 91 -137 0
-52 116 229 0
-54 -98 -136 0
-146 224 -275 0
-85 220 -318 0
-31 -80 -214 0
199 292 299 0
15 -87 -194 0
-136 147 254 0
-239 -264 288 0
-37 -264 269 0
-146 -186 310 0
-50 116 170 0
86 -88 -217 0
34 -235 -249 0
11 -19 -204 0
158 270 -273 0
-63 -133 257 0
3 140 237 0
42 241 315 0
2 -224 -231 0
-17 -103 108 0
-40 -106 -188 0
-58 203 -210 0
-102 -137 314 0
107 166 -288 0
-46 -118 -140 0
-212 254 267 0
-109 -213 273 0
82 130 317 0
23 -37 269 0
-16 169 294 0
-2 268 -270 0
93 -232 -273 0
-105 -119 -301 0
12 36 -141 0
-44 240 279 0
-50 -88 -200 0
40 214 -275 0
-208 213 -264 0
2 -34 -307 0
-93 131 240 0
-71 -95 147 0
116 -212 -289 0
136 -164 203 0
-31 -199 -248 0
-8 -169 215 0
-217 -219 -220 0
-42 -86 145 0
86 212 257 0
-145 299 -316 0
26 -244 -300 0
23 -72 -178 0
33 91 -113 0
-184 -265 -293 0
20 91 -317 0
-193 283 306 0
-125 138 225 0
64 -131 196 0
149 -155 202 0
76 -96 99 0
48 -139 -181 0
9 -127 -247 0
-110 256 319 0
98 118 -285 0
149 -155 -174 0
-77 -88 124 0
5 96 215 0
-66 115 -262 0
-66 -188 -202 0
3 10 -243 0
-47 -102 -150 0
152 -157 -288 0
-90 -157 -318 0
-46 208 234 0
-85 179 240 0
13 -14 -103 0
91 -132 244 0
48 -93 313 0
-15 185 290 0
33 -45 -226 0
133 -285 313 0
-103 -111 252 0
68 -239 -271 0
6 143 -209 0
-14 -27 -46 0
12 -105 -172 0
199 -200 313 0
3 -28 265 0
-138 -167 -203 0
9 -12 -44 0
38 149 258 0
-145 -190 -298 0
-287 297 -320 0
-29 235 320 0
-7 127 -180 0
-162 -229 238 0
-13 -24 190 0
37 227 241 0
101 133 159 0
-93 -139 -159 0
22 32 274 0
-41 209 -301 0
-16 233 -301 0
-68 -185 -281 0
-28 63 -225 0
121 137 210 0
-170 -301 -309 0
46 -105 -141 0
175 259 287 0
-10 -171 -278 0
-25 257 -278 0
205 -243 253 0
11 52 138 0
-68 -111 -261 0
28 82 308 0
-134 226 283 0
-176 -187 271 0
-258 283 -289 0
70 151 179 0
-136 -172 288 0
-61 -83 92 0
8 204 226 0
46 -187 255 0
-28 -137 249 0
-113 189 314 0
-143 171 -181 0
-13 78 280 0
-204 -206 230 0
182 256 -301 0
-90 -176 199 0
-15 -37 314 0
-45 -198 -238 0
-40 -112 -238 0
-78 165 220 0
-14 201 309 0
65 171 314 0
-64 -102 -238 0
59 -199 -273 0
-29 -96 -131 0
-54 145 239 0
-30 71 -235 0
-19 -257 271 0
-86 143 -195 0
64 141 -147 0
10 136 171 0
132 -170 242 0
-133 -154 -228 0
82 171 -318 0
-39 245 -303 0
-101 -256 296 0
-147 197 -310 0
106 248 -310 0
12 -21 186 0
-112 264 276 0
59 -79 -96 0
-81 -99 161 0
8 229 242 0
-176 -245 -282 0
-120 156 -185 0
-160 -174 -310 0
177 -198 246 0
92 152 -179 0
69 -146 -276 0
-47 -55 -138 0
-50 162 252 0
38 -184 215 0
-15 -40 157 0
-115 151 194 0
22 296 -299 0
153 178 280 0
23 -32 -44 0
241 -255 319 0
26 -252 295 0
-45 46 161 0
-41 -85 310 0
-94 145 224 0
41 198 215 0
173 -195 -274 0
157 195 -200 0
-177 259 -261 0
4 -205 319 0
157 -181 -218 0
-75 -88 -121 0
-78 165 276 0
45 -103 -258 0
-193 200 -206 0
51 220 -288 0
-203 267 303 0
177 -184 272 0
-55 -103 -267 0
132 139 -226 0
204 230 -308 0
-23 -88 -100 0
44 170 265 0
11 65 236 0
168 -174 -270 0
-163 195 197 0
37 86 139 0
112 260 308 0
-75 -138 -244 0
-94 -160 302 0
2 101 -240 0
12 -146 -212 0
-27 -28 266 0
-88 -230 257 0
-110 133 190 0
15 -264 303 0
114 240 315 0
-27 -102 -240 0
-1 -83 256 0
-17 -78 304 0
-108 154 184 0
-36 -44 -238 0
-56 -254 300 0
-2 59 -236 0
62 -173 207 0
28 64 257 0
37 136 302 0
1 -9 -300 0
119 243 -293 0
49 -83 -223 0
-31 -35 -153 0
-31 177 263 0
153 -253 311 0
-80 117 -199 0
-61 -210 254 0
26 -143 -203 0
101 143 298 0
110 -179 261 0
35 67 72 0
56 -174 239 0
-157 -190 196 0
-137 -263 -304 0
-197 -209 276 0
89 -225 -269 0
-69 279 311 0
-96 292 320 0
117 159 -201 0
42 -44 -161 0
65 -145 -147 0
-160 -233 241 0
51 -159 -201 0
-68 -253 300 0
-9 -44 108 0
4 280 293 0
154 -268 281 0
64 -228 -285 0
-103 -130 -175 0
136 -308 318 0
38 225 303 0
146 -227 318 0
-48 86 124 0
28 -115 -238 0
56 111 124 0
-137 185 220 0
-88 -190 264 0
-68 86 -235 0
-84 -94 -111 0
-38 -46 -67 0
11 181 192 0
91 -110 -198 0
-26 -74 -131 0
-62 -168 185 0
65 165 170 0
43 -136 -317 0
-24 271 -317 0
105 134 -143 0
16 133 151 0
-177 198 277 0
109 228 -320 0
104 -201 -284 0
202 -273 -276 0
114 291 -315 0
-14 232 -290 0
55 100 -150 0
-289 293 301 0
-89 249 315 0
-123 -158 -218 0
153 158 187 0
-216 256 -270 0
19 -225 -238 0
-40 -229 247 0
-151 172 -192 0
9 -209 221 0
-61 -169 -310 0
-30 92 -254 0
-41 148 -215 0
-62 -228 -238 0
-43 170 -194 0
122 -193 255 0
-24 66 -89 0
17 -63 -225 0
-48 217 -283 0
-142 215 258 0
40 -139 194 0
-128 -210 -230 0
221 -252 -299 0
1 -172 196 0
-52 -154 -269 0
168 177 -229 0
47 -72 102 0
11 58 -88 0
-37 -181 184 0
-138 -156 288 0
-105 137 282 0
68 110 -310 0
62 -140 248 0
-59 -121 -138 0
56 -90 144 0
84 99 -188 0
64 71 -139 0
-19 249 297 0
-40 -64 188 0
-135 -175 -248 0
29 38 52 0
18 -242 266 0
-167 -233 268 0
-17 -32 261 0
-119 -167 180 0
-41 -135 259 0
-148 -149 150 0
-217 -221 250 0
-153 194 313 0
-57 116 170 0
-157 241 291 0
-29 -122 -146 0
28 -226 -250 0
-46 -229 257 0
136 153 277 0
28 153 317 0
72 198 -313 0
49 -81 -89 0
-114 166 174 0
-1 24 -72 0
74 178 -248 0
-55 60 82 0
-123 -249 -261 0
7 179 270 0
94 200 205 0
-66 -99 202 0
-65 -187 -272 0
106 113 285 0
50 -72 -188 0
-9 -197 313 0
-215 -231 -250 0
34 -231 -245 0
150 -169 -286 0
104 210 -257 0
-35 -289 309 0
-34 -90 101 0
-3 175 -216 0
-22 42 -258 0
152 -210 266 0
-138 -228 234 0
-22 45 228 0
34 79 -111 0
-74 -76 -84 0
-106 151 172 0
196 224 250 0
-88 -128 230 0
-92 202 -234 0
-147 -161 -241 0
127 139 161 0
-173 -178 241 0
48 171 188 0
67 106 -179 0
41 266 -307 0
104 -159 -301 0
46 63 92 0
-77 -174 283 0
-14 117 146 0
129 -193 -282 0
38 -139 245 0
-33 73 299 0
-34 257 -266 0
-169 178 -179 0
-65 131 -139 0
24 -130 -155 0
-115 180 -254 0
-74 -172 -253 0
19 148 275 0
-6 103 116 0
-189 -227 -292 0
171 -236 293 0
-127 151 248 0
-90 -190 271 0
217 -227 -295 0
-66 -188 315 0
236 -244 271 0
83 -255 -295 0
180 -182 -246 0
85 -121 257 0
100 -119 -284 0
-73 -119 318 0
-74 -208 -258 0
64 229 245 0
-90 -131 203 0
127 -139 187 0
39 202 -228 0
24 -59 320 0
-68 235 278 0
12 207 309 0
132 236 -266 0
145 177 -233 0
103 236 246 0
-126 -303 317 0
200 -235 287 0
48 78 131 0
-164 -245 272 0
196 -290 314 0
29 -48 155 0
-48 -81 -268 0
-8 -212 -221 0
-30 -208 -250 0
188 219 288 0
-9 24 -50 0
15 103 -126 0
4 20 -92 0
-128 187 -309 0
107 164 -222 0
-117 -216 -306 0
-63 255 288 0
-26 -152 271 0
-141 150 -298 0
152 -279 -294 0
1 -123 149 0
67 -174 -218 0
9 49 -76 0
2 -144 299 0
157 297 -308 0
97 234 -285 0
64 -257 -260 0
3 -4 276 0
42 -212 -271 0
-10 158 -268 0
-50 211 -289 0
-88 -108 310 0
244 266 -277 0
-54 -144 -320 0
-241 267 -309 0
-146 -232 277 0
239 -242 248 0
60 -105 -271 0
-3 66 -311 0
-107 230 -278 0
146 -233 278 0
-107 -262 313 0
-29 -90 -246 0
-14 -44 -72 0
43 -82 307 0
40 122 228 0
198 -267 -298 0
149 -183 -228 0
23 -145 265 0
-146 -203 -277 0
-15 -51 -180 0
-113 253 293 0
-9 -191 212 0
-265 276 -308 0
-74 139 -247 0
-160 231 318 0
44 -263 -295 0
-4 241 -273 0
79 -214 -318 0
8 -141 277 0
-62 -188 207 0
-24 -174 -254 0
139 -174 302 0
-256 286 -293 0
-7 273 277 0
103 161 -165 0
-71 -145 -316 0
154 204 -285 0
80 81 250 0
24 -235 274 0
-42 187 316 0
-82 -216 -266 0
-28 -86 146 0
186 285 286 0
-119 -142 -318 0
-54 -178 -187 0
-12 47 -184 0
-101 -136 224 0
38 -99 167 0
-77 86 -104 0
19 95 299 0
120 218 -285 0
62 226 277 0
-120 -143 257 0
196 -245 -284 0
-63 194 -275 0
-177 -263 -273 0
-30 -260 315 0
12 -20 147 0
62 96 -319 0
-91 179 246 0
-61 -135 -314 0
-146 -279 -309 0
167 181 316 0
-60 94 296 0
95 209 -280 0
-154 220 272 0
-24 287 305 0
-112 163 281 0
63 89 136 0
123 -174 206 0
211 -278 303 0
-5 127 270 0
123 202 -261 0
60 188 -263 0
15 -130 165 0
-9 267 302 0
89 204 -276 0
36 79 148 0
28 92 -130 0
180 240 -275 0
-26 -186 -226 0
8 -183 -227 0
69 -99 196 0
-35 281 -300 0
77 283 310 0
118 281 305 0
