c description: Random 2-CNF over 180 variables and 360 clauses
c generator: CNFgen (0.9.5)
c copyright: (C) 2012-2026 Massimo Lauria <massimo.lauria@uniroma1.it>
c url: https://massimolauria.net/cnfgen
c random seed: 31031
c command line: cnfgen -S 31031 -o cnfgen_regression_pack/cnfgen_cases/planted_rand2cnf_v180_m360_s3_sat.cnf randkcnf -p 2 180 360
c
c known_status: SAT
c pack_family: planted_randkcnf
c pack_level: moderate
c pack_notes: CNFgen planted random k-CNF
p cnf 180 360
112 -159 0
100 167 0
104 180 0
-95 -154 0
-117 174 0
109 180 0
-10 59 0
129 161 0
55 66 0
21 27 0
-42 -179 0
-83 125 0
-39 159 0
151 170 0
-141 -168 0
99 118 0
-42 -45 0
-39 100 0
-71 175 0
60 113 0
48 -104 0
-145 166 0
74 -134 0
47 -167 0
-43 48 0
-58 -163 0
47 137 0
55 119 0
-100 140 0
80 -84 0
-108 -136 0
-43 109 0
28 -116 0
-11 110 0
-125 140 0
37 -105 0
-42 -90 0
-97 -115 0
-49 -107 0
-153 -155 0
70 93 0
-38 -109 0
-28 71 0
-45 126 0
132 -162 0
-42 -79 0
68 -70 0
-39 91 0
-4 18 0
-132 171 0
85 177 0
-31 81 0
-166 175 0
-105 -168 0
-8 13 0
-42 -97 0
31 120 0
-39 56 0
-95 -130 0
-148 -156 0
52 159 0
-148 152 0
47 130 0
-8 92 0
-141 -158 0
126 -170 0
40 -177 0
95 127 0
-48 -94 0
-8 129 0
26 64 0
115 -143 0
13 96 0
-31 112 0
70 160 0
-36 52 0
1 98 0
168 -173 0
28 163 0
9 134 0
147 173 0
-72 -157 0
-8 24 0
27 42 0
72 89 0
106 -154 0
-97 179 0
30 -63 0
-46 -143 0
64 -74 0
29 166 0
73 175 0
122 128 0
47 135 0
-138 -172 0
-8 -94 0
17 69 0
91 166 0
79 126 0
-42 -99 0
57 173 0
-94 -132 0
-130 -139 0
65 -80 0
73 88 0
-26 87 0
29 57 0
139 -175 0
132 148 0
-7 -18 0
150 -166 0
-62 171 0
-30 122 0
20 -176 0
-51 -126 0
32 -167 0
31 133 0
-11 133 0
-75 144 0
143 -155 0
4 136 0
-17 -44 0
18 143 0
73 96 0
34 60 0
20 -122 0
35 -87 0
27 -39 0
-117 167 0
-86 -121 0
103 120 0
20 -53 0
101 -120 0
47 -132 0
-31 -138 0
50 116 0
-5 -154 0
-16 82 0
6 -121 0
-16 -154 0
-115 154 0
113 -155 0
-70 -136 0
34 52 0
-137 145 0
74 179 0
64 -90 0
5 -123 0
95 -147 0
12 87 0
-8 -29 0
-70 -127 0
-38 -164 0
-130 157 0
-154 -173 0
-21 109 0
-90 -167 0
-78 170 0
73 80 0
36 154 0
57 145 0
31 64 0
166 -167 0
-45 71 0
-24 -50 0
-20 -47 0
111 166 0
2 42 0
-30 116 0
-72 79 0
22 -165 0
-127 -168 0
-4 -39 0
-156 178 0
45 -176 0
-108 -172 0
13 126 0
-50 -71 0
-41 97 0
72 -119 0
-24 -112 0
-19 -105 0
126 -151 0
35 -121 0
-112 133 0
98 -139 0
45 145 0
5 83 0
121 164 0
33 -170 0
-95 146 0
-38 -101 0
-1 50 0
34 178 0
138 151 0
-105 -175 0
123 126 0
103 134 0
-109 127 0
97 173 0
-57 -75 0
21 171 0
-132 159 0
-48 145 0
174 179 0
-125 126 0
-43 75 0
134 -157 0
-25 163 0
-67 -119 0
-49 -123 0
-9 99 0
-58 -142 0
52 -58 0
127 -136 0
51 -86 0
-43 175 0
-106 151 0
147 158 0
43 55 0
-124 -130 0
-129 -156 0
8 -60 0
66 -125 0
-71 -143 0
-12 -85 0
29 -82 0
26 61 0
-82 -127 0
109 116 0
113 116 0
35 -88 0
-42 146 0
69 90 0
40 133 0
-13 -160 0
-23 63 0
76 -162 0
5 -94 0
19 39 0
33 167 0
-40 -75 0
-104 -158 0
36 -151 0
38 99 0
171 172 0
11 83 0
94 -177 0
91 132 0
-62 -165 0
97 -139 0
116 124 0
55 -174 0
-35 -176 0
8 62 0
-17 -88 0
-35 81 0
-30 -105 0
86 -172 0
31 -155 0
-137 138 0
-18 -105 0
36 42 0
21 -157 0
59 69 0
49 -71 0
-61 109 0
12 -58 0
-152 -174 0
57 72 0
77 -170 0
-133 -174 0
85 -140 0
27 139 0
10 113 0
-32 -170 0
-37 -63 0
-16 66 0
-117 164 0
8 160 0
-147 163 0
-21 129 0
-17 91 0
3 103 0
107 -136 0
-5 -130 0
-21 -178 0
4 -169 0
-40 -51 0
71 -163 0
83 124 0
-10 -124 0
-57 125 0
153 -160 0
-20 126 0
-38 -43 0
-60 -96 0
-165 172 0
-17 -22 0
83 -85 0
93 147 0
81 143 0
61 -132 0
140 -147 0
110 -144 0
83 -84 0
-68 176 0
57 -115 0
-148 169 0
-168 -176 0
-9 -15 0
-31 -144 0
-30 -180 0
113 -169 0
47 168 0
-39 103 0
2 -139 0
-89 180 0
-46 78 0
-146 171 0
-11 98 0
11 -133 0
91 165 0
-33 58 0
40 129 0
97 169 0
-20 117 0
31 -176 0
10 108 0
85 -122 0
43 121 0
-153 180 0
68 92 0
-65 140 0
128 166 0
94 151 0
108 110 0
-6 26 0
57 98 0
117 -158 0
32 145 0
118 -180 0
-4 -86 0
23 -94 0
7 87 0
-79 92 0
47 -165 0
-23 -29 0
40 -115 0
3 8 0
48 -136 0
33 -124 0
-17 -114 0
-23 -146 0
-13 144 0
-51 156 0
159 166 0
58 160 0
31 -120 0
-89 -98 0
