c description: Random 2-CNF over 240 variables and 520 clauses
c generator: CNFgen (0.9.5)
c copyright: (C) 2012-2026 Massimo Lauria <massimo.lauria@uniroma1.it>
c url: https://massimolauria.net/cnfgen
c random seed: 31020
c command line: cnfgen -S 31020 -o cnfgen_regression_pack/cnfgen_cases/planted_rand2cnf_v240_m520_s1_sat.cnf randkcnf -p 2 240 520
c
c known_status: SAT
c pack_family: planted_randkcnf
c pack_level: stress
c pack_notes: CNFgen planted random k-CNF
p cnf 240 520
-53 116 0
9 91 0
23 202 0
-104 201 0
125 239 0
132 232 0
-46 -118 0
79 -197 0
-234 238 0
-25 -46 0
37 197 0
73 216 0
-87 -225 0
58 75 0
211 -237 0
1 147 0
19 156 0
70 -79 0
-16 -40 0
117 -226 0
-107 227 0
-208 -215 0
11 177 0
62 -133 0
-141 236 0
89 225 0
173 233 0
42 -96 0
23 49 0
-5 -97 0
-35 151 0
-35 -117 0
10 150 0
84 -94 0
-43 -125 0
-80 -204 0
149 -239 0
-111 -148 0
24 47 0
-37 -224 0
109 -188 0
65 -92 0
-115 -202 0
34 -195 0
125 172 0
7 239 0
-55 71 0
-134 -150 0
26 -221 0
166 234 0
-106 -176 0
-55 -73 0
3 -180 0
-13 173 0
1 52 0
-127 172 0
54 82 0
-48 82 0
5 -37 0
-97 -225 0
-142 155 0
-115 162 0
-134 -141 0
-49 -179 0
-8 82 0
-118 -133 0
90 163 0
-65 167 0
189 197 0
-27 95 0
-85 -134 0
-21 -133 0
102 105 0
127 -156 0
99 107 0
137 233 0
53 206 0
-37 149 0
-50 -72 0
84 170 0
-104 181 0
73 -88 0
124 -137 0
130 -186 0
-209 236 0
93 117 0
81 112 0
-96 232 0
-8 175 0
115 -196 0
-89 206 0
171 220 0
-23 -44 0
20 68 0
137 173 0
9 159 0
-16 -73 0
-45 -46 0
76 -179 0
-80 -229 0
26 82 0
143 158 0
-139 -222 0
6 -111 0
31 -110 0
-68 198 0
-62 -63 0
-77 -159 0
-60 -130 0
-34 231 0
110 -204 0
172 226 0
14 -46 0
-128 -179 0
63 129 0
91 -133 0
-183 -234 0
86 178 0
-29 148 0
-26 -202 0
-97 190 0
-61 -109 0
-203 -213 0
-32 -45 0
154 -209 0
162 -196 0
18 -236 0
-86 -118 0
141 -175 0
9 18 0
29 -161 0
80 81 0
90 162 0
105 -181 0
41 -191 0
145 165 0
-23 142 0
206 221 0
-36 229 0
-137 194 0
99 110 0
-195 -205 0
-7 -145 0
15 83 0
-28 59 0
19 -161 0
200 -211 0
-57 -60 0
31 -161 0
-42 -116 0
-13 29 0
-159 207 0
-130 198 0
185 233 0
-37 167 0
-82 -124 0
87 225 0
-28 -207 0
-116 -134 0
-113 -143 0
121 221 0
-7 167 0
-127 -162 0
22 -231 0
-19 -203 0
-43 -152 0
-40 150 0
179 -210 0
-25 -95 0
18 -27 0
147 214 0
-158 167 0
-61 163 0
105 -143 0
120 -157 0
27 50 0
118 -190 0
-18 -104 0
63 165 0
-156 238 0
-233 -238 0
-16 110 0
13 -151 0
75 237 0
-21 -108 0
-174 -195 0
141 187 0
165 -229 0
150 -225 0
93 -133 0
-41 -75 0
-56 181 0
115 235 0
79 98 0
217 -225 0
-85 -189 0
79 -91 0
155 -173 0
-64 -180 0
9 -71 0
-54 -219 0
-151 -192 0
-63 -121 0
85 193 0
-96 197 0
-60 -231 0
74 178 0
115 -212 0
79 175 0
-149 239 0
-54 -85 0
6 14 0
36 -151 0
115 -150 0
2 201 0
-9 59 0
22 68 0
142 -173 0
41 -144 0
115 -218 0
9 -175 0
-49 -86 0
55 -179 0
-78 -211 0
194 -206 0
-41 -160 0
126 229 0
-63 226 0
202 233 0
-3 139 0
132 133 0
-80 118 0
-144 -189 0
5 -137 0
28 224 0
-61 122 0
98 -205 0
121 -184 0
-214 230 0
143 -232 0
-69 -180 0
-108 168 0
119 165 0
-67 134 0
101 108 0
200 -237 0
-91 -184 0
9 43 0
31 55 0
-124 -149 0
-15 74 0
196 202 0
-33 -174 0
83 207 0
12 189 0
21 -217 0
-42 73 0
-97 -226 0
-11 232 0
142 -222 0
-45 -167 0
24 -222 0
-146 -223 0
-191 -237 0
-44 79 0
-67 199 0
159 -184 0
177 -214 0
-182 226 0
-39 -158 0
-76 -94 0
-204 240 0
-24 136 0
70 145 0
-65 -176 0
80 -102 0
166 -174 0
158 -183 0
72 131 0
-2 59 0
7 129 0
29 -214 0
-128 -166 0
3 147 0
-43 222 0
69 176 0
-6 228 0
33 -182 0
-43 -79 0
130 142 0
-73 198 0
-152 207 0
9 206 0
96 -156 0
40 224 0
15 238 0
-68 -149 0
-63 73 0
95 -147 0
-4 -189 0
-68 182 0
-118 231 0
-30 90 0
-107 142 0
76 176 0
-5 129 0
-38 157 0
-74 181 0
12 239 0
100 166 0
161 210 0
-3 88 0
63 90 0
76 -208 0
-177 -180 0
35 204 0
121 150 0
96 -145 0
32 -112 0
46 182 0
-39 -113 0
-6 30 0
-15 -57 0
110 -122 0
-107 -229 0
126 162 0
66 119 0
14 69 0
4 -128 0
-13 -150 0
-199 -215 0
-68 72 0
-25 -146 0
-78 141 0
-85 153 0
-49 -135 0
-22 -78 0
-85 105 0
41 -71 0
45 -211 0
20 154 0
-9 -35 0
91 -239 0
-185 -187 0
93 179 0
-120 -152 0
-42 -90 0
102 -205 0
6 149 0
119 235 0
-43 -55 0
55 -191 0
197 -207 0
62 132 0
-87 212 0
-40 105 0
58 -215 0
96 -170 0
25 119 0
12 -128 0
136 -198 0
78 -207 0
-133 -182 0
-5 -50 0
46 52 0
92 217 0
79 214 0
-59 -111 0
-171 -195 0
75 96 0
181 -237 0
90 -95 0
-45 -66 0
-46 -60 0
73 140 0
-32 -195 0
-28 -43 0
65 -76 0
-88 -114 0
-66 150 0
-31 -170 0
-174 238 0
125 -183 0
-105 138 0
15 214 0
201 221 0
-34 182 0
-85 194 0
59 -216 0
-35 -212 0
-157 -190 0
-22 136 0
3 229 0
58 -81 0
-5 -45 0
-60 -119 0
33 138 0
-49 95 0
-107 -108 0
7 182 0
46 -219 0
-28 -46 0
14 20 0
122 182 0
-169 212 0
-84 -227 0
-16 -115 0
-106 228 0
212 -219 0
15 132 0
140 -147 0
-74 193 0
-72 -108 0
-68 -133 0
-81 166 0
198 -238 0
135 174 0
-65 -188 0
139 156 0
-10 11 0
-50 149 0
51 142 0
-66 181 0
-136 -180 0
148 -218 0
26 41 0
100 -121 0
-35 -189 0
-12 -60 0
13 -214 0
62 -216 0
-54 -193 0
-58 132 0
-135 -234 0
85 -125 0
-11 -39 0
48 -165 0
-124 175 0
-92 223 0
-150 218 0
-82 -87 0
7 96 0
-113 -223 0
104 -112 0
-123 -207 0
-197 -227 0
-200 209 0
147 -222 0
-152 -217 0
-45 236 0
2 -53 0
92 172 0
-32 143 0
113 226 0
82 -148 0
34 223 0
75 -191 0
9 -66 0
93 -237 0
164 168 0
110 235 0
107 -158 0
117 -131 0
99 -184 0
64 239 0
110 181 0
12 184 0
-91 236 0
170 239 0
-56 -131 0
114 -121 0
-106 237 0
-182 228 0
18 -108 0
125 -145 0
-112 -226 0
68 120 0
-38 86 0
184 -216 0
-37 -127 0
-87 172 0
58 -85 0
-85 179 0
177 -225 0
-174 -236 0
-46 73 0
-133 -193 0
54 98 0
47 -226 0
17 -40 0
-123 149 0
-102 193 0
-39 -64 0
72 -97 0
119 152 0
-149 -205 0
2 217 0
-78 197 0
4 34 0
-61 227 0
-80 -206 0
187 220 0
188 202 0
-71 148 0
16 79 0
36 204 0
-205 -206 0
-63 -127 0
23 -53 0
-38 -49 0
115 157 0
12 198 0
132 -236 0
21 220 0
-177 -232 0
188 230 0
90 170 0
-62 -233 0
-152 177 0
66 -113 0
