c description: Random 3-CNF over 60 variables and 240 clauses
c generator: CNFgen (0.9.5)
c copyright: (C) 2012-2026 Massimo Lauria <massimo.lauria@uniroma1.it>
c url: https://massimolauria.net/cnfgen
c random seed: 31034
c command line: cnfgen -S 31034 -o cnfgen_regression_pack/cnfgen_cases/planted_rand3cnf_v60_m240_s1_sat.cnf randkcnf -p 3 60 240
c
c known_status: SAT
c pack_family: planted_randkcnf
c pack_level: easy
c pack_notes: CNFgen planted random k-CNF
p cnf 60 240
10 -23 30 0
-30 41 52 0
-10 39 47 0
11 -15 40 0
46 51 52 0
-1 -3 52 0
7 -29 32 0
-7 14 35 0
22 -27 -46 0
11 24 57 0
11 -13 36 0
15 35 -43 0
-34 44 -54 0
-19 36 -41 0
-15 25 56 0
-24 -26 60 0
10 -36 -49 0
-7 -14 -22 0
-34 43 -49 0
2 3 -57 0
46 -49 53 0
-11 -30 59 0
-26 -54 -58 0
-35 -38 43 0
-15 52 -57 0
-12 -20 60 0
-21 32 35 0
-10 -18 -53 0
41 49 60 0
-1 43 56 0
13 35 45 0
-25 -50 57 0
-26 -28 56 0
5 38 60 0
8 -51 -60 0
-5 6 14 0
-40 41 -52 0
46 -47 52 0
32 51 60 0
-4 32 42 0
13 -41 49 0
28 34 43 0
5 -21 -32 0
11 16 24 0
-41 -42 48 0
21 -35 55 0
-34 -51 -58 0
-2 -24 -40 0
-8 42 44 0
-21 32 -35 0
25 40 47 0
3 -24 52 0
-32 -47 -54 0
16 -42 -57 0
10 -15 -60 0
-1 18 -27 0
11 46 51 0
9 18 59 0
28 58 60 0
-3 -14 -23 0
-13 -46 -60 0
-39 -53 58 0
-21 -23 -39 0
6 30 -37 0
-8 -11 57 0
21 -50 54 0
-8 25 40 0
-14 52 -54 0
-11 -19 27 0
-5 6 -58 0
-14 29 -30 0
-3 -48 53 0
-10 -48 -57 0
5 -16 41 0
7 -17 -44 0
-15 39 -40 0
14 -16 -29 0
6 -35 -38 0
-14 52 55 0
14 17 57 0
-15 -33 54 0
14 45 59 0
-26 35 -51 0
-15 -26 -43 0
-5 43 53 0
23 28 39 0
20 -21 -50 0
18 -54 59 0
6 34 49 0
-7 -46 -58 0
6 13 21 0
-9 17 -25 0
3 6 -8 0
-1 22 47 0
24 -38 -53 0
19 -24 -53 0
7 37 -51 0
5 -32 -47 0
10 -33 -55 0
-12 37 -49 0
31 -44 47 0
33 53 -58 0
-23 -37 -53 0
-43 -53 -59 0
23 25 -42 0
-14 38 53 0
35 -51 52 0
-8 -19 50 0
-2 3 53 0
6 -14 48 0
19 54 -58 0
-28 37 -48 0
-4 -26 -54 0
-9 -53 54 0
-33 59 -60 0
17 -50 52 0
7 32 56 0
11 20 44 0
-14 -31 -54 0
1 10 -47 0
-17 45 -56 0
-10 30 -53 0
-4 6 60 0
-20 32 48 0
-30 -48 57 0
-15 -47 59 0
-20 22 38 0
-2 42 -48 0
30 40 55 0
25 37 -54 0
-7 -11 -41 0
7 18 -23 0
9 -23 -43 0
-7 30 35 0
27 -41 53 0
14 -24 48 0
-23 25 27 0
35 53 -60 0
-2 10 55 0
34 -38 59 0
-5 -23 39 0
32 -33 -48 0
-22 55 59 0
-13 47 -55 0
-35 -42 45 0
-10 -39 -53 0
-22 -48 57 0
19 -29 -48 0
14 22 29 0
-15 37 53 0
38 -48 -54 0
18 23 26 0
-1 -17 -47 0
-14 -26 42 0
20 -24 -48 0
-38 47 48 0
-27 51 -53 0
-33 47 49 0
23 25 -40 0
-1 -37 -44 0
39 -48 -53 0
5 6 18 0
-24 -35 48 0
-34 56 -60 0
4 -31 -54 0
-5 -44 -51 0
-15 -22 30 0
35 -54 -58 0
-24 -28 42 0
3 -5 60 0
17 -23 40 0
2 -3 11 0
23 -42 -52 0
-8 -17 -20 0
-2 4 35 0
-31 -38 -59 0
-6 -20 -59 0
-13 -28 48 0
3 44 54 0
6 45 -56 0
23 -32 42 0
19 27 40 0
29 38 -55 0
-8 -25 31 0
-11 25 -38 0
13 -24 49 0
-21 -29 35 0
37 -46 57 0
-1 -2 59 0
-8 -52 -60 0
-2 -14 45 0
14 -42 -49 0
21 -46 60 0
23 43 58 0
-9 -22 23 0
-26 39 46 0
31 43 53 0
-2 24 -27 0
-27 53 54 0
5 12 -48 0
39 -48 -51 0
26 27 56 0
-30 -31 -37 0
24 -35 -53 0
-12 -15 23 0
12 35 -58 0
-4 -12 54 0
-15 -35 55 0
17 35 -55 0
4 -26 51 0
36 -38 -51 0
10 14 30 0
17 51 -53 0
3 -17 46 0
-9 34 -52 0
39 40 -57 0
-9 48 60 0
4 30 39 0
-23 35 -60 0
-15 16 -26 0
-11 -24 -52 0
-1 11 15 0
-11 -28 -53 0
30 44 54 0
24 30 -42 0
10 -14 -20 0
3 -25 -33 0
11 13 43 0
-46 55 -57 0
-9 22 -52 0
-2 8 23 0
3 18 -50 0
12 -29 -33 0
-19 43 53 0
-19 24 -37 0
-9 43 48 0
-27 -57 -58 0
2 57 60 0
-5 -27 56 0
-30 37 41 0
