c description: Random 2-CNF over 120 variables and 260 clauses
c generator: CNFgen (0.9.5)
c copyright: (C) 2012-2026 Massimo Lauria <massimo.lauria@uniroma1.it>
c url: https://massimolauria.net/cnfgen
c random seed: 31024
c command line: cnfgen -S 31024 -o cnfgen_regression_pack/cnfgen_cases/planted_rand2cnf_v120_m260_s2_sat.cnf randkcnf -p 2 120 260
c
c known_status: SAT
c pack_family: planted_randkcnf
c pack_level: moderate
c pack_notes: CNFgen planted random k-CNF
p cnf 120 260
-52 88 0
-13 46 0
-73 77 0
-43 -87 0
6 87 0
-21 -34 0
3 32 0
-20 26 0
-34 48 0
-20 51 0
54 -98 0
-7 89 0
-81 -109 0
80 -98 0
12 -108 0
53 77 0
26 -66 0
24 38 0
-75 76 0
-37 -71 0
-99 105 0
-24 -32 0
28 48 0
29 31 0
6 106 0
-84 -87 0
-73 98 0
50 -52 0
-72 104 0
-14 -66 0
-73 -111 0
-82 106 0
-29 -106 0
89 95 0
-7 -114 0
-66 -119 0
-105 -114 0
32 45 0
16 39 0
14 -21 0
29 -113 0
-91 -98 0
-18 -53 0
-4 105 0
-47 -70 0
72 94 0
3 -90 0
31 -94 0
-4 69 0
-42 -114 0
58 -87 0
-32 -78 0
-61 84 0
78 -102 0
-26 -35 0
-73 119 0
50 -63 0
14 113 0
12 -83 0
-71 73 0
94 96 0
-11 -76 0
47 77 0
-58 108 0
46 81 0
-5 47 0
29 80 0
60 81 0
-60 91 0
35 -107 0
-64 116 0
-43 -100 0
-2 -64 0
66 -116 0
-28 -94 0
16 21 0
42 103 0
15 -107 0
45 -102 0
108 109 0
-83 -119 0
-62 -84 0
19 -28 0
76 105 0
55 58 0
-34 88 0
-102 118 0
-45 103 0
80 -88 0
-28 -64 0
32 62 0
25 95 0
8 -115 0
76 -98 0
-6 -78 0
32 65 0
-53 97 0
-79 -94 0
-51 66 0
-35 -90 0
17 -103 0
-73 -94 0
42 58 0
47 75 0
-1 -97 0
3 33 0
37 -38 0
-60 -98 0
69 -117 0
-9 -15 0
-33 -43 0
-72 -101 0
60 -109 0
65 -100 0
13 -89 0
-18 -72 0
24 112 0
39 108 0
92 99 0
-83 -109 0
45 93 0
10 43 0
-20 -116 0
-48 -83 0
-21 -108 0
-5 -76 0
-2 18 0
-79 -109 0
9 -107 0
-35 44 0
-29 -97 0
-22 26 0
-71 -73 0
29 -84 0
-28 30 0
-25 -74 0
23 38 0
19 86 0
-20 24 0
58 100 0
30 71 0
92 -109 0
-84 108 0
32 47 0
66 -78 0
1 111 0
40 58 0
-3 94 0
38 -60 0
19 42 0
18 -52 0
-39 52 0
-60 -77 0
-61 107 0
-37 42 0
54 -104 0
-37 -102 0
-67 92 0
23 -73 0
39 65 0
-83 117 0
16 33 0
-34 92 0
-57 70 0
36 88 0
14 73 0
-89 93 0
38 -91 0
41 -52 0
-43 93 0
14 80 0
87 114 0
-78 -86 0
-33 -102 0
58 -117 0
37 -82 0
38 73 0
22 108 0
-64 -72 0
98 -107 0
-54 57 0
12 106 0
22 -70 0
-67 84 0
-11 -49 0
-97 108 0
14 -49 0
23 31 0
31 106 0
-3 98 0
89 -97 0
-83 -111 0
-78 -90 0
-1 93 0
88 96 0
-1 108 0
28 -117 0
13 -21 0
-29 -39 0
29 -78 0
30 108 0
10 -12 0
-4 -27 0
-47 -79 0
-1 -47 0
38 -56 0
17 -47 0
-52 -90 0
76 -111 0
25 37 0
-25 -95 0
91 113 0
37 -87 0
26 -45 0
33 112 0
1 -67 0
36 -68 0
-17 43 0
-9 -89 0
19 -23 0
-21 35 0
-9 92 0
-48 118 0
-36 -59 0
-52 -107 0
110 -115 0
-41 -114 0
-43 -113 0
14 114 0
85 -103 0
9 -116 0
43 -59 0
-43 -118 0
-29 53 0
-41 -48 0
57 101 0
81 96 0
-18 94 0
61 95 0
-35 -111 0
95 -118 0
-22 65 0
-54 56 0
-4 97 0
-51 -112 0
-5 65 0
38 -68 0
-17 106 0
39 111 0
22 24 0
-3 20 0
66 -119 0
48 101 0
-45 -55 0
33 64 0
-13 92 0
38 80 0
50 -67 0
-36 -43 0
87 103 0
