c description: Random 3-CNF over 500 variables and 2000 clauses
c generator: CNFgen (0.9.5)
c copyright: (C) 2012-2026 Massimo Lauria <massimo.lauria@uniroma1.it>
c url: https://massimolauria.net/cnfgen
c random seed: 31039
c command line: cnfgen -S 31039 -o cnfgen_regression_pack/cnfgen_cases/planted_rand3cnf_v500_m2000_s1_sat.cnf randkcnf -p 3 500 2000
c
c known_status: SAT
c pack_family: planted_randkcnf
c pack_level: stress
c pack_notes: CNFgen planted random k-CNF
p cnf 500 2000
37 141 -332 0
54 409 478 0
280 291 -368 0
-122 -395 459 0
-157 176 352 0
-51 142 -326 0
10 228 498 0
118 -130 200 0
-232 -299 347 0
53 167 -347 0
-268 338 392 0
-100 322 -390 0
-177 243 478 0
325 334 -384 0
-312 -438 447 0
-121 138 -463 0
14 238 276 0
-7 398 499 0
35 -177 -255 0
387 403 429 0
8 -189 419 0
-129 194 -209 0
77 252 387 0
162 -203 -476 0
107 -151 374 0
-2 -115 -148 0
262 -286 -496 0
-171 366 432 0
-111 238 290 0
247 -331 -443 0
-194 238 477 0
-179 -378 487 0
268 295 -426 0
-30 -429 500 0
126 -265 436 0
106 236 -356 0
-80 212 230 0
117 185 -428 0
-58 -330 -367 0
-293 369 -473 0
61 -320 490 0
-74 382 445 0
-76 -186 -323 0
-105 132 -134 0
40 -108 305 0
41 -125 -436 0
41 236 323 0
209 236 -313 0
-48 172 -404 0
33 -421 444 0
22 -438 455 0
104 329 -437 0
242 -307 -429 0
42 299 -463 0
-154 -201 335 0
130 -296 364 0
-118 -171 402 0
-13 -72 -119 0
204 -222 -286 0
165 196 475 0
128 -267 406 0
-62 -262 -323 0
174 254 401 0
83 202 369 0
42 320 -446 0
-345 391 -405 0
104 -394 491 0
-75 358 -417 0
164 -397 -485 0
-128 -233 -336 0
59 309 495 0
150 247 417 0
-73 287 -498 0
254 -471 474 0
8 -29 -37 0
194 -197 -211 0
69 -161 333 0
-73 108 -480 0
49 97 -328 0
75 297 315 0
-177 -198 -360 0
116 151 -459 0
-73 268 -430 0
-23 48 181 0
-13 154 280 0
28 31 -283 0
150 473 -498 0
-29 79 -184 0
7 -316 330 0
-79 -86 296 0
134 315 446 0
-80 342 -396 0
239 336 -375 0
74 161 369 0
-65 -378 -381 0
286 -323 -493 0
-339 -386 -389 0
-371 -439 -486 0
-26 332 -365 0
-210 296 -453 0
267 -393 -491 0
298 378 415 0
64 -241 474 0
-48 -66 -215 0
-65 -176 -389 0
61 -481 490 0
26 120 -243 0
-2 184 -419 0
154 -244 312 0
-183 -192 -383 0
-63 137 -466 0
-122 249 -489 0
38 81 355 0
-29 -84 -276 0
397 -447 461 0
338 360 -441 0
-123 -273 -379 0
31 212 275 0
-7 -401 -499 0
-116 -321 -468 0
-163 -246 -392 0
22 -274 -401 0
-49 229 472 0
-161 -285 -328 0
50 -202 250 0
89 107 134 0
245 -286 -327 0
112 -155 368 0
-236 -258 -483 0
-3 -6 -131 0
-200 380 -452 0
-56 -268 428 0
-46 130 -298 0
113 -177 402 0
-30 -146 -262 0
-81 119 257 0
11 13 162 0
54 110 281 0
-314 353 364 0
-50 -245 490 0
89 -387 -496 0
2 -210 282 0
-17 42 -278 0
130 -149 437 0
298 -351 -418 0
-41 -165 216 0
-111 230 337 0
-32 -183 485 0
-73 -260 400 0
-105 -218 -402 0
-7 91 348 0
18 -364 422 0
14 22 -398 0
-268 -315 -341 0
167 -171 181 0
6 93 146 0
-3 295 -350 0
175 262 293 0
172 -343 382 0
53 -130 -342 0
42 239 395 0
6 -116 -301 0
194 294 447 0
-104 133 319 0
-48 -356 469 0
56 -249 -354 0
-449 470 -484 0
-119 -405 -455 0
-12 -137 142 0
44 -344 -412 0
-16 181 233 0
174 207 -371 0
21 -123 173 0
-363 380 392 0
-26 143 435 0
-275 353 -397 0
-129 -192 -241 0
35 153 -325 0
81 218 271 0
-278 304 475 0
321 407 419 0
-242 330 -458 0
-216 315 -331 0
-5 132 137 0
-231 411 413 0
14 276 493 0
253 -279 -498 0
39 -175 289 0
262 277 499 0
-25 295 417 0
184 318 383 0
-305 371 -372 0
-16 97 223 0
64 347 -423 0
55 118 351 0
61 -136 192 0
45 68 -94 0
314 346 357 0
-353 -462 -476 0
210 438 -466 0
-174 -458 -459 0
42 82 -119 0
51 -399 434 0
160 -175 -409 0
12 62 459 0
57 490 499 0
-295 426 -439 0
13 139 498 0
-5 -196 -250 0
34 417 465 0
93 166 483 0
232 -359 -423 0
-132 321 -384 0
-117 -481 -497 0
48 -128 -407 0
118 247 382 0
-141 -415 464 0
-92 -166 -438 0
142 262 493 0
3 -41 195 0
324 332 -391 0
44 70 -497 0
42 -264 -304 0
216 244 471 0
189 -323 -460 0
19 -263 282 0
407 442 493 0
-126 -152 -306 0
-18 203 -239 0
209 361 490 0
-124 331 396 0
-126 346 -436 0
-49 -298 -424 0
-208 -255 -405 0
-44 -190 337 0
-107 -338 374 0
55 -307 484 0
256 261 386 0
185 242 -313 0
192 -289 -359 0
203 -325 -497 0
-92 -160 -444 0
-212 372 -390 0
1 321 367 0
56 263 -478 0
75 -437 492 0
111 -199 205 0
-326 393 407 0
-203 -429 -444 0
23 265 -268 0
43 -240 -311 0
-201 207 323 0
41 248 456 0
-119 136 -302 0
-221 241 437 0
-316 355 388 0
240 -374 440 0
-149 319 -394 0
63 252 -305 0
135 367 401 0
28 377 -419 0
250 359 -499 0
87 -235 313 0
-205 -227 -286 0
172 365 378 0
-113 -428 -444 0
-383 396 -489 0
106 404 -468 0
-32 230 -238 0
-96 143 -436 0
-207 274 -457 0
-222 293 433 0
-61 -90 -144 0
-3 -53 -88 0
-39 49 -119 0
-7 232 -433 0
-176 217 -233 0
-113 144 -393 0
-47 -146 220 0
-19 414 482 0
34 286 -349 0
181 385 428 0
-123 -241 308 0
59 -112 236 0
-3 184 229 0
-54 396 -410 0
-214 299 -465 0
-91 167 -216 0
107 -315 -402 0
-126 328 -458 0
-345 -355 428 0
-304 446 478 0
-52 150 -356 0
308 353 457 0
265 -340 380 0
-54 82 -479 0
20 -43 428 0
-271 -428 -473 0
-179 -251 332 0
-226 -256 -397 0
269 -337 410 0
136 458 -496 0
-71 -222 314 0
25 -285 -419 0
8 163 314 0
-207 -376 -395 0
7 -155 -245 0
78 -197 -407 0
154 -219 378 0
-135 -201 -274 0
96 -216 -478 0
32 -33 252 0
-87 -201 250 0
192 293 -343 0
38 -157 420 0
-97 -136 -458 0
-36 -241 -291 0
151 -488 493 0
-73 103 382 0
226 -248 277 0
-57 381 469 0
87 323 -498 0
64 286 453 0
-28 112 484 0
-138 473 498 0
272 340 -350 0
255 -335 -395 0
-128 147 493 0
213 260 -399 0
222 -224 263 0
-16 -157 -252 0
27 69 192 0
52 -393 437 0
175 -429 497 0
-14 -373 -430 0
15 378 -424 0
-201 -279 -319 0
226 354 -435 0
96 -199 -403 0
-200 263 430 0
-37 198 218 0
-53 -361 -382 0
-201 297 399 0
-291 335 367 0
-35 -284 -336 0
277 303 -337 0
159 360 411 0
19 -205 260 0
-283 -413 -463 0
-256 -475 497 0
300 371 -482 0
-21 -189 -379 0
306 -345 434 0
4 -5 27 0
46 -184 433 0
160 247 -262 0
225 -269 334 0
-33 375 438 0
270 -380 481 0
117 147 -222 0
83 190 193 0
15 183 411 0
214 -392 -414 0
-6 -75 238 0
111 152 299 0
187 194 -415 0
78 -81 120 0
-169 -195 313 0
-390 460 -475 0
30 176 337 0
-439 446 -495 0
-132 -370 -391 0
39 152 485 0
-257 -398 -469 0
-63 242 391 0
31 63 355 0
309 338 480 0
255 -475 -481 0
166 434 440 0
-12 -120 -278 0
-117 -225 -429 0
-34 160 -435 0
-43 -370 -490 0
-272 -325 -471 0
-75 -176 224 0
27 -171 348 0
-410 444 -445 0
262 297 426 0
141 -406 412 0
59 347 -396 0
-146 159 -427 0
-126 -420 496 0
-238 -330 417 0
284 -297 -411 0
37 84 125 0
3 44 55 0
85 231 344 0
141 240 383 0
185 187 -382 0
38 -122 279 0
-150 252 473 0
22 -407 -490 0
-328 462 -492 0
-16 339 -370 0
230 240 -359 0
-309 -380 -466 0
49 -120 131 0
-380 439 488 0
-119 -437 500 0
187 -296 319 0
156 306 411 0
-4 -267 481 0
85 -267 -333 0
-36 -389 443 0
302 392 -488 0
92 -106 -365 0
265 364 477 0
-4 -87 295 0
30 -51 96 0
-317 -326 -404 0
-45 152 252 0
139 -240 252 0
-150 170 317 0
-309 -386 -394 0
-5 -24 -304 0
-172 -323 -422 0
83 -84 -286 0
115 390 500 0
-91 122 240 0
136 224 -283 0
-220 326 -348 0
68 109 491 0
-258 -349 381 0
-117 -150 -299 0
12 -131 196 0
-71 -460 -476 0
-51 -77 465 0
83 269 -315 0
68 -313 -475 0
193 235 -454 0
-33 169 368 0
-60 333 465 0
-115 -163 254 0
-24 -59 -208 0
-359 410 472 0
126 139 278 0
-74 127 418 0
302 419 474 0
128 272 444 0
-360 368 -382 0
119 -289 -383 0
29 38 398 0
26 373 421 0
63 139 -365 0
171 335 -444 0
-33 -92 -168 0
-136 258 -386 0
-153 239 290 0
-15 -267 362 0
-420 466 -495 0
129 151 -288 0
80 -204 299 0
-184 270 386 0
154 283 382 0
167 -324 455 0
23 33 -64 0
185 369 -386 0
144 -193 -323 0
50 -160 -360 0
179 -323 426 0
186 307 -340 0
-6 48 -432 0
-231 -407 -468 0
-133 291 -338 0
-176 -230 404 0
-47 101 -177 0
-20 165 -253 0
55 -162 -279 0
-169 -395 -413 0
-278 420 -440 0
23 -41 234 0
-57 -66 367 0
61 -313 -454 0
61 -279 472 0
47 -295 489 0
77 199 -281 0
91 245 -489 0
72 288 -478 0
-49 -117 -394 0
-25 -276 -458 0
-47 -117 301 0
-2 169 236 0
-208 242 441 0
264 289 -429 0
105 360 393 0
-25 -96 189 0
8 158 -227 0
-6 195 -246 0
-7 -99 259 0
84 -112 266 0
54 -431 453 0
-80 -321 388 0
256 -388 491 0
-152 262 272 0
-249 -362 475 0
270 278 337 0
22 -154 -309 0
-207 389 429 0
-214 255 -330 0
72 -319 342 0
-227 -333 -493 0
-339 347 -386 0
19 196 398 0
-40 -160 -408 0
-58 77 -461 0
84 320 403 0
231 318 412 0
106 -389 -427 0
-2 30 -306 0
57 -277 -339 0
-153 215 275 0
80 297 -415 0
-92 281 -284 0
-137 461 -486 0
-146 321 332 0
-204 288 -290 0
-302 361 -382 0
-381 -429 478 0
315 376 -470 0
161 -181 -325 0
172 309 -378 0
-176 346 412 0
-44 292 -475 0
228 -275 327 0
-100 218 -226 0
-60 356 -448 0
-266 -327 481 0
-140 -171 -306 0
191 395 -435 0
-389 444 453 0
28 -245 -350 0
-16 195 -391 0
49 285 -377 0
23 32 -218 0
-284 385 391 0
175 181 187 0
128 267 470 0
50 242 -430 0
172 375 -399 0
209 276 -352 0
-171 -184 243 0
183 -304 -410 0
-320 411 -434 0
-11 -146 339 0
128 144 -312 0
53 107 -439 0
110 304 -317 0
-157 305 326 0
286 352 -483 0
108 -164 -201 0
-35 36 -365 0
7 230 267 0
23 -199 340 0
-365 -414 -417 0
164 343 -353 0
21 36 -266 0
-92 -124 253 0
-233 251 -394 0
-61 -122 -308 0
-14 -232 -260 0
241 370 -496 0
-79 -183 -354 0
15 126 -357 0
58 62 256 0
127 306 352 0
75 -337 430 0
199 247 -284 0
-161 214 -326 0
292 -414 -445 0
-438 -458 -470 0
-133 -348 -465 0
236 306 -310 0
41 -257 319 0
101 -239 -458 0
-61 143 347 0
30 34 -290 0
-129 -138 361 0
159 395 399 0
82 462 -464 0
38 -122 165 0
-177 221 306 0
108 313 340 0
110 168 -421 0
56 -63 -248 0
-11 204 289 0
59 -90 -309 0
-23 166 379 0
53 231 -255 0
-187 -335 -426 0
-162 365 491 0
-246 -284 382 0
15 -102 108 0
372 -403 -424 0
15 218 -349 0
261 328 -376 0
15 194 -196 0
-116 -376 407 0
-125 461 490 0
-114 -415 432 0
-21 -196 -207 0
73 -155 397 0
72 141 493 0
291 -328 413 0
5 106 148 0
-70 147 -364 0
-162 306 -430 0
-359 384 494 0
107 182 255 0
192 -233 248 0
-169 267 294 0
112 -257 262 0
1 -136 475 0
47 329 -479 0
-272 442 475 0
93 283 330 0
40 138 -246 0
-71 -138 -300 0
-148 -428 436 0
19 118 -246 0
-377 399 -435 0
-256 312 320 0
-42 110 185 0
-177 317 435 0
87 -138 -210 0
-109 -370 -455 0
-31 -304 423 0
332 435 497 0
24 328 -465 0
-14 -73 -323 0
-183 -263 -449 0
-191 240 -479 0
-21 -101 -341 0
27 -73 -398 0
-120 -207 -360 0
29 438 493 0
-173 400 -467 0
175 262 338 0
275 344 358 0
32 -155 369 0
-191 250 -287 0
45 194 -455 0
-129 -234 -464 0
-128 -440 469 0
-187 -220 -396 0
-86 -237 -308 0
53 63 -159 0
-18 -385 -400 0
-234 336 -458 0
173 263 269 0
-93 198 207 0
-245 359 -440 0
67 399 453 0
-50 -284 435 0
224 -482 -500 0
61 -241 250 0
242 280 432 0
-100 225 -270 0
72 -79 247 0
-195 -240 -392 0
109 339 486 0
-32 -85 -453 0
-38 -39 97 0
-291 361 395 0
-17 106 -417 0
-164 287 -327 0
-18 318 -454 0
-36 -350 366 0
-37 -103 116 0
-15 -215 -310 0
257 -324 332 0
-8 -213 -443 0
110 -237 -419 0
-216 347 473 0
-71 74 131 0
-12 -183 -254 0
69 182 444 0
12 104 -348 0
72 -183 253 0
-44 224 480 0
-414 449 -482 0
-325 409 411 0
84 -368 -460 0
176 413 467 0
-96 230 -455 0
25 -305 -410 0
-2 -155 -356 0
158 207 -454 0
164 285 -426 0
17 89 -94 0
-230 318 -493 0
281 -371 418 0
-116 214 -218 0
-18 90 -466 0
-86 -203 336 0
-180 229 261 0
-311 429 440 0
-297 332 -404 0
344 426 439 0
135 371 466 0
314 -344 -360 0
-193 290 -399 0
-319 -354 442 0
199 259 -418 0
30 71 -80 0
-17 -325 485 0
10 15 -468 0
26 -104 -171 0
79 109 433 0
126 -181 -447 0
50 -215 428 0
-20 -72 109 0
45 -57 -178 0
-218 436 496 0
-116 -239 275 0
-160 -390 -452 0
-44 198 381 0
30 -345 365 0
119 374 -425 0
29 275 314 0
157 -164 -204 0
-77 83 356 0
-17 70 -347 0
17 -176 -434 0
300 324 383 0
143 350 372 0
-41 107 402 0
209 -401 -453 0
272 -354 477 0
132 185 331 0
-9 55 -433 0
126 -301 485 0
-114 -247 444 0
-336 377 -388 0
-32 -342 -489 0
53 392 412 0
264 308 499 0
116 -265 386 0
273 301 -303 0
-92 -164 -420 0
135 185 252 0
199 -400 -459 0
28 -153 -253 0
-70 -188 -457 0
205 271 -308 0
115 377 438 0
-93 377 456 0
184 348 -411 0
61 -179 243 0
213 248 436 0
9 -337 -379 0
-232 422 485 0
96 148 477 0
-43 152 306 0
-23 -80 370 0
-108 128 173 0
-32 -246 -376 0
-28 -318 461 0
29 -134 139 0
-113 -386 -466 0
6 -98 187 0
-6 37 114 0
-304 387 -440 0
-126 201 462 0
-168 -316 -485 0
-42 377 495 0
123 -131 257 0
-165 -176 342 0
-164 -200 424 0
96 -150 492 0
26 -452 -476 0
-233 379 -496 0
-311 -342 -389 0
-195 263 -389 0
-97 253 254 0
-113 -127 -231 0
-359 408 -476 0
175 -341 -408 0
-47 199 399 0
-159 230 334 0
-150 -204 492 0
-105 -384 408 0
-41 55 -379 0
197 435 -478 0
74 317 -354 0
12 347 -378 0
142 260 -454 0
-204 -413 447 0
-138 406 475 0
-245 -358 466 0
-147 150 174 0
291 -359 -406 0
88 111 434 0
-65 -349 -351 0
125 -190 286 0
31 -201 381 0
-161 -351 463 0
-274 440 464 0
126 185 -354 0
249 253 379 0
-200 -286 475 0
-136 -232 -443 0
15 -419 -472 0
81 145 411 0
-98 418 -471 0
-41 358 -390 0
-384 387 -432 0
-128 227 357 0
-64 -326 340 0
-152 -171 -373 0
126 336 393 0
23 50 165 0
-170 -453 -494 0
-42 -458 -477 0
98 282 295 0
13 44 260 0
-236 333 453 0
-234 -289 349 0
-63 -246 -401 0
-410 417 442 0
-395 462 464 0
-141 155 -164 0
-207 327 477 0
58 268 356 0
-206 354 466 0
236 292 -338 0
-41 46 -478 0
-254 -412 -459 0
115 -151 -346 0
-184 -430 -488 0
-137 210 -250 0
300 -399 469 0
-243 328 376 0
-67 -431 466 0
94 264 490 0
87 -298 -376 0
42 -57 285 0
25 218 -360 0
-46 -240 -408 0
-49 -250 406 0
294 -444 499 0
-12 120 -342 0
108 245 440 0
-22 378 379 0
84 101 177 0
119 -368 495 0
-331 432 446 0
-57 -181 -200 0
78 -179 -244 0
174 -415 458 0
-168 178 386 0
-9 -274 420 0
-2 -218 225 0
-312 -321 -398 0
120 369 463 0
-19 346 -488 0
147 189 456 0
366 435 -456 0
-115 -407 422 0
-110 -140 343 0
-20 -447 -487 0
-144 431 466 0
35 164 -325 0
-80 -117 141 0
-129 -134 331 0
135 -243 -479 0
-386 -436 -441 0
-32 117 210 0
-111 196 -416 0
313 -317 -341 0
-184 361 -368 0
-59 -143 289 0
78 -87 154 0
-159 -375 500 0
28 90 329 0
-60 105 -311 0
-32 104 497 0
-122 319 -343 0
23 54 496 0
-120 -142 -318 0
-72 182 308 0
179 240 295 0
-108 178 -453 0
-53 -104 456 0
-191 194 -495 0
52 213 324 0
-187 283 -469 0
-454 -477 490 0
-255 462 -487 0
-201 -282 326 0
-21 -309 -337 0
-75 330 -476 0
-116 135 485 0
-80 375 411 0
-31 132 -165 0
-60 -150 -160 0
26 146 -292 0
147 383 410 0
184 -308 -355 0
37 59 -373 0
-33 54 134 0
343 398 453 0
-309 322 -433 0
43 -133 -146 0
-9 -86 494 0
40 107 -251 0
82 143 -328 0
279 384 -417 0
132 -268 336 0
164 243 -471 0
259 -355 402 0
-60 105 -475 0
-27 -117 -238 0
-176 -364 -408 0
201 381 462 0
120 342 399 0
141 249 413 0
88 244 454 0
28 83 98 0
-177 180 -355 0
-89 153 195 0
-160 -230 -396 0
-14 -47 318 0
43 278 -288 0
-154 -275 381 0
-27 -296 -380 0
30 -76 -379 0
-46 -133 -327 0
62 260 -348 0
146 -223 -382 0
-67 -306 -371 0
-136 -312 418 0
52 -105 -422 0
-3 -336 -437 0
84 97 -104 0
31 158 355 0
107 314 -483 0
71 -149 340 0
96 -233 -467 0
32 332 385 0
132 -203 -269 0
7 -97 280 0
13 -179 -391 0
33 137 -463 0
-336 -400 478 0
-13 -121 157 0
46 -320 333 0
128 402 -452 0
-40 -211 -497 0
143 -172 -371 0
3 54 -80 0
124 169 335 0
-66 -75 -292 0
263 -274 330 0
-96 -329 -441 0
-212 -221 -266 0
79 -297 -412 0
-13 82 162 0
-5 -32 -33 0
-56 -84 383 0
243 401 492 0
104 108 198 0
-133 205 472 0
75 253 303 0
47 157 489 0
9 200 -232 0
-50 90 -222 0
-207 -253 421 0
-14 364 373 0
-295 -389 486 0
397 -422 484 0
-104 123 -317 0
-11 -136 485 0
-162 277 -445 0
186 200 337 0
-348 -398 -485 0
-40 -345 460 0
16 -40 199 0
108 137 285 0
-248 306 -370 0
40 -270 332 0
-58 -204 470 0
-361 -400 -453 0
-173 200 435 0
13 -187 -262 0
-337 -395 -459 0
74 291 -398 0
-109 186 246 0
-128 -195 -452 0
150 -216 -227 0
-173 372 -419 0
-237 -273 442 0
256 321 -466 0
68 130 -243 0
-68 -432 466 0
30 244 488 0
81 -238 481 0
-157 -346 352 0
-51 65 191 0
-193 -305 -322 0
222 299 -310 0
-98 -271 -471 0
185 277 -313 0
98 135 -146 0
-274 -295 -363 0
17 -27 -361 0
-56 108 -126 0
-137 -146 -237 0
89 -164 340 0
-156 -219 -337 0
120 -397 -416 0
18 -171 334 0
-28 56 -150 0
24 -38 404 0
186 -213 -284 0
-147 371 493 0
288 -458 -463 0
352 404 -454 0
113 133 492 0
-134 380 388 0
304 -392 -419 0
107 348 414 0
228 -406 459 0
323 403 -405 0
177 283 -384 0
-41 -136 274 0
-57 193 439 0
-30 -161 364 0
-189 -235 307 0
-145 423 -486 0
67 208 -438 0
-39 -235 350 0
141 -270 -328 0
78 -149 -201 0
38 -151 281 0
-151 237 -399 0
110 -141 -349 0
342 -346 351 0
-176 434 -497 0
-27 199 -455 0
102 -221 346 0
-314 370 -431 0
197 339 500 0
99 158 -336 0
-156 -245 329 0
-133 275 -394 0
-5 270 -406 0
-97 204 -251 0
35 144 -328 0
99 320 -485 0
-247 252 475 0
-10 -193 195 0
-52 192 -284 0
78 162 320 0
280 -341 -440 0
-110 -181 466 0
-17 -207 289 0
-13 265 465 0
-329 391 -482 0
95 -116 319 0
112 216 373 0
-97 240 352 0
343 378 382 0
-104 124 226 0
-128 -207 -380 0
-63 -78 313 0
-19 292 -418 0
-3 -228 310 0
20 -21 180 0
110 -345 -417 0
212 235 405 0
-61 209 413 0
240 271 -359 0
362 396 424 0
-23 -107 154 0
113 136 477 0
-263 -373 -379 0
273 -435 494 0
265 352 -476 0
-2 -230 -420 0
113 -234 470 0
-164 -177 -306 0
-53 -254 -482 0
119 -295 -334 0
-158 -282 -428 0
35 -306 353 0
-73 317 -368 0
125 -300 -454 0
-264 -266 353 0
-240 -310 330 0
-173 420 -435 0
-20 -103 382 0
12 -69 206 0
8 49 -404 0
-12 -54 146 0
-133 -255 -329 0
46 200 275 0
70 275 -389 0
-106 -344 -407 0
-94 -288 329 0
-404 -455 -500 0
-94 355 -382 0
261 313 -319 0
-90 -279 312 0
-192 -445 494 0
-138 286 443 0
-36 -342 -419 0
-22 121 454 0
134 -227 228 0
-13 396 489 0
1 -136 298 0
6 -36 499 0
-137 389 -434 0
58 185 298 0
214 245 439 0
-25 -326 -372 0
26 85 356 0
14 -62 -124 0
102 -363 -411 0
400 -430 477 0
-381 398 458 0
-22 159 -280 0
151 -179 303 0
29 45 140 0
132 -139 140 0
11 96 -471 0
29 151 371 0
156 330 380 0
-76 -199 244 0
9 110 441 0
36 -41 -323 0
-46 -159 -430 0
-125 358 418 0
84 -423 453 0
102 291 362 0
-141 -167 237 0
295 421 -436 0
54 167 178 0
101 -132 -225 0
-2 290 389 0
-12 104 -166 0
-73 233 -433 0
116 258 299 0
166 381 432 0
8 306 475 0
66 296 -392 0
-80 -170 335 0
39 146 301 0
-130 363 -438 0
-22 -62 440 0
-338 -416 -480 0
113 393 -401 0
-291 -318 452 0
-226 239 483 0
-126 -188 -461 0
5 -34 69 0
-15 -419 -479 0
-197 -307 -419 0
60 88 242 0
64 -401 492 0
-67 298 325 0
-78 -80 -462 0
146 244 496 0
174 -303 -401 0
-101 176 -206 0
49 197 -346 0
138 225 353 0
-97 182 468 0
-104 -275 -382 0
-30 223 -482 0
104 176 299 0
-70 -363 -407 0
127 386 -453 0
2 304 -316 0
335 396 454 0
268 362 377 0
-28 -182 393 0
1 -39 122 0
74 242 357 0
-172 -448 -489 0
-109 -337 491 0
143 -417 -479 0
332 358 -498 0
54 227 -448 0
-9 80 -471 0
-258 308 -322 0
-137 -359 406 0
246 345 493 0
33 149 -459 0
-130 -193 430 0
88 -104 -448 0
149 192 321 0
240 383 435 0
-149 232 -324 0
276 310 -397 0
-27 264 500 0
62 -96 -161 0
17 -182 -333 0
199 -262 408 0
43 -146 457 0
-56 -190 -341 0
7 -158 432 0
-57 75 346 0
-33 -35 -38 0
115 291 295 0
59 181 495 0
191 209 371 0
41 146 488 0
121 187 197 0
79 -450 -475 0
-89 -136 -392 0
-17 135 294 0
-21 57 -125 0
128 372 -497 0
211 315 437 0
-254 -263 -427 0
54 -209 230 0
148 189 240 0
221 346 417 0
-30 -113 -396 0
37 -202 -275 0
-101 212 -441 0
11 220 243 0
295 411 455 0
260 304 -359 0
95 273 -455 0
174 -197 -453 0
31 -335 399 0
-158 -443 -482 0
-424 -448 475 0
132 137 -497 0
-129 -257 -389 0
166 -177 -256 0
109 -324 -434 0
-66 -101 149 0
254 -293 -430 0
-23 -162 -259 0
-58 -76 -468 0
-151 -155 331 0
2 -253 -418 0
-32 -132 469 0
27 33 -191 0
-108 435 -439 0
49 -148 -149 0
-197 -405 486 0
-339 378 -474 0
-479 490 498 0
-4 -177 -429 0
36 217 417 0
-22 -129 157 0
-116 157 467 0
-337 -422 -484 0
-10 -11 -483 0
240 -466 483 0
-182 -283 401 0
318 408 467 0
173 234 324 0
49 87 406 0
15 232 -434 0
339 398 -439 0
21 69 -319 0
163 -326 -341 0
441 -479 481 0
-103 -156 -170 0
-63 421 469 0
-20 113 -186 0
29 -224 -378 0
-192 -348 419 0
29 -31 450 0
32 127 483 0
145 -258 -390 0
149 -322 462 0
39 -59 -318 0
181 -237 -260 0
-222 -435 -484 0
-332 342 -456 0
-378 -397 398 0
-29 257 -396 0
-100 -189 249 0
2 220 380 0
-18 -138 420 0
-42 -138 361 0
50 -146 368 0
-51 -203 -248 0
-67 -77 215 0
-55 -196 -207 0
-122 210 -266 0
44 -95 312 0
7 297 -393 0
27 147 371 0
164 335 -416 0
-279 327 478 0
55 246 368 0
-94 299 408 0
159 164 374 0
-232 303 354 0
-78 -204 -481 0
155 183 444 0
-67 193 210 0
-277 -423 426 0
-245 -266 -475 0
-358 -449 -457 0
114 -267 -292 0
-136 332 -406 0
-154 -360 -411 0
-200 293 496 0
192 493 -498 0
85 420 -429 0
55 67 -271 0
-138 -192 -383 0
218 267 468 0
118 -119 -456 0
-150 196 -397 0
-15 -86 -387 0
146 -425 496 0
-163 267 413 0
-41 -352 361 0
-69 225 457 0
216 228 -438 0
67 156 436 0
21 -152 -420 0
64 81 86 0
-204 -206 -442 0
-260 -346 -447 0
-28 320 -336 0
-1 -146 470 0
-326 480 -500 0
4 -50 252 0
43 -288 -433 0
-22 302 -467 0
331 346 369 0
-26 -63 69 0
46 102 -480 0
-123 279 -340 0
-172 347 -393 0
-104 -203 -440 0
37 -100 401 0
-41 152 248 0
-153 179 -349 0
290 -406 -449 0
10 74 -179 0
90 335 -459 0
-23 25 -266 0
16 32 264 0
27 168 470 0
106 265 274 0
77 172 -443 0
266 -273 -495 0
54 -55 213 0
23 273 -334 0
-86 347 -482 0
-201 272 -434 0
21 -94 262 0
-295 -368 -441 0
-201 385 430 0
-249 -297 -373 0
64 228 -413 0
-3 -477 482 0
358 435 -451 0
150 -304 -362 0
15 -273 -387 0
129 154 -308 0
-224 387 -395 0
180 -282 -353 0
396 -399 -494 0
-171 -225 -314 0
180 -303 457 0
-218 221 381 0
115 -171 -451 0
39 -125 158 0
317 357 448 0
250 -336 -378 0
1 47 -330 0
31 57 -278 0
1 115 -278 0
-90 -379 480 0
39 -44 -109 0
-52 -168 265 0
-112 -443 495 0
-20 -296 363 0
-9 92 -441 0
216 -255 -464 0
111 130 441 0
-91 140 371 0
1 25 -312 0
201 226 -306 0
-140 -339 429 0
393 -400 -446 0
55 391 449 0
298 -314 -418 0
-50 -77 -245 0
-357 358 -398 0
29 33 50 0
-66 -133 -397 0
-47 149 -209 0
334 -406 447 0
43 288 -340 0
116 321 -468 0
-173 -427 -436 0
200 -246 -280 0
291 313 -466 0
-293 322 459 0
-32 -53 249 0
226 402 434 0
-20 -78 -467 0
-13 26 -288 0
-265 -281 -453 0
-156 403 -495 0
56 -221 277 0
61 164 -457 0
60 288 -383 0
187 -220 379 0
-266 275 -448 0
-296 324 394 0
-269 -359 -429 0
180 -403 423 0
-65 -302 405 0
-221 308 -330 0
-204 214 -448 0
-279 396 -422 0
18 297 -480 0
1 181 488 0
-145 -301 -392 0
22 -39 -303 0
-277 282 -364 0
29 -281 371 0
-26 236 301 0
37 -223 239 0
42 343 -393 0
111 -118 139 0
-117 325 -393 0
-89 285 475 0
99 148 199 0
18 388 397 0
370 -387 388 0
239 332 -456 0
-61 117 392 0
-117 -369 -428 0
109 -110 447 0
-69 -95 428 0
156 360 -438 0
-68 253 -432 0
-29 420 -448 0
-164 -406 -427 0
-62 -113 349 0
53 135 -470 0
-150 296 -469 0
-18 140 323 0
129 264 454 0
78 -199 342 0
-3 -246 -288 0
371 -383 498 0
-95 -424 460 0
11 114 436 0
-154 295 341 0
149 -328 -438 0
134 250 -267 0
20 -77 484 0
-34 -222 251 0
-43 -77 -350 0
-259 -351 -466 0
33 -448 458 0
-153 175 472 0
135 151 -217 0
-145 223 -245 0
-276 377 400 0
-327 -336 -483 0
155 -303 -409 0
156 -164 -335 0
188 236 322 0
406 435 -453 0
-98 -102 -178 0
40 130 321 0
119 238 -448 0
-64 189 284 0
47 95 -193 0
-78 -116 377 0
-306 -419 468 0
185 210 -447 0
91 -232 -410 0
-94 -240 447 0
112 217 414 0
-20 -131 -466 0
-144 -281 -327 0
205 368 -375 0
175 -333 386 0
108 200 -261 0
-199 -209 284 0
-315 333 358 0
465 470 -485 0
55 113 140 0
8 -212 275 0
-22 77 499 0
6 157 -346 0
-89 270 280 0
-67 -189 281 0
34 -51 368 0
139 406 417 0
59 236 364 0
41 -152 300 0
-72 265 290 0
-135 -171 -266 0
-71 -227 -237 0
-152 244 312 0
-51 -189 449 0
1 -38 209 0
-159 173 -391 0
48 54 272 0
173 178 -186 0
244 260 -312 0
148 -274 -366 0
109 -148 -398 0
-15 332 -477 0
180 274 -424 0
43 -183 -221 0
36 -169 -462 0
33 -446 467 0
139 -433 443 0
-75 -159 350 0
-296 -387 -401 0
-186 283 417 0
-10 121 -171 0
6 382 -386 0
-318 403 -439 0
87 130 282 0
-21 238 465 0
-383 -401 -464 0
-27 421 495 0
-166 -203 444 0
68 234 500 0
-41 107 -403 0
-97 265 -363 0
118 266 -350 0
157 -251 -416 0
139 292 408 0
295 -311 409 0
-51 -224 238 0
-122 -145 -181 0
45 -129 479 0
-76 249 377 0
-431 434 452 0
36 -205 -368 0
54 -254 418 0
-247 -300 -359 0
-162 336 -494 0
-109 280 -379 0
92 293 -485 0
43 -232 -372 0
-111 -296 -463 0
-223 -457 -482 0
45 83 417 0
21 -279 -390 0
80 157 -360 0
-23 247 405 0
143 320 -393 0
-7 -278 500 0
185 338 359 0
136 -159 -321 0
26 -281 392 0
-82 344 -392 0
-83 -171 182 0
-181 -470 494 0
51 259 -404 0
52 -402 450 0
-9 -11 -68 0
61 -188 -468 0
-212 226 251 0
-99 -239 -296 0
-250 -277 -295 0
60 -144 339 0
-16 -40 273 0
-345 396 489 0
135 218 -245 0
35 265 497 0
105 -155 159 0
87 -121 340 0
261 309 -387 0
-31 -376 -441 0
53 -63 -347 0
407 420 -452 0
-48 109 181 0
33 399 -437 0
104 193 273 0
-159 -352 463 0
23 -351 420 0
-109 252 333 0
255 -338 -364 0
357 -389 466 0
-80 81 457 0
-149 -172 -386 0
10 27 161 0
-36 -276 409 0
327 444 452 0
-145 156 387 0
-18 247 -444 0
-235 -242 -480 0
-190 -345 464 0
-50 -198 -478 0
-10 -208 -358 0
355 357 -488 0
6 235 236 0
132 258 -386 0
-113 -364 -476 0
177 347 -365 0
4 -26 -459 0
-119 -226 295 0
-216 -222 479 0
161 445 -467 0
-176 357 420 0
56 -155 -488 0
15 -329 -412 0
-162 -193 -252 0
231 304 360 0
-246 476 493 0
333 372 487 0
-71 73 230 0
-21 318 -321 0
-319 462 479 0
28 166 -378 0
91 -249 -381 0
-107 -253 368 0
406 463 -475 0
-48 -82 -433 0
81 -336 347 0
26 -222 -411 0
-181 -201 -363 0
115 131 -246 0
149 164 213 0
-190 245 322 0
267 320 368 0
-146 -179 478 0
224 304 465 0
-110 293 -496 0
-85 142 416 0
-68 247 -302 0
148 -408 423 0
6 -218 436 0
-9 109 204 0
-44 -220 477 0
-144 152 201 0
46 131 300 0
-48 -153 -283 0
-67 -149 -329 0
-67 -183 333 0
29 -67 -69 0
298 -351 -490 0
-194 -252 280 0
-51 -262 -296 0
136 -397 478 0
-146 204 -287 0
159 280 323 0
-146 -190 253 0
-21 190 -467 0
35 -302 377 0
-156 -237 314 0
159 -254 467 0
-263 272 374 0
-66 110 228 0
-12 179 -320 0
-111 -174 452 0
305 356 462 0
26 170 -227 0
173 185 402 0
-81 110 -195 0
66 275 -428 0
-18 -49 -140 0
-50 354 -397 0
249 398 -487 0
-111 -190 406 0
-201 202 210 0
93 142 -361 0
60 -427 -476 0
-235 403 405 0
131 184 -491 0
-215 438 492 0
360 437 -459 0
-68 421 -459 0
-159 -271 396 0
-298 305 -357 0
355 -378 429 0
-84 107 134 0
33 -102 -275 0
-214 367 499 0
66 -300 488 0
141 -155 212 0
117 -170 -470 0
328 336 -413 0
147 -205 494 0
228 269 321 0
-79 -152 -346 0
358 -448 -493 0
-1 26 353 0
207 269 376 0
156 322 -482 0
-65 68 263 0
15 -224 -411 0
-196 -415 466 0
-17 127 184 0
-274 -360 395 0
-49 112 -123 0
257 -269 -312 0
280 -368 430 0
102 151 273 0
282 339 494 0
-157 -368 -451 0
-189 -299 383 0
170 -224 -432 0
-35 192 -435 0
-54 -302 -384 0
-125 -169 -430 0
-89 132 -238 0
21 -94 -292 0
-41 91 -228 0
180 265 -331 0
42 138 -200 0
193 215 294 0
107 152 399 0
-110 -128 319 0
92 358 463 0
-61 -171 213 0
-63 -333 489 0
24 -27 -153 0
291 -341 -450 0
148 -290 385 0
-62 -213 270 0
-54 179 -270 0
-319 -376 -480 0
-252 299 313 0
46 -257 -368 0
-99 -156 -364 0
121 151 385 0
299 -318 440 0
-154 163 373 0
-7 -69 -347 0
108 -381 474 0
-45 -88 135 0
-203 244 -464 0
65 -206 481 0
-31 284 -498 0
37 -438 -443 0
328 392 489 0
-34 -224 -292 0
104 166 -403 0
75 -424 473 0
-50 90 184 0
18 -25 -365 0
-55 -374 -413 0
-94 166 -276 0
11 -57 78 0
-73 -148 453 0
188 211 464 0
-112 -124 422 0
64 -335 381 0
-26 -99 -370 0
-162 -292 301 0
-281 342 -470 0
-18 -101 107 0
5 -64 235 0
-17 102 -278 0
133 185 -486 0
39 -312 412 0
133 -201 260 0
128 140 -210 0
-17 183 444 0
-26 -267 -450 0
82 -238 -422 0
51 209 375 0
49 -141 -314 0
-77 -266 385 0
201 264 295 0
-316 -332 496 0
33 198 -430 0
29 104 452 0
-187 299 332 0
-35 -348 -385 0
-92 -414 451 0
172 225 269 0
40 -73 -259 0
-203 -320 361 0
-64 71 437 0
-135 212 223 0
20 -279 -418 0
191 -245 450 0
159 -225 -434 0
-144 -206 458 0
-69 -102 291 0
-287 -429 -460 0
-98 -196 -216 0
25 -277 309 0
-29 143 -188 0
-179 457 -462 0
-251 -255 -273 0
87 143 370 0
101 -359 461 0
55 264 397 0
107 270 -386 0
75 232 465 0
223 270 -433 0
-40 -266 -268 0
26 -65 427 0
-23 344 -469 0
-237 -342 500 0
-184 230 487 0
42 -60 -217 0
80 209 458 0
-162 495 -498 0
-20 348 440 0
84 -369 459 0
412 -447 -448 0
-171 187 189 0
88 285 391 0
50 -312 -323 0
132 220 -447 0
-153 -361 -372 0
43 -277 -326 0
108 -180 -188 0
52 -62 -315 0
-81 -163 295 0
303 349 -394 0
-327 484 -487 0
106 -228 383 0
56 -119 -209 0
315 -375 -469 0
-1 -280 500 0
-265 -331 -374 0
-191 -194 -427 0
-122 -229 452 0
212 241 419 0
6 -86 314 0
77 328 496 0
-175 194 474 0
5 -99 -343 0
196 -217 -361 0
187 -194 -287 0
34 184 -493 0
23 -118 391 0
-170 373 -438 0
63 178 -224 0
-350 424 -442 0
144 -386 -481 0
-161 -402 496 0
234 -253 309 0
-181 -200 263 0
-20 -62 360 0
-20 142 -458 0
84 267 -385 0
252 -304 -352 0
31 356 361 0
75 164 266 0
26 270 385 0
322 -359 -415 0
-314 363 386 0
-22 -451 -476 0
121 -340 417 0
226 -344 -371 0
-108 -344 -484 0
-100 125 494 0
135 393 441 0
117 242 468 0
-258 -407 -414 0
19 174 294 0
152 -450 -477 0
193 -433 465 0
32 -83 135 0
96 384 -396 0
46 -252 350 0
-72 410 -467 0
238 -311 -369 0
-382 -446 467 0
300 321 -463 0
289 419 496 0
308 -454 467 0
-56 -266 -339 0
-12 254 477 0
-115 -384 461 0
65 67 -105 0
-293 -302 -306 0
238 489 495 0
-155 -256 284 0
-150 -296 368 0
-138 269 -473 0
60 -74 -439 0
82 201 -224 0
28 362 -479 0
-163 279 -500 0
73 264 -366 0
-41 314 -388 0
-57 -214 -309 0
-16 62 -298 0
11 -231 -325 0
-63 78 342 0
-80 -186 -437 0
-28 318 393 0
380 474 487 0
244 285 -347 0
-174 -201 400 0
-55 -239 -463 0
-15 -327 360 0
-344 -364 -442 0
110 167 232 0
-98 -238 -430 0
-61 -327 399 0
135 176 332 0
-21 130 187 0
-89 287 413 0
-162 -301 -397 0
-157 -287 448 0
-36 86 329 0
56 161 -218 0
-1 264 337 0
-289 308 -323 0
-117 -178 -482 0
148 -351 369 0
144 -299 484 0
-26 -194 -491 0
-160 393 437 0
-257 -319 362 0
373 410 -468 0
-143 373 -466 0
-18 -139 -291 0
-33 -120 -335 0
-231 -258 -490 0
-127 -355 -419 0
333 359 -408 0
-27 -47 461 0
178 277 -280 0
-77 438 442 0
59 -113 486 0
165 -459 479 0
12 19 420 0
-40 168 -447 0
-147 -247 -350 0
23 -53 -91 0
45 -338 -498 0
-151 199 -459 0
25 -254 467 0
108 304 328 0
-122 397 -450 0
-200 -269 -439 0
-13 307 310 0
-29 205 -265 0
74 -319 -453 0
211 342 -349 0
-4 -149 152 0
122 -125 -188 0
-49 -303 -369 0
268 460 -496 0
-86 106 -257 0
-155 337 -475 0
192 310 -476 0
4 269 456 0
-88 -112 -117 0
-93 -308 -381 0
19 127 133 0
37 -135 476 0
-68 -195 -430 0
80 -256 353 0
20 255 -284 0
194 287 354 0
285 -387 -457 0
173 -289 -431 0
438 450 -469 0
-78 106 203 0
54 -68 315 0
-235 -415 457 0
-54 298 -492 0
152 155 -302 0
275 443 445 0
-159 465 492 0
91 -119 -440 0
51 168 393 0
107 -386 -435 0
-10 -232 418 0
213 301 -345 0
210 -385 410 0
57 87 -347 0
-226 239 -497 0
119 -423 431 0
-71 -168 235 0
-196 -393 396 0
-10 -293 451 0
-63 114 -158 0
242 366 470 0
-208 229 -466 0
-192 -340 -389 0
70 204 256 0
80 327 404 0
-25 369 494 0
54 -74 -410 0
-13 162 -216 0
47 208 272 0
