c description: Random 2-CNF over 50 variables and 120 clauses
c generator: CNFgen (0.9.5)
c copyright: (C) 2012-2026 Massimo Lauria <massimo.lauria@uniroma1.it>
c url: https://massimolauria.net/cnfgen
c random seed: 31022
c command line: cnfgen -S 31022 -o cnfgen_regression_pack/cnfgen_cases/planted_rand2cnf_v50_m120_s2_sat.cnf randkcnf -p 2 50 120
c
c known_status: SAT
c pack_family: planted_randkcnf
c pack_level: easy
c pack_notes: CNFgen planted random k-CNF
p cnf 50 120
-19 -30 0
-18 25 0
-3 4 0
-33 -40 0
29 32 0
-6 -26 0
40 -50 0
38 -42 0
-12 -35 0
25 42 0
-40 -42 0
-22 -50 0
28 37 0
5 -46 0
17 35 0
-8 18 0
-27 40 0
28 33 0
-19 22 0
-2 44 0
26 -41 0
9 25 0
9 -34 0
-7 39 0
7 13 0
-3 42 0
17 46 0
-20 -23 0
7 -42 0
-15 43 0
-27 -34 0
-4 30 0
15 20 0
-15 -41 0
-5 -47 0
7 31 0
-5 38 0
3 -10 0
-14 -42 0
28 -31 0
2 -27 0
11 17 0
-47 48 0
3 45 0
-27 45 0
-1 3 0
5 -49 0
-11 -48 0
-36 -50 0
3 23 0
1 -10 0
-24 32 0
7 -49 0
10 15 0
18 42 0
3 -37 0
29 44 0
-22 47 0
-48 49 0
-11 -21 0
34 -39 0
-13 28 0
22 38 0
-10 -29 0
-13 -17 0
25 -35 0
-9 17 0
9 36 0
-31 38 0
21 26 0
-38 -50 0
-6 -22 0
5 -24 0
-34 43 0
6 34 0
-8 -18 0
-16 28 0
26 -32 0
21 34 0
5 -15 0
-33 -43 0
-36 38 0
26 39 0
-12 -37 0
-1 7 0
-10 -14 0
-13 -47 0
4 7 0
-8 -26 0
-36 -46 0
22 29 0
25 49 0
5 -28 0
4 -47 0
21 -37 0
31 -36 0
-11 17 0
19 -44 0
-22 -42 0
-28 -41 0
3 -19 0
9 50 0
-43 49 0
-29 -33 0
43 -47 0
-18 -41 0
37 -44 0
6 -49 0
33 38 0
24 -36 0
-20 -21 0
-26 -39 0
-1 35 0
6 43 0
-21 -46 0
-19 -49 0
-24 37 0
43 50 0
-2 -34 0
31 -49 0
