c description: Random 2-CNF over 80 variables and 160 clauses
c generator: CNFgen (0.9.5)
c copyright: (C) 2012-2026 Massimo Lauria <massimo.lauria@uniroma1.it>
c url: https://massimolauria.net/cnfgen
c random seed: 31017
c command line: cnfgen -S 31017 -o cnfgen_regression_pack/cnfgen_cases/planted_rand2cnf_v80_m160_s1_sat.cnf randkcnf -p 2 80 160
c
c known_status: SAT
c pack_family: planted_randkcnf
c pack_level: moderate
c pack_notes: CNFgen planted random k-CNF
p cnf 80 160
-57 -60 0
43 -48 0
2 28 0
63 -68 0
3 -47 0
3 -49 0
-32 -50 0
-44 48 0
-8 -60 0
69 70 0
46 -72 0
7 19 0
-3 -25 0
-44 68 0
-19 -50 0
12 14 0
2 33 0
22 -73 0
-14 -61 0
-9 -61 0
2 -76 0
37 65 0
-33 52 0
28 43 0
-17 36 0
3 -20 0
31 41 0
5 -60 0
-7 36 0
14 -64 0
9 76 0
7 73 0
-7 66 0
26 -34 0
19 29 0
20 -46 0
5 -53 0
-14 -34 0
-48 58 0
5 -6 0
20 40 0
-66 -71 0
36 79 0
15 -43 0
-9 67 0
-9 54 0
42 48 0
-55 74 0
-46 64 0
-2 29 0
-6 -45 0
-13 46 0
30 -75 0
38 -72 0
11 -25 0
-11 58 0
48 -64 0
17 65 0
26 -32 0
32 -77 0
-6 79 0
8 39 0
43 75 0
-33 -80 0
9 19 0
-47 80 0
-7 -46 0
30 -40 0
46 -64 0
19 -76 0
48 -75 0
8 -57 0
54 60 0
36 -50 0
76 78 0
-40 57 0
6 -45 0
6 80 0
21 -31 0
-7 15 0
-71 -78 0
69 -71 0
-29 63 0
-13 -23 0
-28 68 0
16 -77 0
2 16 0
15 73 0
49 -57 0
21 -76 0
-24 78 0
-57 65 0
-54 -77 0
4 48 0
-5 73 0
-23 65 0
29 -42 0
-33 -55 0
49 76 0
44 63 0
24 -69 0
24 70 0
-27 -43 0
21 -45 0
73 77 0
-31 67 0
28 39 0
22 76 0
1 -42 0
2 -47 0
-25 -52 0
-17 69 0
45 -57 0
-32 -61 0
49 -74 0
-34 52 0
-26 -59 0
-48 62 0
-9 71 0
-24 -38 0
-30 48 0
24 72 0
44 -55 0
-25 41 0
1 15 0
52 56 0
7 -47 0
26 72 0
-12 75 0
29 -80 0
-9 -73 0
67 -72 0
62 72 0
15 -18 0
-57 68 0
31 66 0
-75 78 0
62 79 0
-25 -48 0
-1 -44 0
-38 -55 0
-12 48 0
38 68 0
-52 -55 0
-27 -57 0
15 -46 0
-43 -77 0
32 -51 0
-35 -42 0
-37 -40 0
-53 -71 0
39 -42 0
33 76 0
-15 76 0
-69 74 0
43 61 0
-2 30 0
-44 -60 0
-7 -57 0
-53 61 0
