c description: Random 4-CNF over 40 variables and 180 clauses
c generator: CNFgen (0.9.5)
c copyright: (C) 2012-2026 Massimo Lauria <massimo.lauria@uniroma1.it>
c url: https://massimolauria.net/cnfgen
c random seed: 31054
c command line: cnfgen -S 31054 -o cnfgen_regression_pack/cnfgen_cases/planted_rand4cnf_v40_m180_s1_sat.cnf randkcnf -p 4 40 180
c
c known_status: SAT
c pack_family: planted_randkcnf
c pack_level: easy
c pack_notes: CNFgen planted random k-CNF
p cnf 40 180
-3 8 14 40 0
3 8 -13 37 0
-16 19 22 -34 0
3 -8 -32 -40 0
-19 24 34 40 0
-1 -6 -7 15 0
-3 23 38 -39 0
-14 24 -27 33 0
-3 -17 28 -29 0
13 27 30 32 0
18 19 -21 29 0
7 -14 17 -33 0
-3 -18 -26 27 0
1 3 -5 -25 0
-4 15 19 26 0
-19 -28 -30 -40 0
-1 -7 -13 26 0
10 12 -15 26 0
1 20 23 -25 0
-4 -23 -31 38 0
4 32 34 -36 0
22 -27 29 31 0
22 -23 30 37 0
-4 -25 -31 -38 0
-7 -13 -15 19 0
-1 18 36 -40 0
-8 9 -16 -40 0
1 -13 19 -24 0
-10 23 -25 -34 0
-18 29 31 -35 0
8 -10 33 -39 0
-6 -13 -36 -40 0
-5 8 23 26 0
-17 27 -34 -38 0
10 -11 13 -26 0
13 -21 -30 -37 0
14 -18 -31 -40 0
-12 -19 32 37 0
2 -6 -14 22 0
-21 27 -31 -33 0
-10 15 -23 -35 0
7 12 16 38 0
16 -19 22 26 0
-1 13 22 30 0
-15 -19 35 -36 0
-6 21 33 -38 0
4 -13 22 -33 0
-2 -9 22 -30 0
-1 7 17 31 0
-8 -21 -29 -35 0
19 -28 29 -37 0
-8 -28 34 -37 0
7 -21 -23 -29 0
-10 -13 34 39 0
3 4 -23 -40 0
20 -24 -38 40 0
16 -21 22 -39 0
-25 -27 -32 36 0
-23 -24 -27 -28 0
10 -27 -30 36 0
7 13 -37 -38 0
25 -26 29 32 0
8 -12 -21 40 0
-1 2 13 33 0
-10 -29 -38 39 0
1 -12 17 36 0
-6 10 14 -34 0
14 -17 -37 39 0
6 14 -24 -33 0
-10 -27 -33 -38 0
-1 -17 21 26 0
-14 -17 -19 -25 0
-9 10 -20 31 0
3 6 -20 31 0
-5 14 -23 -34 0
-9 12 -27 -36 0
2 -14 24 -38 0
10 29 37 -40 0
-2 7 9 22 0
-3 -4 -6 10 0
-6 15 -27 -35 0
-3 -35 36 38 0
-2 6 18 40 0
2 -7 12 -25 0
3 -27 31 -40 0
7 -27 -28 -33 0
8 -21 -39 40 0
-24 -26 29 -33 0
-3 14 -20 -21 0
9 10 16 35 0
-2 -24 35 -40 0
-5 -10 18 -21 0
-6 7 -10 -33 0
4 15 -25 -38 0
-8 -12 25 39 0
-1 9 -10 15 0
12 -18 -29 -35 0
-8 -22 -27 -34 0
-11 -18 28 40 0
-1 -2 -30 37 0
6 7 29 -37 0
-6 13 21 -34 0
7 -24 25 -37 0
-10 -13 23 31 0
15 28 -29 34 0
-25 -28 29 -37 0
9 -31 36 39 0
-1 14 -26 -27 0
17 18 -24 33 0
-16 -21 22 40 0
10 -19 -20 37 0
3 15 31 -34 0
-1 -19 20 28 0
25 30 33 -39 0
9 11 34 37 0
4 -5 22 23 0
9 -25 -30 33 0
10 12 36 37 0
-23 32 -35 -39 0
4 -6 -38 39 0
4 -8 11 31 0
15 28 32 39 0
7 -22 25 -28 0
-6 -7 16 -26 0
-3 6 11 19 0
-15 26 -32 36 0
14 -27 29 -37 0
16 19 21 -39 0
5 20 25 26 0
-4 11 -22 37 0
-6 -10 -21 33 0
-11 28 31 37 0
-24 -25 -37 40 0
2 -24 31 -37 0
-14 22 34 36 0
-6 17 -20 37 0
19 25 -32 39 0
23 -24 -36 -39 0
-17 29 37 -38 0
-3 -15 -23 -30 0
5 -7 -12 17 0
-12 20 34 -37 0
8 -28 -29 -36 0
-19 -23 -25 -38 0
-12 -16 -37 -39 0
1 8 -18 -36 0
-3 -15 -26 -28 0
4 11 30 -39 0
13 19 21 -28 0
-3 6 -30 31 0
4 5 -35 -39 0
-4 -16 -20 -29 0
-20 23 24 30 0
-12 -21 30 37 0
5 19 -20 25 0
-8 13 -22 24 0
-1 18 -36 -38 0
9 -11 -13 16 0
-21 34 36 37 0
-6 -27 34 36 0
-4 6 -8 28 0
-8 -19 25 29 0
-15 -20 -31 -39 0
-3 4 -20 -34 0
1 -2 -11 26 0
2 -3 -13 18 0
1 -23 -32 38 0
10 21 25 36 0
-15 -17 -24 -26 0
5 -6 -9 -27 0
3 20 -33 37 0
3 -10 -26 28 0
-8 16 33 36 0
-3 -14 35 40 0
16 26 28 37 0
15 -29 -32 39 0
5 -14 20 39 0
6 15 22 -30 0
10 17 22 27 0
16 22 24 -29 0
