c description: Random 4-CNF over 180 variables and 1440 clauses
c generator: CNFgen (0.9.5)
c copyright: (C) 2012-2026 Massimo Lauria <massimo.lauria@uniroma1.it>
c url: https://massimolauria.net/cnfgen
c random seed: 31065
c command line: cnfgen -S 31065 -o cnfgen_regression_pack/cnfgen_cases/planted_rand4cnf_v180_m1440_s3_sat.cnf randkcnf -p 4 180 1440
c
c known_status: SAT
c pack_family: planted_randkcnf
c pack_level: moderate
c pack_notes: CNFgen planted random k-CNF
p cnf 180 1440
106 -121 173 177 0
-41 149 -162 -166 0
-38 -72 97 -167 0
52 64 177 -179 0
-5 52 148 168 0
-35 -48 -104 126 0
2 6 72 -127 0
66 -92 131 -144 0
-63 -76 97 103 0
-27 -55 -76 174 0
-12 -38 -104 112 0
82 100 161 176 0
3 16 -19 -37 0
-1 60 69 142 0
-14 17 -48 115 0
-11 85 155 172 0
-85 -108 140 -159 0
22 -46 -108 -143 0
140 -161 -165 -171 0
9 82 125 -138 0
43 76 87 142 0
5 52 -86 -125 0
-59 76 156 167 0
104 -107 120 126 0
-42 -75 99 144 0
-37 92 124 -178 0
-2 39 -138 -157 0
44 -92 -100 170 0
60 62 -143 -176 0
-1 32 -68 -169 0
-6 -47 -84 -100 0
-56 112 136 -150 0
-20 -54 -71 98 0
68 -74 -76 96 0
7 -104 124 177 0
66 75 118 127 0
-62 -84 -150 -167 0
-44 -80 91 154 0
-6 12 135 151 0
-5 -17 49 -139 0
-2 40 -131 -164 0
-24 46 -56 169 0
80 -97 -132 -143 0
-1 110 113 135 0
-41 46 -84 -146 0
-18 -84 134 -174 0
37 56 130 136 0
-5 -49 59 -155 0
-47 91 -98 -128 0
3 -65 83 95 0
16 26 -56 -154 0
9 57 118 -129 0
27 47 65 -161 0
-84 99 -152 155 0
8 -9 -113 115 0
58 119 -130 155 0
-5 -93 134 149 0
-6 -10 118 146 0
3 -16 102 -172 0
55 120 -138 160 0
-1 61 110 162 0
-5 -95 153 -178 0
66 -85 92 137 0
33 48 96 -153 0
-3 -24 -45 -88 0
86 -108 -162 173 0
74 98 -104 130 0
-20 141 173 178 0
14 76 -160 -161 0
-26 99 111 158 0
-85 -88 144 166 0
40 -62 -107 133 0
-80 -91 -122 -149 0
11 -62 109 149 0
105 152 164 175 0
-20 -30 75 115 0
-29 62 -110 -162 0
21 122 136 -168 0
25 -27 90 -98 0
18 -44 55 147 0
69 -78 113 168 0
-60 -76 123 -166 0
-1 33 153 155 0
28 121 123 179 0
-55 67 -125 147 0
-7 -21 136 141 0
-17 -95 111 129 0
-49 -65 88 167 0
-6 92 -169 177 0
67 115 -131 147 0
25 74 -106 -127 0
43 -139 -173 177 0
4 -65 87 96 0
-65 -92 95 160 0
-33 136 161 -178 0
4 -15 -48 129 0
68 147 148 -161 0
-37 -67 91 -156 0
103 -112 -155 165 0
13 -21 48 172 0
-107 112 -132 -171 0
56 99 106 180 0
-85 90 95 141 0
105 -110 -111 -121 0
50 -119 149 -150 0
-69 80 -81 86 0
-4 37 -114 -146 0
53 63 -150 -178 0
89 102 -118 121 0
-19 59 -61 -148 0
31 49 91 -152 0
9 44 -93 -109 0
-72 -110 126 -129 0
24 -95 -135 137 0
92 119 -122 -145 0
11 34 -55 76 0
29 -49 52 115 0
-72 77 96 167 0
36 -115 139 159 0
-75 85 -115 118 0
-23 60 98 141 0
36 82 144 -161 0
50 -95 -118 169 0
-1 63 123 146 0
1 21 126 135 0
18 62 -101 -180 0
-25 -29 60 163 0
-13 -17 -101 -179 0
31 65 -131 -137 0
-11 31 130 -148 0
22 33 -134 169 0
-1 -79 -158 166 0
76 -98 -155 178 0
-44 60 -106 141 0
51 -103 -106 150 0
2 -37 -55 125 0
-20 65 145 -166 0
-46 -68 -155 -179 0
-90 -97 105 -124 0
-14 39 -134 -151 0
2 67 114 -143 0
-59 -96 98 -164 0
18 -33 -112 -137 0
-98 -153 -159 -179 0
-46 -74 -84 -150 0
103 -110 139 -163 0
3 -75 126 -158 0
-15 -58 101 -126 0
-79 84 -139 -154 0
-128 -135 -163 -169 0
5 57 -108 178 0
-36 70 128 -129 0
3 111 -126 -130 0
-8 73 -108 111 0
13 -40 -91 -141 0
-35 -51 -59 -72 0
-27 49 -84 162 0
-45 46 133 149 0
2 52 84 122 0
53 60 -76 112 0
69 -107 -121 -126 0
-31 46 -63 103 0
4 44 79 -142 0
20 -33 113 -156 0
64 -78 137 -150 0
97 101 103 154 0
-85 -100 138 -156 0
70 95 124 150 0
-26 -35 -65 -161 0
59 67 91 120 0
-42 -69 -122 -147 0
112 114 -139 -141 0
-13 -130 -143 146 0
-40 45 -72 -130 0
-22 58 -62 -172 0
-7 38 81 -125 0
-94 103 -169 170 0
16 20 105 -125 0
17 -106 133 158 0
-5 -41 137 -178 0
-23 77 -131 138 0
-38 -63 73 -99 0
19 47 -61 165 0
12 46 69 -93 0
60 -122 177 -180 0
-53 -58 -91 -171 0
-16 18 98 -179 0
-36 72 116 143 0
3 12 107 124 0
55 66 -152 176 0
-3 -35 -63 -160 0
-25 -66 -144 153 0
33 71 95 -153 0
-27 34 -101 169 0
49 108 109 158 0
-53 -71 -90 173 0
-1 -46 88 121 0
-18 -25 58 72 0
-5 -21 -70 -80 0
63 -115 130 -148 0
-103 141 158 -170 0
-1 -11 40 -144 0
-43 93 -129 -134 0
-21 -83 146 179 0
-1 16 -46 -55 0
-13 16 -68 -71 0
36 135 176 -177 0
29 -55 140 -143 0
9 -92 -106 -153 0
-61 130 158 -164 0
-20 -75 116 138 0
43 103 -125 148 0
36 -86 -158 180 0
-36 46 79 145 0
-5 15 -20 122 0
-15 -56 84 -121 0
-11 -70 146 159 0
-70 -81 -96 149 0
-35 67 74 116 0
13 -15 47 -144 0
43 -52 81 125 0
131 135 165 -177 0
39 -41 -47 55 0
-13 70 -80 -83 0
43 60 127 141 0
-28 -54 152 -170 0
-21 -65 -160 -168 0
-18 55 -103 151 0
-13 -39 -43 125 0
-62 116 -150 153 0
89 121 -146 -178 0
-65 73 -82 -139 0
3 83 159 167 0
96 101 137 -142 0
17 25 89 154 0
32 75 132 164 0
-67 -84 -123 -155 0
-16 26 -140 157 0
43 61 96 136 0
-56 92 93 -134 0
-55 142 -163 -164 0
-47 -72 107 -175 0
10 -34 -38 134 0
35 69 82 -96 0
-5 -6 125 -143 0
-20 24 -71 -94 0
-19 -98 -112 -118 0
9 -51 -120 -150 0
31 -85 -107 158 0
30 89 168 -172 0
-22 -40 -98 164 0
-30 -42 -50 116 0
-87 108 151 169 0
-61 119 -120 156 0
-21 22 39 -82 0
40 -54 73 167 0
2 -11 45 -147 0
-59 -84 96 115 0
24 -36 -127 159 0
-9 42 -56 108 0
-7 -19 -93 -94 0
76 131 149 -155 0
14 -41 55 -80 0
-23 -79 -113 -148 0
35 39 96 -158 0
69 75 80 111 0
-16 -39 72 138 0
16 59 112 160 0
41 -84 -156 -158 0
-13 -20 83 -162 0
-55 -64 67 -146 0
37 44 167 -171 0
40 -43 68 73 0
69 71 108 -120 0
-15 129 -138 -155 0
-64 -92 -135 -140 0
-14 -34 -41 144 0
9 -27 70 88 0
14 125 148 -163 0
78 -80 92 -136 0
-52 -81 -133 -145 0
-18 32 51 -139 0
66 -80 -95 -111 0
16 37 -124 125 0
7 111 113 -175 0
14 -72 108 -140 0
-54 121 -153 -177 0
-28 -90 117 -177 0
-60 -116 140 -161 0
-14 -43 58 146 0
12 -29 -70 167 0
17 22 -87 -148 0
-30 -76 135 -143 0
4 -6 102 -103 0
14 15 -146 177 0
-6 -67 -121 -161 0
-24 -48 -101 -167 0
4 -40 44 -63 0
20 -29 -94 -104 0
-19 38 -74 -155 0
40 49 158 -174 0
-29 -49 -77 115 0
-6 -15 -26 -143 0
40 58 107 -170 0
-4 -59 139 -175 0
-25 76 -118 120 0
52 -53 -55 -132 0
-27 43 -60 -104 0
17 -53 87 -105 0
46 124 -177 179 0
24 33 -53 175 0
-11 48 88 180 0
-2 -73 -117 -156 0
-42 -139 156 -159 0
-15 94 -105 173 0
-56 73 100 -126 0
-20 136 -148 -173 0
-37 -66 99 101 0
-4 49 -95 163 0
-88 122 -123 -169 0
-58 -82 145 -166 0
15 24 157 -176 0
-36 -106 -114 -179 0
19 53 -77 -146 0
48 -102 125 176 0
-50 -85 -154 -179 0
77 79 -95 -137 0
107 125 -155 156 0
38 -89 -91 129 0
73 -83 -100 131 0
-23 -83 -146 -163 0
-14 -17 26 47 0
-46 106 -108 174 0
-50 -110 -142 -162 0
-20 97 117 147 0
33 -51 67 -89 0
9 -131 158 -163 0
-81 131 -169 175 0
48 83 -110 147 0
-37 -51 -114 133 0
-43 94 110 115 0
-58 149 165 177 0
-21 -66 -107 130 0
-35 -53 -74 97 0
-16 42 -53 -133 0
10 -29 55 59 0
-36 114 -166 169 0
9 28 -140 -177 0
49 -67 -129 -161 0
-66 -130 142 179 0
-23 70 -72 141 0
-48 56 -92 -121 0
-45 -88 121 143 0
-29 -125 135 -177 0
-94 -95 -103 119 0
86 -91 -176 -180 0
-19 -101 117 -126 0
-29 58 76 -111 0
36 92 126 138 0
18 -79 -116 166 0
36 48 -93 163 0
-59 67 85 -147 0
-52 -74 101 177 0
-8 -43 84 137 0
49 71 -88 -114 0
16 70 -112 -157 0
-56 -135 -154 167 0
-53 -86 148 179 0
-42 79 -85 162 0
-30 78 -99 108 0
96 -103 124 144 0
61 -91 166 -175 0
104 125 -135 168 0
28 72 75 -146 0
-13 -59 -153 -168 0
11 42 -103 -106 0
49 -65 -151 176 0
-42 65 105 157 0
7 64 100 178 0
-51 -121 -124 168 0
-49 -75 -113 157 0
-21 -67 83 118 0
-84 87 118 148 0
109 127 149 -154 0
-2 -115 -142 -155 0
-22 38 -134 138 0
5 -110 -139 -167 0
-36 139 176 178 0
-15 -94 -129 -144 0
14 -22 52 -65 0
79 108 -139 145 0
55 122 132 -155 0
26 42 99 116 0
53 -91 104 -155 0
28 -29 62 95 0
-24 25 105 170 0
-71 -94 -121 160 0
19 -62 -107 113 0
22 77 80 98 0
11 -42 113 151 0
53 68 -107 140 0
-112 130 -140 -169 0
-66 97 -145 180 0
-9 -66 80 169 0
51 -84 -92 110 0
-15 67 -121 -164 0
65 -118 121 -126 0
22 88 -101 -111 0
-93 -106 138 175 0
60 89 -106 -158 0
47 64 103 140 0
-48 -68 -151 179 0
69 -84 150 -160 0
56 -75 -77 -152 0
-60 -62 -124 -135 0
29 -49 101 104 0
110 -143 155 160 0
62 -92 135 -165 0
5 8 106 149 0
64 -72 -76 161 0
-2 44 84 162 0
-30 -56 -66 117 0
-16 36 141 -148 0
56 91 98 -131 0
-66 155 -174 -180 0
20 -33 -148 166 0
45 -83 -137 158 0
44 71 -120 158 0
-45 -59 89 -103 0
-13 -66 -123 -129 0
-43 -92 111 142 0
-10 51 66 148 0
10 -86 -89 140 0
-58 -100 163 -166 0
14 54 104 174 0
-40 -41 121 -149 0
-84 -131 -139 -149 0
-23 -28 -87 -119 0
-6 17 125 -159 0
35 114 128 149 0
30 -100 -102 177 0
57 -59 -64 -155 0
-6 -38 96 97 0
25 82 -150 157 0
16 -27 -75 -137 0
-52 98 110 157 0
34 -99 107 -169 0
-12 53 -72 -143 0
10 -80 -151 176 0
47 116 152 162 0
12 127 131 175 0
-117 -120 -169 175 0
61 98 -113 -155 0
66 -91 -142 -163 0
-17 -42 47 118 0
-23 -52 -103 -115 0
-10 -14 30 87 0
1 64 -102 145 0
33 96 138 -150 0
19 -64 -97 140 0
-41 80 153 178 0
22 -36 85 -121 0
52 -94 -99 177 0
-40 -104 115 163 0
-32 99 -132 -157 0
-1 3 -99 100 0
10 -22 86 99 0
15 20 70 -127 0
6 65 -123 141 0
1 -27 -112 133 0
-26 -100 146 171 0
-102 -103 127 -174 0
48 80 116 127 0
42 -80 -109 -118 0
9 -32 69 -100 0
54 -71 95 -101 0
-52 -91 93 -143 0
-46 53 -142 151 0
21 134 -160 -171 0
34 64 75 127 0
4 -19 103 -167 0
-5 15 62 178 0
42 -53 118 -173 0
25 79 -91 -153 0
-92 116 144 -147 0
42 -53 117 -142 0
-65 119 -160 -167 0
-10 39 -157 177 0
-56 -106 -130 -137 0
26 33 -81 161 0
21 -94 115 169 0
31 -64 -128 176 0
47 -116 133 -170 0
-24 27 -52 75 0
14 42 -46 94 0
-19 -61 -81 122 0
-28 -80 -88 119 0
16 67 -74 -131 0
-23 45 -103 169 0
-51 73 85 -173 0
39 99 -178 179 0
9 -18 67 -81 0
-24 -75 -112 -133 0
28 76 108 -135 0
32 -97 133 171 0
20 41 -43 108 0
-2 -20 81 98 0
-18 43 47 -125 0
-44 -74 95 -172 0
19 94 160 -178 0
-20 -151 159 167 0
31 146 -162 -177 0
49 -72 -113 153 0
-21 26 112 132 0
48 -80 -144 -169 0
-16 54 -75 153 0
-27 -72 -93 -172 0
-64 -103 -122 -136 0
-25 89 130 -166 0
-33 70 117 -162 0
28 103 -117 118 0
21 -46 -78 -143 0
-9 -92 99 -175 0
31 137 156 163 0
-21 -33 -47 -141 0
-50 -116 158 173 0
63 70 -111 -164 0
-15 32 -64 96 0
-71 100 -120 -135 0
-51 -65 -154 -172 0
-31 89 119 -177 0
-9 60 -105 -170 0
36 51 -102 157 0
-61 -146 -159 -161 0
25 -57 -107 173 0
-15 19 78 112 0
-58 -62 105 -128 0
-9 122 147 -160 0
-31 67 -99 115 0
87 90 -94 -116 0
-9 -29 -117 131 0
-85 -88 -90 108 0
-38 -86 126 166 0
-13 49 103 168 0
-12 -40 92 -124 0
-142 154 -164 -175 0
23 26 -57 -132 0
47 91 -97 153 0
58 -93 136 -160 0
1 -53 58 -141 0
-15 110 137 -167 0
25 -30 -40 85 0
-28 -72 -162 171 0
28 58 -61 -78 0
-21 78 -116 -119 0
-6 -23 -89 152 0
-28 -35 136 -153 0
33 -34 160 170 0
2 -4 -12 34 0
4 15 16 -136 0
46 -69 143 169 0
-26 -45 72 166 0
24 138 -143 -156 0
49 -83 -136 -172 0
-22 -26 -136 -141 0
32 -33 87 -98 0
30 48 -78 -162 0
-96 -115 -119 -144 0
-28 -66 68 -118 0
22 31 -78 -131 0
-66 81 -168 -179 0
-104 -115 133 -152 0
18 60 -148 -165 0
-8 -45 99 -152 0
77 -95 134 -142 0
-38 -40 -82 -132 0
-15 61 -81 -108 0
19 73 124 -136 0
-24 40 85 -91 0
-6 23 31 -92 0
-40 -121 143 153 0
5 27 -124 151 0
-44 -54 -172 -175 0
-65 157 162 -173 0
-110 -136 -153 169 0
-82 -85 -95 174 0
18 -80 -89 163 0
-43 112 141 -159 0
-41 -87 125 165 0
26 40 60 85 0
66 129 133 -167 0
-45 53 79 84 0
-13 84 99 131 0
5 74 88 -145 0
6 88 -120 135 0
37 -114 -118 180 0
88 -122 -127 160 0
90 140 159 168 0
-26 89 103 108 0
-34 42 -143 -152 0
-76 -117 -119 122 0
54 -111 -115 -117 0
-7 69 -73 -180 0
-6 -37 -99 116 0
-31 63 135 -167 0
-9 -34 -122 -147 0
-22 -44 -53 130 0
-12 28 -69 -174 0
-10 -35 86 -166 0
13 -33 126 148 0
-21 -41 -61 -125 0
2 48 141 156 0
-1 3 46 97 0
-7 -99 122 176 0
17 24 145 165 0
6 46 71 -80 0
47 -70 -72 153 0
-13 25 151 -164 0
-51 69 116 120 0
16 -61 101 -150 0
45 117 -123 -135 0
-22 70 116 161 0
3 55 56 119 0
25 41 -116 133 0
-16 -41 71 -164 0
-21 34 -40 -174 0
11 47 56 -93 0
-27 -43 115 -118 0
43 49 -69 -127 0
-48 -52 -97 130 0
-3 76 -91 -126 0
-24 99 117 129 0
28 -52 -86 116 0
25 -33 -145 -158 0
25 -38 -39 151 0
4 29 106 -121 0
14 81 94 117 0
-32 56 85 150 0
-24 -86 -133 -151 0
-2 5 -10 -109 0
-27 -28 38 116 0
-52 53 -90 -170 0
-72 -96 110 -121 0
-8 -13 -53 58 0
1 -59 65 174 0
-72 -84 99 177 0
-18 -91 115 -137 0
-44 -114 -133 -144 0
31 -68 -129 -164 0
56 75 98 105 0
-7 53 -83 84 0
-21 -48 79 -160 0
-61 73 -162 165 0
53 84 -134 -170 0
-30 46 -96 -149 0
-49 124 -145 -175 0
-30 -73 -103 -165 0
-18 -69 -103 131 0
15 96 164 -174 0
48 72 -75 111 0
-15 -44 50 94 0
-13 60 77 79 0
67 132 138 -170 0
26 105 -126 178 0
-72 -96 143 156 0
34 -79 123 155 0
103 -124 129 137 0
2 -8 71 -158 0
47 -97 -153 -166 0
-6 52 -67 141 0
61 72 82 122 0
-47 -95 -143 -153 0
11 -54 -55 -72 0
74 -113 144 177 0
38 106 -116 122 0
-19 111 151 -172 0
44 113 147 164 0
14 -30 -72 -178 0
-35 -40 90 120 0
29 36 -137 -168 0
41 -54 117 122 0
22 99 118 -126 0
21 137 155 -173 0
31 -67 -104 -120 0
67 80 99 153 0
4 51 -79 -80 0
-38 140 146 150 0
-12 -64 -168 -169 0
51 -52 -71 145 0
-17 54 128 170 0
-22 -62 -141 -160 0
-86 114 -131 -156 0
1 60 -85 165 0
-104 -116 137 155 0
24 -60 67 156 0
-11 25 -52 -140 0
-74 122 145 -170 0
-28 -125 -126 145 0
-42 91 -100 174 0
-10 32 -84 -86 0
66 107 -152 158 0
-28 -57 83 180 0
63 110 -120 -175 0
-36 -92 -114 -171 0
-64 119 -124 133 0
-20 38 103 -108 0
-49 74 86 -161 0
-41 57 70 -167 0
-66 128 -157 176 0
84 88 -138 -140 0
7 115 121 -166 0
-50 68 119 124 0
-18 32 35 -157 0
84 -118 -147 168 0
-58 90 -111 -139 0
-64 -80 -127 173 0
6 34 39 -162 0
-24 88 104 -143 0
1 -35 -76 93 0
47 118 -144 -146 0
-106 -144 149 -158 0
17 -56 -151 -177 0
-26 -56 -89 -112 0
107 110 116 -162 0
-9 -11 136 176 0
-39 88 130 -172 0
-41 44 116 163 0
42 113 -136 -138 0
-19 27 52 54 0
-33 -46 -93 179 0
-81 -105 116 162 0
-21 38 52 90 0
-22 106 -153 174 0
64 140 -150 157 0
19 -88 158 -161 0
42 64 168 170 0
-31 -70 137 151 0
-40 43 91 111 0
-21 25 68 -178 0
-64 85 -89 99 0
-23 31 -68 120 0
-33 65 75 87 0
21 36 112 159 0
-36 63 73 121 0
-23 -83 -109 121 0
-24 70 -74 -134 0
35 45 -82 138 0
-10 39 -55 160 0
10 53 100 157 0
-2 -58 -79 173 0
-56 -98 131 133 0
-31 -114 -151 -178 0
-86 -121 -150 177 0
-18 -51 63 -171 0
-26 -31 143 144 0
-17 79 127 136 0
17 18 104 151 0
39 -81 132 -157 0
6 -100 -139 -174 0
-9 106 124 -129 0
33 -34 -113 -130 0
57 58 -60 -176 0
-27 -58 -84 -156 0
36 103 128 150 0
59 84 -135 143 0
7 100 -105 112 0
-35 89 -97 -133 0
46 -92 108 -123 0
8 38 -43 77 0
14 -45 155 170 0
-2 -18 -44 98 0
15 58 -133 -136 0
2 121 154 155 0
19 -29 -73 167 0
-8 62 78 126 0
-5 -6 -57 95 0
16 32 33 76 0
9 19 -66 78 0
-17 56 -96 -111 0
82 -142 145 180 0
47 -143 -149 -165 0
10 19 -122 -128 0
-145 -166 172 176 0
94 -108 174 -175 0
115 124 -164 -177 0
-32 -112 131 -148 0
4 47 146 155 0
70 -99 117 174 0
-87 100 150 153 0
50 -58 113 -167 0
-66 69 -109 -112 0
-24 30 -46 71 0
-3 76 -92 -131 0
64 78 -130 -162 0
2 -88 97 149 0
4 -109 110 -123 0
-94 -141 -164 171 0
35 -43 -78 -160 0
-93 -111 125 -165 0
42 63 130 178 0
49 -73 -105 -169 0
40 -48 99 125 0
19 29 36 155 0
-14 -19 23 108 0
37 126 -134 -155 0
-9 42 56 -75 0
116 -139 -148 167 0
-80 111 -117 -120 0
23 42 81 -91 0
-11 69 -77 130 0
-32 -135 150 157 0
43 -67 -87 112 0
43 -58 -133 155 0
-6 -13 -63 -179 0
-3 19 -29 -86 0
20 23 83 -147 0
-14 101 -116 -135 0
23 -51 -55 -113 0
-10 93 -111 -143 0
2 6 -25 46 0
-82 -96 125 -141 0
57 -81 109 -160 0
9 50 63 -116 0
-20 -46 -70 -170 0
32 54 -101 135 0
-76 112 128 161 0
7 131 156 175 0
30 -46 -99 145 0
71 -113 119 -155 0
47 120 -163 171 0
-91 98 -145 -169 0
-11 -121 158 -180 0
16 -39 114 -158 0
-6 23 -124 148 0
-40 -109 -135 -170 0
-40 -71 98 114 0
5 27 30 -121 0
-38 -73 -110 -175 0
67 -142 153 -169 0
-20 59 -65 -94 0
-2 47 -56 79 0
-59 62 77 -162 0
140 143 150 158 0
74 -87 151 154 0
100 102 -143 179 0
1 -29 -67 130 0
-10 -38 45 -140 0
-76 -120 136 170 0
2 14 114 139 0
18 42 87 179 0
91 96 121 -162 0
3 -49 61 -96 0
-105 133 -156 163 0
2 119 134 -140 0
-40 -97 145 -147 0
6 -47 66 -158 0
12 -49 -93 157 0
20 -36 138 140 0
-2 -5 -57 -89 0
28 -73 94 170 0
35 112 -123 -172 0
21 48 73 -143 0
-12 53 99 -106 0
-31 -90 -110 -178 0
38 49 125 141 0
26 -30 -53 170 0
-24 25 91 -165 0
33 39 -44 -45 0
96 109 121 143 0
-145 -148 -161 -175 0
119 123 141 148 0
29 66 -138 -164 0
-6 33 34 160 0
-3 13 32 125 0
-28 -32 -47 132 0
3 51 112 149 0
46 -79 82 147 0
54 87 -147 -174 0
-3 -60 -89 -131 0
23 -76 110 112 0
-14 -54 -59 -80 0
-14 -105 133 -156 0
-46 61 -147 160 0
1 -2 39 100 0
50 128 172 177 0
78 107 138 177 0
15 99 128 -136 0
-89 -109 159 171 0
66 -122 129 -142 0
14 -45 -52 -146 0
-12 79 -105 109 0
-28 46 63 -85 0
-8 28 65 -86 0
-44 115 -136 -140 0
-39 141 -143 -168 0
-14 29 147 167 0
5 6 125 -162 0
-11 -32 -164 180 0
-79 -100 117 -176 0
-53 136 -140 151 0
-19 50 88 -130 0
-43 -59 -130 -140 0
-28 41 -93 167 0
34 54 -60 126 0
-1 145 152 169 0
13 -41 -57 89 0
13 61 -83 -149 0
36 44 -84 146 0
13 -23 122 169 0
34 44 -79 -142 0
12 -33 -103 126 0
13 18 -41 -161 0
-89 93 -101 -134 0
4 -37 -113 116 0
9 43 46 -155 0
13 16 -109 130 0
-3 98 -100 -138 0
-76 -121 129 -156 0
-24 51 -131 136 0
-53 -106 138 165 0
-21 -70 -74 -119 0
13 119 -139 160 0
43 76 125 177 0
66 110 -123 -128 0
5 -31 -35 171 0
-17 38 -69 -71 0
-6 34 -86 129 0
-34 -58 118 153 0
14 27 99 168 0
-3 -139 142 152 0
40 -51 -83 170 0
-23 40 -64 83 0
50 77 -95 99 0
89 92 -105 137 0
-2 -41 -42 -139 0
-92 -105 -153 169 0
-35 -88 -94 -101 0
-78 96 124 -164 0
34 -91 93 -180 0
-6 -67 69 177 0
-46 111 -117 121 0
-4 -64 -87 142 0
32 87 128 -175 0
-51 -92 -131 -170 0
21 -30 141 -169 0
-20 31 -140 -167 0
-81 -135 -147 -174 0
-26 73 115 175 0
40 63 159 178 0
-75 84 -135 -153 0
-9 28 -85 106 0
-47 -56 -96 147 0
77 99 101 -159 0
-16 36 84 -163 0
-7 39 -170 -174 0
30 -44 104 141 0
-38 75 101 -175 0
-17 50 -74 163 0
12 -117 -128 154 0
31 -48 -142 -171 0
13 -57 74 -96 0
5 -13 119 153 0
18 -26 146 173 0
-32 -35 84 156 0
1 -3 120 121 0
25 54 113 -164 0
14 18 119 -152 0
-29 -47 152 156 0
27 120 -165 179 0
28 45 78 -164 0
-51 61 89 110 0
-124 -137 -177 -180 0
103 118 124 137 0
1 -40 -53 130 0
1 -95 121 137 0
6 -10 -28 133 0
-7 97 -98 174 0
59 -77 102 -110 0
-79 129 142 -160 0
-87 -106 -134 -179 0
-9 -77 -84 -173 0
18 -72 122 -166 0
29 96 153 -171 0
15 102 118 -174 0
17 -96 -141 168 0
-25 -49 -78 -146 0
9 32 -42 -123 0
-19 102 167 -169 0
5 40 -76 130 0
-6 -22 85 -98 0
22 59 94 -104 0
37 39 100 -102 0
-88 108 -172 174 0
-53 68 -99 130 0
17 47 161 -162 0
27 -44 75 -102 0
40 87 -159 -172 0
56 -128 -131 -132 0
70 72 102 -134 0
5 -49 -61 -85 0
-57 -73 -122 173 0
-4 26 69 128 0
-51 -83 86 -162 0
-44 -133 149 -154 0
-1 18 57 -102 0
78 -94 -149 155 0
-83 -85 101 -142 0
-3 21 -58 65 0
7 -16 -61 71 0
51 59 62 66 0
-5 -67 -143 -166 0
-17 23 54 119 0
1 -55 -132 133 0
54 -100 -117 120 0
4 -87 99 128 0
-3 -35 -134 170 0
-26 126 -148 -165 0
-50 85 136 175 0
31 -51 71 -74 0
-69 -82 132 134 0
44 46 69 102 0
-76 -116 121 157 0
-3 19 -137 -139 0
9 17 55 -101 0
25 -35 -66 170 0
-37 155 -163 173 0
40 54 101 -145 0
17 72 -88 -100 0
20 97 -148 -179 0
31 44 -109 -172 0
9 70 -115 -142 0
-27 45 52 -109 0
23 -55 80 170 0
56 -59 -152 -174 0
24 -27 127 -130 0
46 66 -108 -126 0
-81 -124 -130 162 0
36 54 -118 155 0
-109 118 122 -157 0
7 48 -53 -106 0
-77 -140 -161 -179 0
44 111 -145 -172 0
1 44 -56 62 0
26 106 136 137 0
31 -42 137 178 0
-19 34 -59 -73 0
28 -60 102 126 0
21 77 -84 -94 0
-33 -45 59 -75 0
65 -120 155 -156 0
-12 -31 49 105 0
6 75 112 171 0
43 50 -51 129 0
-16 40 75 -166 0
19 -49 68 -105 0
-64 -68 -95 132 0
32 -41 83 -134 0
-24 31 59 -113 0
-92 -94 144 170 0
46 -100 -106 -177 0
-8 -122 -129 -172 0
-69 99 161 166 0
-58 -73 -85 123 0
-9 -148 -150 -155 0
50 -79 86 115 0
-17 31 36 -39 0
-59 -73 75 -145 0
-57 -101 117 136 0
76 -161 163 178 0
67 111 -114 -157 0
-75 120 130 -142 0
29 55 -56 -76 0
-64 -115 -121 146 0
-75 95 132 -163 0
-41 90 -142 -161 0
85 86 -102 -155 0
-71 132 -157 180 0
54 -61 -143 155 0
-35 -65 -113 153 0
-21 -56 -61 -109 0
10 93 -114 -133 0
21 100 141 -164 0
-42 140 161 -171 0
-5 -23 58 108 0
16 65 158 178 0
14 -40 -85 163 0
-7 12 107 -124 0
76 148 -152 153 0
32 145 169 -178 0
-12 -35 -48 102 0
6 16 48 97 0
-20 101 127 162 0
-32 46 -116 118 0
8 -104 133 -160 0
-15 31 -124 140 0
58 110 116 -146 0
59 -83 -90 -93 0
11 -132 -135 -157 0
41 -58 70 89 0
29 -82 109 127 0
23 -70 156 -177 0
1 -33 99 170 0
16 50 -94 160 0
-26 -108 119 -170 0
16 -48 79 167 0
7 -14 18 -25 0
5 26 -51 -63 0
11 -21 154 -174 0
76 -100 -148 158 0
-20 44 118 163 0
2 77 -129 -178 0
93 -94 -133 134 0
19 -24 -26 -145 0
-23 53 -117 175 0
-74 96 -126 163 0
-49 92 -114 167 0
-29 57 -100 177 0
-21 68 86 134 0
-19 44 55 -119 0
-21 94 -130 133 0
-95 -125 -137 -159 0
20 -49 -69 -145 0
14 42 -84 88 0
14 16 45 -151 0
8 -116 137 141 0
-68 -99 -145 -165 0
-72 -142 -168 -180 0
-26 -74 171 -174 0
-20 -63 134 169 0
-6 -79 -142 -155 0
80 135 -164 -170 0
35 106 -126 173 0
-129 131 145 -165 0
37 50 107 109 0
23 -62 -130 -152 0
-34 49 -114 140 0
-1 -107 130 179 0
5 14 -47 -98 0
-50 103 -138 -141 0
-45 106 114 -147 0
-32 -43 52 -109 0
30 41 52 145 0
14 28 33 -43 0
-4 134 145 -168 0
-86 -117 134 164 0
9 39 -127 146 0
-56 68 125 -171 0
54 -62 -80 -97 0
-10 -32 76 124 0
20 -41 56 -83 0
7 -52 -56 -154 0
60 -123 -137 -143 0
-68 -120 -129 -133 0
96 123 -138 158 0
-50 86 -127 145 0
-1 47 -79 -150 0
39 -46 53 128 0
-14 133 -161 -164 0
-34 80 -123 143 0
9 118 -164 168 0
35 107 -146 -161 0
-12 -103 -119 164 0
1 -82 122 162 0
19 41 -59 60 0
85 108 -119 -166 0
-25 -101 -123 152 0
3 51 -89 -141 0
-39 -94 -104 138 0
44 -47 -86 -130 0
-77 87 96 98 0
2 -28 -90 102 0
-130 -141 142 -164 0
55 -63 -147 -153 0
-11 -38 -93 -125 0
-10 -94 -129 -146 0
-69 90 148 163 0
94 -135 -136 -160 0
32 55 -99 148 0
63 100 -136 -157 0
94 127 -147 -167 0
1 -25 39 -75 0
-23 -57 61 168 0
42 49 -83 95 0
-7 -64 -104 136 0
34 115 151 178 0
6 -25 32 -69 0
-97 -162 175 180 0
-68 73 -115 -161 0
-14 -95 -112 -129 0
96 116 159 171 0
21 106 158 -161 0
-27 50 -91 -113 0
-69 75 -91 -159 0
-6 27 52 -147 0
-33 -41 -42 -114 0
-27 31 -105 113 0
-60 -70 166 172 0
10 -26 -122 -165 0
-20 -45 86 -106 0
-2 -55 93 -164 0
-16 -91 -144 -175 0
36 -96 -122 170 0
13 50 -123 140 0
9 -88 176 179 0
-18 22 27 180 0
-47 -103 -119 -171 0
32 147 -149 154 0
-9 -25 84 142 0
8 -50 85 179 0
-27 -52 -128 -134 0
21 28 42 98 0
57 -127 -142 148 0
-55 -107 -127 147 0
51 107 -114 156 0
6 35 60 -84 0
67 76 -133 -134 0
-63 -70 104 151 0
-41 61 -83 -115 0
7 17 -39 -93 0
19 -112 -114 178 0
50 -87 139 -141 0
44 62 -108 -113 0
-13 99 -101 119 0
-10 54 133 150 0
-9 30 46 117 0
77 79 -84 -127 0
-61 124 -130 163 0
-48 52 -69 -145 0
-72 -93 -158 177 0
49 -85 -132 -150 0
-84 106 108 -166 0
52 -88 136 -177 0
54 56 -102 165 0
-13 -34 -92 96 0
-21 82 -89 -159 0
-27 -34 93 112 0
18 119 -135 -156 0
26 -69 -118 178 0
-7 -33 -85 -143 0
-85 100 115 -175 0
-14 -103 -104 136 0
9 68 73 -136 0
-11 44 -49 77 0
67 102 106 -155 0
-13 -18 -19 99 0
-10 -79 136 -180 0
40 42 167 174 0
35 -51 59 100 0
93 -140 157 171 0
-80 -87 -101 137 0
-32 81 -100 -112 0
35 92 -106 146 0
10 26 -29 -117 0
-14 -17 -18 46 0
17 52 -131 -166 0
2 39 -82 -123 0
54 126 -172 180 0
-13 57 66 -108 0
-16 74 96 -179 0
22 -83 86 -95 0
95 148 159 -171 0
-54 -58 -100 127 0
92 96 102 -144 0
51 -54 -56 -163 0
8 -11 -116 -128 0
-29 -56 -108 -180 0
66 -69 -73 142 0
2 119 -122 -175 0
68 -75 145 176 0
-9 23 29 178 0
94 -96 -136 -172 0
-90 146 159 178 0
-47 -60 104 -114 0
42 53 114 178 0
73 -93 -135 -155 0
48 -70 -90 160 0
-62 68 -127 128 0
-66 -102 -115 173 0
-47 -102 -115 154 0
-62 -103 111 -146 0
22 -80 -107 162 0
60 -136 -151 -179 0
9 -71 -76 -142 0
40 -77 79 148 0
-28 101 -142 157 0
13 73 -177 180 0
44 109 115 -144 0
74 82 -148 -172 0
75 81 -98 156 0
93 116 -127 -168 0
34 -62 -90 104 0
35 -62 68 125 0
63 -82 87 -127 0
16 18 23 -42 0
-7 -48 -133 -136 0
8 82 104 -123 0
-20 25 -33 -44 0
-71 112 -137 -146 0
71 83 112 -176 0
85 -127 -160 -176 0
-19 58 63 124 0
-61 103 -155 -162 0
-35 -46 129 173 0
17 71 123 -131 0
59 -109 163 178 0
-53 -66 106 -173 0
-72 -97 -123 -137 0
1 -23 117 176 0
14 61 -142 -149 0
11 25 109 144 0
-13 -37 55 -106 0
59 65 66 -86 0
73 74 88 90 0
-6 28 83 -125 0
-37 99 -100 122 0
15 28 132 167 0
-13 -46 73 106 0
-78 90 129 -175 0
19 30 -62 -81 0
7 -61 96 -150 0
157 -164 -167 -170 0
24 34 -81 130 0
-50 -88 103 -149 0
27 -42 71 88 0
-35 -134 150 -170 0
20 -26 -102 145 0
-59 96 -144 -167 0
-1 66 -105 114 0
52 -89 -102 109 0
30 126 -128 -131 0
-8 21 76 -115 0
27 -29 -43 100 0
4 -83 108 143 0
-10 -78 102 -169 0
-42 -52 -103 118 0
20 -71 -122 175 0
-61 -78 -103 -111 0
-29 90 119 -137 0
15 -94 -101 -166 0
-5 -81 96 -145 0
56 -58 -104 -166 0
52 75 121 -175 0
-47 -71 75 169 0
-79 80 -88 157 0
23 25 -52 104 0
-15 -59 68 -90 0
25 103 130 136 0
40 -70 -89 110 0
8 -65 99 152 0
-26 -61 -98 -148 0
-32 -96 -118 145 0
11 -38 49 174 0
-37 139 -160 177 0
22 53 87 -137 0
54 71 -105 129 0
-37 55 142 150 0
-6 -17 -19 103 0
77 125 148 -159 0
27 -98 -128 156 0
-53 86 92 -102 0
-1 -81 152 164 0
20 -22 -120 177 0
-50 57 -60 -148 0
-61 87 -125 -180 0
-51 -127 149 167 0
-38 62 69 -143 0
-40 93 -109 162 0
43 -86 87 -142 0
2 16 60 -179 0
-48 121 151 -154 0
-13 49 -152 -162 0
15 94 132 -155 0
-62 -117 151 152 0
6 66 -100 145 0
26 114 -135 138 0
54 79 111 -162 0
-36 -59 169 176 0
21 52 -139 176 0
-82 122 -135 143 0
-29 32 -40 -62 0
62 -90 -125 -180 0
-70 -92 -125 141 0
53 100 -105 -160 0
-3 14 97 157 0
14 26 130 156 0
21 92 157 177 0
-3 -4 132 167 0
-5 97 -116 178 0
64 -78 -149 155 0
6 -43 67 -128 0
-3 20 -117 -163 0
5 -83 153 -155 0
33 54 -56 124 0
-50 99 -146 168 0
4 9 -46 75 0
6 31 -44 84 0
27 -91 -120 180 0
51 69 -75 83 0
-53 59 -82 -143 0
-40 -112 -124 -167 0
24 78 149 -179 0
-17 114 -158 -162 0
-29 43 93 177 0
41 47 110 -154 0
131 -135 145 -180 0
-23 -24 29 157 0
65 78 124 131 0
1 94 118 154 0
4 52 -124 -152 0
78 89 160 -174 0
-4 -125 164 -165 0
12 18 -130 -139 0
69 -79 80 -130 0
-63 -79 -127 156 0
36 94 -110 159 0
2 -71 -116 119 0
-70 -130 144 -163 0
-31 -68 -71 -136 0
-111 170 -172 -173 0
-93 101 -113 115 0
57 -60 71 133 0
-9 48 151 -175 0
9 40 -126 -163 0
-27 43 -129 151 0
-91 95 -112 -146 0
2 -18 -154 -155 0
-67 -85 139 140 0
-91 -95 -107 146 0
9 -21 50 -68 0
12 -23 -173 -178 0
-27 89 105 -148 0
30 33 121 164 0
-19 57 -127 -178 0
-24 126 170 180 0
-11 108 113 -115 0
-26 40 136 161 0
-85 -148 -168 -173 0
-10 62 84 -142 0
35 144 -148 -161 0
-82 -131 -156 -159 0
