c description: Random 3-CNF over 30 variables and 90 clauses
c generator: CNFgen (0.9.5)
c copyright: (C) 2012-2026 Massimo Lauria <massimo.lauria@uniroma1.it>
c url: https://massimolauria.net/cnfgen
c random seed: 31040
c command line: cnfgen -S 31040 -o cnfgen_regression_pack/cnfgen_cases/planted_rand3cnf_v30_m90_s2_sat.cnf randkcnf -p 3 30 90
c
c known_status: SAT
c pack_family: planted_randkcnf
c pack_level: easy
c pack_notes: CNFgen planted random k-CNF
p cnf 30 90
7 12 -27 0
2 -26 -28 0
3 6 10 0
-16 17 21 0
10 19 26 0
-7 8 30 0
-4 16 -24 0
-16 17 -18 0
-12 23 -25 0
13 -22 -28 0
-5 -20 -27 0
-4 -11 24 0
-12 13 -21 0
-2 -11 -16 0
-20 22 -28 0
-8 -20 -30 0
-1 -12 17 0
-6 -13 -29 0
-1 8 -16 0
-1 8 -17 0
12 -23 -25 0
-14 19 21 0
-8 17 -29 0
-2 -9 -30 0
-7 -22 27 0
-15 -21 -28 0
2 -7 -8 0
-3 24 28 0
2 -8 21 0
-9 -22 -28 0
19 21 29 0
-4 19 28 0
2 -7 -20 0
18 -22 23 0
-10 13 14 0
7 12 29 0
5 6 11 0
2 -15 16 0
-4 7 20 0
-7 19 -21 0
-10 19 25 0
2 11 -16 0
-6 10 -30 0
-9 10 -25 0
-7 -16 25 0
3 -10 28 0
-5 7 26 0
8 -10 26 0
-4 -21 -24 0
10 14 -16 0
1 -10 -19 0
-1 10 13 0
3 15 -22 0
2 20 27 0
15 23 24 0
12 -27 -30 0
-12 -15 28 0
-2 4 -10 0
14 -23 26 0
-2 4 -20 0
13 15 -18 0
-2 15 -25 0
-11 14 25 0
1 -9 -20 0
3 23 -29 0
-13 -24 29 0
-1 3 24 0
8 -12 -16 0
-18 -22 -28 0
-5 -7 -8 0
-1 12 -19 0
-18 -21 -30 0
4 -6 28 0
-5 11 28 0
4 12 -23 0
-1 4 24 0
-8 -16 -28 0
-12 21 27 0
3 -5 27 0
-7 12 -29 0
-1 8 28 0
-15 -19 -28 0
2 7 24 0
-1 -11 19 0
-2 4 7 0
-10 -24 -28 0
1 -10 -28 0
7 -12 -26 0
-18 -25 -30 0
20 -22 30 0
