c description: Random 2-CNF over 50 variables and 60 clauses
c generator: CNFgen (0.9.5)
c copyright: (C) 2012-2026 Massimo Lauria <massimo.lauria@uniroma1.it>
c url: https://massimolauria.net/cnfgen
c random seed: 31021
c command line: cnfgen -S 31021 -o cnfgen_regression_pack/cnfgen_cases/planted_rand2cnf_v50_m60_s2_sat.cnf randkcnf -p 2 50 60
c
c known_status: SAT
c pack_family: planted_randkcnf
c pack_level: easy
c pack_notes: CNFgen planted random k-CNF
p cnf 50 60
-45 -49 0
2 -42 0
19 -20 0
-25 34 0
-21 -31 0
-16 -22 0
18 43 0
-4 50 0
9 -15 0
29 -42 0
34 43 0
-43 45 0
-15 35 0
3 -9 0
-26 -49 0
-5 34 0
5 -16 0
31 35 0
-18 -39 0
-8 -26 0
26 28 0
25 -35 0
-1 33 0
9 31 0
-4 -9 0
-9 12 0
9 -48 0
6 50 0
31 -43 0
32 46 0
7 21 0
-3 -12 0
-4 -16 0
-18 19 0
7 32 0
2 -16 0
17 26 0
35 36 0
-10 -21 0
10 50 0
-7 24 0
-15 21 0
-7 -45 0
5 9 0
19 25 0
4 25 0
24 47 0
1 -31 0
44 -49 0
9 -41 0
-41 -45 0
-3 22 0
-35 41 0
-6 30 0
-4 23 0
-21 25 0
28 -42 0
29 30 0
34 37 0
41 -50 0
