c description: Random 4-CNF over 80 variables and 520 clauses
c generator: CNFgen (0.9.5)
c copyright: (C) 2012-2026 Massimo Lauria <massimo.lauria@uniroma1.it>
c url: https://massimolauria.net/cnfgen
c random seed: 31055
c command line: cnfgen -S 31055 -o cnfgen_regression_pack/cnfgen_cases/planted_rand4cnf_v80_m520_s1_sat.cnf randkcnf -p 4 80 520
c
c known_status: SAT
c pack_family: planted_randkcnf
c pack_level: moderate
c pack_notes: CNFgen planted random k-CNF
p cnf 80 520
12 -39 40 -51 0
20 -28 33 -57 0
9 27 -47 75 0
-23 32 -38 -79 0
24 43 -48 54 0
-5 -10 33 80 0
-11 -12 38 -75 0
3 -21 -34 39 0
29 -45 -55 -62 0
-18 -45 -46 -64 0
-29 38 -49 73 0
-3 7 19 40 0
-14 -21 65 -70 0
-14 -63 -72 -75 0
-23 -28 -44 58 0
-3 19 22 40 0
40 -55 -59 73 0
-1 11 -20 49 0
-4 -27 34 -74 0
-21 26 -63 -79 0
4 -49 -65 -78 0
14 40 -46 -71 0
-13 -45 55 72 0
12 -24 -34 -43 0
-49 62 63 67 0
29 -44 47 -53 0
-11 -40 -66 76 0
-12 34 59 -62 0
5 -6 35 42 0
-19 42 -68 -78 0
-18 20 63 -67 0
24 -34 35 55 0
-18 55 57 -64 0
-18 -27 49 -75 0
13 58 -74 -80 0
-14 17 -53 -66 0
16 -61 -74 -78 0
-19 -38 48 -69 0
17 25 38 62 0
-25 -38 -39 -72 0
23 -29 -40 41 0
13 -52 -68 -69 0
-14 -15 47 61 0
-1 -6 -33 47 0
-15 -24 28 54 0
-12 19 -35 62 0
-26 54 -65 72 0
11 16 -59 -73 0
-13 42 -47 61 0
-1 -64 68 -79 0
-5 11 -21 72 0
-6 10 41 65 0
-1 -38 73 -74 0
-18 19 -55 65 0
-13 -14 30 -41 0
9 -44 45 75 0
8 -21 26 74 0
2 18 -28 -40 0
2 -3 7 80 0
4 -37 54 70 0
-21 -33 -42 56 0
20 56 -66 74 0
-14 21 -28 44 0
-35 -36 -58 75 0
-22 67 68 70 0
4 -23 27 -77 0
4 43 -54 -72 0
38 42 58 78 0
-2 -8 17 -69 0
9 28 -45 -49 0
9 21 33 -42 0
-9 -15 25 44 0
53 55 -62 -77 0
4 -14 50 60 0
25 -31 -32 -50 0
9 39 -61 69 0
18 31 44 47 0
33 -42 -53 63 0
3 -18 39 -41 0
-3 33 42 -51 0
1 -41 70 72 0
5 -10 59 -78 0
25 -37 51 -77 0
16 -21 27 77 0
-28 -40 50 59 0
8 59 77 80 0
36 -37 -69 77 0
-5 6 -52 -79 0
1 -54 76 78 0
25 32 -52 64 0
-14 -17 66 -71 0
1 -24 -34 -53 0
-4 -7 42 -71 0
-58 60 -61 71 0
-17 -37 50 75 0
-11 12 -68 70 0
-34 45 48 50 0
-16 -18 -36 -65 0
2 7 12 -75 0
-36 -50 -64 78 0
3 -13 -20 58 0
8 44 -52 53 0
5 -13 -50 77 0
-8 10 14 63 0
-9 -17 49 -53 0
-5 19 -53 -67 0
-14 -27 30 -67 0
30 -47 54 56 0
12 -13 21 33 0
28 -34 57 75 0
39 46 48 -63 0
7 48 -63 -73 0
33 -35 -64 71 0
31 -47 -49 -59 0
17 53 54 67 0
-22 -45 48 -49 0
4 -28 43 57 0
3 32 50 73 0
-43 -62 -73 80 0
-17 25 41 -50 0
-45 -56 60 65 0
20 33 37 -43 0
4 -28 60 80 0
8 -13 17 30 0
-1 5 40 -65 0
27 48 67 -77 0
-40 48 57 -77 0
6 -10 -28 49 0
20 40 53 -54 0
19 -39 43 -47 0
11 -23 -57 63 0
-42 -58 -63 67 0
-16 35 47 59 0
10 30 41 -58 0
-26 -30 44 62 0
-31 -36 50 76 0
13 15 46 71 0
-20 26 -30 -43 0
-2 10 43 61 0
-11 45 55 63 0
3 40 -72 -73 0
-7 -11 -14 38 0
-6 18 20 79 0
-40 50 52 -69 0
-19 27 -42 -45 0
8 -17 42 -63 0
9 -12 -20 -71 0
1 -11 -34 -40 0
6 49 -53 74 0
-5 -16 -50 63 0
-14 40 -54 74 0
-4 27 37 62 0
45 -61 -67 -80 0
-20 -44 -52 -61 0
35 -52 -58 -72 0
13 28 -58 -61 0
-29 -42 53 -80 0
2 12 26 38 0
-20 -37 68 75 0
23 46 -70 -76 0
29 54 -63 65 0
-62 72 -74 75 0
9 19 -44 -51 0
19 -35 -51 -60 0
-9 26 46 -77 0
10 20 67 -80 0
12 -19 -20 52 0
7 -24 -25 -34 0
-8 -26 51 67 0
6 24 45 -66 0
-15 49 54 -76 0
21 -40 -53 80 0
19 -21 36 -65 0
17 -20 -35 37 0
-2 10 38 39 0
-9 11 25 69 0
45 52 -71 74 0
16 -52 -57 73 0
-17 -23 43 63 0
1 7 49 60 0
5 -13 21 -70 0
-3 10 16 -26 0
7 22 -55 74 0
-20 31 -45 -49 0
-33 -66 68 -72 0
18 20 -22 -74 0
-5 -47 59 -77 0
-29 -49 57 71 0
11 -32 -41 -77 0
-29 -38 -43 -51 0
1 17 66 72 0
-37 -50 -74 76 0
-5 37 -66 -69 0
11 43 44 -57 0
20 39 42 -76 0
-7 47 61 78 0
4 -59 -62 67 0
-18 -31 46 -50 0
-11 13 -26 66 0
-32 33 -63 -78 0
3 15 -37 -65 0
4 -24 25 -41 0
10 -41 58 62 0
8 49 52 76 0
-26 37 -53 58 0
-35 36 44 -53 0
21 50 -54 67 0
-6 22 -34 36 0
2 6 -32 71 0
14 -37 -67 -77 0
8 22 -51 75 0
-47 60 62 -70 0
-7 24 -37 58 0
-40 48 -59 67 0
-53 -56 64 67 0
7 9 13 -42 0
48 55 -63 75 0
-1 31 54 72 0
2 -21 -52 75 0
2 -32 -63 -75 0
-22 32 -46 -57 0
-41 42 44 68 0
5 27 -44 -52 0
6 11 -58 -75 0
-4 5 -51 -54 0
3 -12 41 53 0
1 30 -54 -55 0
-28 34 41 -73 0
35 -40 -64 67 0
22 50 -53 -61 0
-24 -40 -59 65 0
8 55 70 71 0
-2 31 40 -65 0
5 15 -31 61 0
-6 -27 -59 -80 0
-21 -45 -48 76 0
3 -17 35 49 0
-10 -37 71 72 0
-52 -56 65 77 0
19 38 48 68 0
-6 11 -34 -61 0
-13 21 33 -74 0
12 -32 -48 -79 0
1 9 11 -14 0
-36 47 -51 -77 0
-13 50 -61 79 0
12 21 -59 65 0
-9 -20 32 40 0
-14 44 -50 -57 0
-2 -15 68 -70 0
2 -18 23 -56 0
37 -53 -54 73 0
-19 45 57 -60 0
-15 -30 -63 73 0
-34 -40 -51 63 0
5 45 -71 -80 0
-1 -34 56 77 0
24 -29 51 57 0
41 48 64 -72 0
-14 -47 -57 -79 0
43 48 60 62 0
-33 37 41 -72 0
-21 32 -65 -78 0
4 -42 48 60 0
24 37 -38 -39 0
-26 40 -44 46 0
-20 -48 -66 -73 0
13 -17 -18 -79 0
2 37 41 -48 0
31 -54 -76 77 0
2 58 -65 -70 0
8 28 -33 -37 0
-5 7 47 -52 0
12 19 35 -76 0
-8 -22 26 -66 0
-2 -34 -36 39 0
17 20 45 -60 0
-32 35 -42 44 0
-31 -32 -36 -58 0
5 -15 42 78 0
2 -32 -66 -74 0
-17 28 33 -68 0
14 -17 -47 -67 0
13 25 -50 -71 0
11 38 39 -60 0
8 56 62 79 0
-20 -27 39 69 0
11 -22 -43 57 0
11 12 31 -74 0
15 -42 -51 73 0
-34 -50 -57 -79 0
16 -28 68 71 0
-20 -47 -55 -79 0
-26 30 61 65 0
-4 -23 -27 -78 0
-9 12 -21 -34 0
-44 58 67 -75 0
13 34 -44 -48 0
10 -18 22 -45 0
13 -43 56 74 0
13 29 42 -65 0
6 -16 -25 33 0
49 51 -73 75 0
31 41 -59 61 0
-26 36 -51 -65 0
-48 -53 55 58 0
8 -18 46 -67 0
-35 50 -52 -53 0
-28 35 59 60 0
16 37 -58 -78 0
14 -20 29 37 0
30 38 -46 60 0
-4 12 -29 64 0
-5 18 55 78 0
-22 -26 -29 -48 0
-42 51 -67 73 0
29 32 -69 74 0
10 17 -30 57 0
-6 7 34 73 0
2 -52 77 80 0
-5 -26 -28 -62 0
-47 54 62 65 0
-6 60 -66 69 0
-8 -24 -26 58 0
-4 17 59 -65 0
-2 -10 18 31 0
7 -30 -69 70 0
-41 57 -63 -71 0
24 -43 69 76 0
-26 32 58 77 0
9 23 62 -64 0
24 -25 -27 76 0
-29 54 65 76 0
-1 -34 69 80 0
-15 -26 45 68 0
-4 -11 34 -39 0
13 -19 35 -51 0
-8 -30 -55 57 0
4 11 -54 66 0
49 54 -55 -58 0
-8 -29 -32 -38 0
-31 -35 -38 -68 0
49 -66 -67 -74 0
-10 32 -46 -62 0
5 17 -25 43 0
3 52 61 -71 0
-5 -34 39 51 0
-3 15 43 -71 0
-6 -49 60 63 0
20 40 44 -58 0
9 -12 18 71 0
24 29 -69 76 0
-20 30 38 -78 0
17 31 -46 76 0
6 18 -58 -61 0
11 22 34 -78 0
10 -14 26 -73 0
-26 32 -54 -76 0
-1 -6 51 -66 0
2 -14 -17 78 0
-15 23 65 66 0
-1 -11 -59 -64 0
11 18 55 72 0
-18 26 51 -62 0
-31 -47 -53 57 0
-4 -15 41 -73 0
1 70 -76 77 0
-3 29 -55 -70 0
-20 49 -54 -66 0
2 8 44 71 0
4 -19 45 -60 0
12 49 69 70 0
37 -39 -51 -72 0
-31 -33 35 40 0
38 50 -52 -66 0
22 -61 67 -73 0
-21 23 62 67 0
-21 -39 62 63 0
-2 -10 12 -25 0
-11 -27 -67 77 0
49 66 -70 75 0
2 45 -57 76 0
-2 3 71 80 0
12 14 -17 -59 0
4 17 44 -68 0
9 29 -47 59 0
39 -65 -68 69 0
-3 30 -65 -77 0
-15 -20 -64 -66 0
8 43 -52 70 0
-38 -46 54 66 0
2 28 34 79 0
-46 -47 -65 70 0
-39 -63 -70 -75 0
30 -38 -73 77 0
-9 14 -26 43 0
-12 -43 -70 -71 0
32 -41 78 79 0
-30 -44 -66 75 0
4 -30 35 -46 0
44 -65 -66 -77 0
5 -9 -17 23 0
-10 -50 58 64 0
37 -55 62 -68 0
4 15 -32 66 0
-7 -14 -29 54 0
-3 31 48 53 0
16 -25 66 -74 0
4 -23 24 -70 0
32 -33 45 -60 0
-15 28 41 73 0
23 30 60 76 0
24 39 -66 74 0
-32 -62 -68 72 0
19 -46 -67 -74 0
11 35 48 -50 0
-9 37 53 -76 0
-12 -32 58 60 0
-10 -70 -76 79 0
-20 -37 -59 -66 0
-2 4 -19 -46 0
-28 34 39 -41 0
-19 -46 -49 -69 0
26 -28 43 44 0
65 -73 76 -80 0
-36 41 52 78 0
-8 13 40 -63 0
-19 -23 -52 -61 0
-46 -53 -65 77 0
10 -45 60 63 0
-15 25 33 68 0
15 45 63 69 0
1 9 -36 -69 0
-19 36 45 -63 0
-22 -33 44 79 0
1 -2 31 72 0
9 -21 -63 -74 0
10 17 43 71 0
-17 29 32 -44 0
1 48 -69 77 0
-14 -33 -65 -75 0
-20 -22 -49 79 0
-1 12 50 78 0
27 -70 -72 -73 0
-11 14 19 -38 0
10 42 -44 -60 0
-1 -11 -61 -80 0
13 -15 28 42 0
-26 47 55 -58 0
24 -33 67 80 0
6 9 37 -56 0
3 14 -23 49 0
-8 -11 -39 -47 0
-2 -5 -11 -63 0
-26 36 -45 -69 0
-12 16 40 55 0
-1 -13 -21 37 0
1 19 30 64 0
7 -24 -33 -59 0
15 -19 -30 -60 0
5 -54 -61 -66 0
8 19 -52 62 0
-29 48 -66 -80 0
1 -6 50 75 0
-19 20 -45 57 0
-9 33 44 -62 0
8 60 -74 -79 0
3 20 -53 -58 0
-6 -15 25 53 0
-6 8 -14 -45 0
-8 -15 -16 66 0
32 54 -61 -78 0
-2 21 -38 59 0
-13 -48 -51 53 0
10 -13 19 -38 0
-2 -35 -50 64 0
1 -36 50 -66 0
24 27 58 -66 0
-10 39 -52 76 0
-15 -25 28 52 0
-12 -36 49 -80 0
-1 -44 -55 78 0
-8 -50 -76 78 0
22 -44 -45 -57 0
24 38 40 -45 0
-7 17 28 -63 0
-6 18 -56 -75 0
-24 -29 55 -75 0
-14 -30 -35 -43 0
16 39 -55 56 0
2 -4 -41 -75 0
-36 43 44 -62 0
27 -41 44 -79 0
16 -23 -49 59 0
50 -53 -59 60 0
44 -46 -56 -60 0
-2 5 68 79 0
-14 17 -26 -31 0
-1 -7 -37 -77 0
-7 -37 -44 72 0
28 -50 -58 -62 0
4 -11 -22 -33 0
-15 -28 -43 -77 0
-19 -20 -31 74 0
25 33 34 -62 0
20 -24 -65 -71 0
29 -48 56 80 0
-16 29 50 -63 0
44 48 -60 79 0
14 -43 52 -75 0
6 -54 57 61 0
24 -35 -44 80 0
7 41 -48 49 0
-16 26 33 -72 0
14 49 -53 65 0
-14 23 54 55 0
38 49 -52 -55 0
15 -33 -73 79 0
-20 41 65 -69 0
-13 -34 60 -63 0
