c description: Random 4-CNF over 40 variables and 180 clauses
c generator: CNFgen (0.9.5)
c copyright: (C) 2012-2026 Massimo Lauria <massimo.lauria@uniroma1.it>
c url: https://massimolauria.net/cnfgen
c random seed: 31058
c command line: cnfgen -S 31058 -o cnfgen_regression_pack/cnfgen_cases/planted_rand4cnf_v40_m180_s2_sat.cnf randkcnf -p 4 40 180
c
c known_status: SAT
c pack_family: planted_randkcnf
c pack_level: easy
c pack_notes: CNFgen planted random k-CNF
p cnf 40 180
-2 -10 -13 19 0
-2 -7 -27 29 0
-18 27 -31 35 0
17 -19 -28 -30 0
5 17 -34 39 0
13 -22 -34 35 0
8 -37 -38 39 0
-7 11 36 40 0
16 23 31 -40 0
21 22 27 36 0
21 -23 -29 30 0
12 17 -34 39 0
4 -6 -29 -36 0
-15 20 -26 -31 0
14 -29 -31 37 0
-2 -15 20 -23 0
1 -20 -22 -37 0
7 13 -25 -30 0
9 -15 17 32 0
2 -10 13 14 0
2 8 22 -32 0
-2 -8 -22 38 0
2 -6 24 -33 0
9 11 18 20 0
-3 -23 -25 34 0
26 28 -31 37 0
12 -32 -35 38 0
4 -9 -11 -26 0
2 -8 -28 34 0
19 21 -25 33 0
8 -28 -37 -38 0
-5 16 -18 -27 0
20 -25 -30 32 0
3 -19 -29 34 0
-6 12 16 27 0
-1 -9 -19 -30 0
-9 -15 -19 39 0
10 -16 17 26 0
2 13 17 21 0
-1 -3 6 -22 0
-11 -19 22 -36 0
-1 -2 -29 -31 0
-27 -29 34 -40 0
14 23 -29 33 0
9 10 24 32 0
-6 -21 25 33 0
9 -24 -27 35 0
17 -20 24 -31 0
4 -10 12 26 0
7 8 10 -25 0
-1 -3 6 -37 0
4 -21 -27 -32 0
1 19 37 38 0
5 -17 26 -35 0
-3 15 -22 -28 0
5 10 20 -36 0
-3 -10 -33 35 0
-8 -24 -30 38 0
-18 -22 -24 -40 0
10 -12 18 27 0
2 -13 -19 20 0
3 -5 20 31 0
-9 -14 -23 32 0
1 27 31 40 0
-2 3 -7 22 0
-4 -7 18 -35 0
1 -7 -27 36 0
8 18 -29 32 0
-10 21 -29 32 0
14 15 26 36 0
14 24 26 36 0
-22 -25 35 36 0
5 -24 29 34 0
5 -16 21 -34 0
-8 12 30 39 0
-2 -13 26 36 0
-7 -15 23 -26 0
14 -15 -24 -36 0
-14 15 -25 -35 0
23 25 26 -37 0
3 -7 16 38 0
-12 -26 -27 32 0
-8 -9 -17 -27 0
10 -14 -23 39 0
6 7 -18 -40 0
-3 16 -18 30 0
-6 11 -15 -36 0
-27 28 37 -38 0
-3 11 -13 -27 0
-14 -29 33 -38 0
1 -24 -26 32 0
3 12 -18 40 0
5 -15 20 27 0
7 15 29 31 0
1 -4 18 -21 0
-1 -2 23 -27 0
-3 9 -12 34 0
1 3 -7 -9 0
3 -9 12 -19 0
-7 14 16 37 0
2 -11 31 39 0
8 15 -32 -39 0
-15 -22 -25 -37 0
-19 21 -24 37 0
-10 18 -22 28 0
15 28 29 31 0
-2 26 36 -40 0
10 -16 -21 24 0
19 -27 29 -30 0
1 -5 -36 40 0
-3 -11 -15 -28 0
8 9 10 -23 0
3 -21 -24 29 0
4 -5 28 -40 0
2 11 -16 39 0
-7 -17 -27 -36 0
15 -21 23 -27 0
-11 -16 21 22 0
1 2 16 23 0
-1 8 -22 -37 0
-16 -28 -31 -34 0
-3 24 -33 40 0
15 16 31 -37 0
-5 -7 -14 23 0
26 -27 -34 36 0
10 14 24 28 0
-1 -5 16 29 0
2 4 19 37 0
1 -5 -6 -25 0
-4 -14 -32 -40 0
5 25 -32 35 0
4 13 -23 32 0
-14 -22 26 40 0
-13 -19 26 -34 0
8 11 21 -34 0
-25 -30 -31 -36 0
-16 26 33 34 0
2 -16 -29 -38 0
-5 -7 15 35 0
4 -6 -14 -38 0
10 -24 -26 -33 0
4 -9 -14 -18 0
6 21 22 -35 0
5 18 31 -35 0
-8 22 23 -27 0
-1 -2 18 20 0
2 15 24 -39 0
-3 20 23 36 0
8 -13 25 -35 0
-11 19 -20 28 0
-18 -22 -27 -35 0
-7 -11 25 32 0
10 15 -29 38 0
1 -11 26 30 0
11 -19 35 37 0
2 -19 -20 23 0
2 8 -37 38 0
-15 -20 -32 -36 0
-4 -23 26 -31 0
15 18 23 -30 0
-9 32 -34 -39 0
-2 18 -26 36 0
-2 -11 -18 -34 0
1 -9 -26 -35 0
1 16 24 26 0
-10 21 -31 36 0
2 -24 34 -36 0
2 -6 -35 37 0
-1 -18 21 33 0
-8 -11 -13 -23 0
7 19 -23 -32 0
-21 30 -34 36 0
-6 -13 26 -27 0
-21 -32 33 36 0
-16 31 33 -37 0
-5 -13 15 22 0
-4 -9 27 32 0
3 19 24 -40 0
15 16 -25 39 0
3 10 23 -27 0
