c description: Random 4-xor over 48 variables and 36 clauses
c generator: CNFgen (0.9.5)
c copyright: (C) 2012-2026 Massimo Lauria <massimo.lauria@uniroma1.it>
c url: https://massimolauria.net/cnfgen
c random seed: 31133
c command line: cnfgen -S 31133 -o cnfgen_regression_pack/cnfgen_cases/planted_rand4xor_v48_e36_s1_sat.cnf randkxor -p 4 48 36
c
c known_status: SAT
c pack_family: planted_randkxor
c pack_level: easy
c pack_notes: CNFgen planted random XOR encoded as CNF
p cnf 48 288
1 27 30 -32 0
1 27 -30 32 0
1 -27 30 32 0
1 -27 -30 -32 0
-1 27 30 32 0
-1 27 -30 -32 0
-1 -27 30 -32 0
-1 -27 -30 32 0
20 24 26 -38 0
20 24 -26 38 0
20 -24 26 38 0
20 -24 -26 -38 0
-20 24 26 38 0
-20 24 -26 -38 0
-20 -24 26 -38 0
-20 -24 -26 38 0
5 20 27 -36 0
5 20 -27 36 0
5 -20 27 36 0
5 -20 -27 -36 0
-5 20 27 36 0
-5 20 -27 -36 0
-5 -20 27 -36 0
-5 -20 -27 36 0
3 7 27 29 0
3 7 -27 -29 0
3 -7 27 -29 0
3 -7 -27 29 0
-3 7 27 -29 0
-3 7 -27 29 0
-3 -7 27 29 0
-3 -7 -27 -29 0
8 9 32 40 0
8 9 -32 -40 0
8 -9 32 -40 0
8 -9 -32 40 0
-8 9 32 -40 0
-8 9 -32 40 0
-8 -9 32 40 0
-8 -9 -32 -40 0
25 26 39 -48 0
25 26 -39 48 0
25 -26 39 48 0
25 -26 -39 -48 0
-25 26 39 48 0
-25 26 -39 -48 0
-25 -26 39 -48 0
-25 -26 -39 48 0
8 22 29 -42 0
8 22 -29 42 0
8 -22 29 42 0
8 -22 -29 -42 0
-8 22 29 42 0
-8 22 -29 -42 0
-8 -22 29 -42 0
-8 -22 -29 42 0
13 14 15 47 0
13 14 -15 -47 0
13 -14 15 -47 0
13 -14 -15 47 0
-13 14 15 -47 0
-13 14 -15 47 0
-13 -14 15 47 0
-13 -14 -15 -47 0
4 41 43 46 0
4 41 -43 -46 0
4 -41 43 -46 0
4 -41 -43 46 0
-4 41 43 -46 0
-4 41 -43 46 0
-4 -41 43 46 0
-4 -41 -43 -46 0
9 26 32 38 0
9 26 -32 -38 0
9 -26 32 -38 0
9 -26 -32 38 0
-9 26 32 -38 0
-9 26 -32 38 0
-9 -26 32 38 0
-9 -26 -32 -38 0
14 15 24 48 0
14 15 -24 -48 0
14 -15 24 -48 0
14 -15 -24 48 0
-14 15 24 -48 0
-14 15 -24 48 0
-14 -15 24 48 0
-14 -15 -24 -48 0
2 20 35 48 0
2 20 -35 -48 0
2 -20 35 -48 0
2 -20 -35 48 0
-2 20 35 -48 0
-2 20 -35 48 0
-2 -20 35 48 0
-2 -20 -35 -48 0
5 19 29 48 0
5 19 -29 -48 0
5 -19 29 -48 0
5 -19 -29 48 0
-5 19 29 -48 0
-5 19 -29 48 0
-5 -19 29 48 0
-5 -19 -29 -48 0
5 11 32 40 0
5 11 -32 -40 0
5 -11 32 -40 0
5 -11 -32 40 0
-5 11 32 -40 0
-5 11 -32 40 0
-5 -11 32 40 0
-5 -11 -32 -40 0
21 30 36 -46 0
21 30 -36 46 0
21 -30 36 46 0
21 -30 -36 -46 0
-21 30 36 46 0
-21 30 -36 -46 0
-21 -30 36 -46 0
-21 -30 -36 46 0
7 42 44 47 0
7 42 -44 -47 0
7 -42 44 -47 0
7 -42 -44 47 0
-7 42 44 -47 0
-7 42 -44 47 0
-7 -42 44 47 0
-7 -42 -44 -47 0
7 11 14 -39 0
7 11 -14 39 0
7 -11 14 39 0
7 -11 -14 -39 0
-7 11 14 39 0
-7 11 -14 -39 0
-7 -11 14 -39 0
-7 -11 -14 39 0
1 2 9 -33 0
1 2 -9 33 0
1 -2 9 33 0
1 -2 -9 -33 0
-1 2 9 33 0
-1 2 -9 -33 0
-1 -2 9 -33 0
-1 -2 -9 33 0
3 8 35 -48 0
3 8 -35 48 0
3 -8 35 48 0
3 -8 -35 -48 0
-3 8 35 48 0
-3 8 -35 -48 0
-3 -8 35 -48 0
-3 -8 -35 48 0
3 14 23 33 0
3 14 -23 -33 0
3 -14 23 -33 0
3 -14 -23 33 0
-3 14 23 -33 0
-3 14 -23 33 0
-3 -14 23 33 0
-3 -14 -23 -33 0
6 12 23 -38 0
6 12 -23 38 0
6 -12 23 38 0
6 -12 -23 -38 0
-6 12 23 38 0
-6 12 -23 -38 0
-6 -12 23 -38 0
-6 -12 -23 38 0
5 12 35 -46 0
5 12 -35 46 0
5 -12 35 46 0
5 -12 -35 -46 0
-5 12 35 46 0
-5 12 -35 -46 0
-5 -12 35 -46 0
-5 -12 -35 46 0
4 12 14 39 0
4 12 -14 -39 0
4 -12 14 -39 0
4 -12 -14 39 0
-4 12 14 -39 0
-4 12 -14 39 0
-4 -12 14 39 0
-4 -12 -14 -39 0
7 41 43 -47 0
7 41 -43 47 0
7 -41 43 47 0
7 -41 -43 -47 0
-7 41 43 47 0
-7 41 -43 -47 0
-7 -41 43 -47 0
-7 -41 -43 47 0
1 4 19 32 0
1 4 -19 -32 0
1 -4 19 -32 0
1 -4 -19 32 0
-1 4 19 -32 0
-1 4 -19 32 0
-1 -4 19 32 0
-1 -4 -19 -32 0
9 17 18 30 0
9 17 -18 -30 0
9 -17 18 -30 0
9 -17 -18 30 0
-9 17 18 -30 0
-9 17 -18 30 0
-9 -17 18 30 0
-9 -17 -18 -30 0
4 21 23 -42 0
4 21 -23 42 0
4 -21 23 42 0
4 -21 -23 -42 0
-4 21 23 42 0
-4 21 -23 -42 0
-4 -21 23 -42 0
-4 -21 -23 42 0
20 31 36 -45 0
20 31 -36 45 0
20 -31 36 45 0
20 -31 -36 -45 0
-20 31 36 45 0
-20 31 -36 -45 0
-20 -31 36 -45 0
-20 -31 -36 45 0
24 30 34 39 0
24 30 -34 -39 0
24 -30 34 -39 0
24 -30 -34 39 0
-24 30 34 -39 0
-24 30 -34 39 0
-24 -30 34 39 0
-24 -30 -34 -39 0
20 21 25 44 0
20 21 -25 -44 0
20 -21 25 -44 0
20 -21 -25 44 0
-20 21 25 -44 0
-20 21 -25 44 0
-20 -21 25 44 0
-20 -21 -25 -44 0
12 19 25 27 0
12 19 -25 -27 0
12 -19 25 -27 0
12 -19 -25 27 0
-12 19 25 -27 0
-12 19 -25 27 0
-12 -19 25 27 0
-12 -19 -25 -27 0
1 12 34 43 0
1 12 -34 -43 0
1 -12 34 -43 0
1 -12 -34 43 0
-1 12 34 -43 0
-1 12 -34 43 0
-1 -12 34 43 0
-1 -12 -34 -43 0
14 18 36 47 0
14 18 -36 -47 0
14 -18 36 -47 0
14 -18 -36 47 0
-14 18 36 -47 0
-14 18 -36 47 0
-14 -18 36 47 0
-14 -18 -36 -47 0
1 4 17 29 0
1 4 -17 -29 0
1 -4 17 -29 0
1 -4 -17 29 0
-1 4 17 -29 0
-1 4 -17 29 0
-1 -4 17 29 0
-1 -4 -17 -29 0
6 19 23 37 0
6 19 -23 -37 0
6 -19 23 -37 0
6 -19 -23 37 0
-6 19 23 -37 0
-6 19 -23 37 0
-6 -19 23 37 0
-6 -19 -23 -37 0
7 12 30 -46 0
7 12 -30 46 0
7 -12 30 46 0
7 -12 -30 -46 0
-7 12 30 46 0
-7 12 -30 -46 0
-7 -12 30 -46 0
-7 -12 -30 46 0
