c description: Random 3-xor over 96 variables and 128 clauses
c generator: CNFgen (0.9.5)
c copyright: (C) 2012-2026 Massimo Lauria <massimo.lauria@uniroma1.it>
c url: https://massimolauria.net/cnfgen
c random seed: 31124
c command line: cnfgen -S 31124 -o cnfgen_regression_pack/cnfgen_cases/planted_rand3xor_v96_e128_s1_sat.cnf randkxor -p 3 96 128
c
c known_status: SAT
c pack_family: planted_randkxor
c pack_level: moderate
c pack_notes: CNFgen planted random XOR encoded as CNF
p cnf 96 512
33 57 -89 0
33 -57 89 0
-33 57 89 0
-33 -57 -89 0
12 35 83 0
12 -35 -83 0
-12 35 -83 0
-12 -35 83 0
21 27 40 0
21 -27 -40 0
-21 27 -40 0
-21 -27 40 0
16 23 -62 0
16 -23 62 0
-16 23 62 0
-16 -23 -62 0
12 55 90 0
12 -55 -90 0
-12 55 -90 0
-12 -55 90 0
1 32 73 0
1 -32 -73 0
-1 32 -73 0
-1 -32 73 0
32 36 54 0
32 -36 -54 0
-32 36 -54 0
-32 -36 54 0
21 32 79 0
21 -32 -79 0
-21 32 -79 0
-21 -32 79 0
41 48 -61 0
41 -48 61 0
-41 48 61 0
-41 -48 -61 0
16 36 -69 0
16 -36 69 0
-16 36 69 0
-16 -36 -69 0
31 63 -64 0
31 -63 64 0
-31 63 64 0
-31 -63 -64 0
40 47 76 0
40 -47 -76 0
-40 47 -76 0
-40 -47 76 0
14 60 72 0
14 -60 -72 0
-14 60 -72 0
-14 -60 72 0
21 56 90 0
21 -56 -90 0
-21 56 -90 0
-21 -56 90 0
37 50 85 0
37 -50 -85 0
-37 50 -85 0
-37 -50 85 0
10 27 -40 0
10 -27 40 0
-10 27 40 0
-10 -27 -40 0
30 52 83 0
30 -52 -83 0
-30 52 -83 0
-30 -52 83 0
39 48 85 0
39 -48 -85 0
-39 48 -85 0
-39 -48 85 0
6 23 -93 0
6 -23 93 0
-6 23 93 0
-6 -23 -93 0
25 76 78 0
25 -76 -78 0
-25 76 -78 0
-25 -76 78 0
28 53 74 0
28 -53 -74 0
-28 53 -74 0
-28 -53 74 0
30 48 -95 0
30 -48 95 0
-30 48 95 0
-30 -48 -95 0
65 80 -92 0
65 -80 92 0
-65 80 92 0
-65 -80 -92 0
9 13 -72 0
9 -13 72 0
-9 13 72 0
-9 -13 -72 0
19 37 -51 0
19 -37 51 0
-19 37 51 0
-19 -37 -51 0
1 29 -32 0
1 -29 32 0
-1 29 32 0
-1 -29 -32 0
7 28 96 0
7 -28 -96 0
-7 28 -96 0
-7 -28 96 0
9 26 -28 0
9 -26 28 0
-9 26 28 0
-9 -26 -28 0
16 38 39 0
16 -38 -39 0
-16 38 -39 0
-16 -38 39 0
4 36 -39 0
4 -36 39 0
-4 36 39 0
-4 -36 -39 0
16 51 90 0
16 -51 -90 0
-16 51 -90 0
-16 -51 90 0
4 52 -67 0
4 -52 67 0
-4 52 67 0
-4 -52 -67 0
36 86 -89 0
36 -86 89 0
-36 86 89 0
-36 -86 -89 0
32 60 79 0
32 -60 -79 0
-32 60 -79 0
-32 -60 79 0
18 47 -48 0
18 -47 48 0
-18 47 48 0
-18 -47 -48 0
1 7 66 0
1 -7 -66 0
-1 7 -66 0
-1 -7 66 0
44 47 -49 0
44 -47 49 0
-44 47 49 0
-44 -47 -49 0
18 50 -69 0
18 -50 69 0
-18 50 69 0
-18 -50 -69 0
3 81 -84 0
3 -81 84 0
-3 81 84 0
-3 -81 -84 0
1 37 -56 0
1 -37 56 0
-1 37 56 0
-1 -37 -56 0
5 34 45 0
5 -34 -45 0
-5 34 -45 0
-5 -34 45 0
41 51 -95 0
41 -51 95 0
-41 51 95 0
-41 -51 -95 0
20 59 -82 0
20 -59 82 0
-20 59 82 0
-20 -59 -82 0
63 82 92 0
63 -82 -92 0
-63 82 -92 0
-63 -82 92 0
15 38 -87 0
15 -38 87 0
-15 38 87 0
-15 -38 -87 0
35 73 -86 0
35 -73 86 0
-35 73 86 0
-35 -73 -86 0
5 77 -89 0
5 -77 89 0
-5 77 89 0
-5 -77 -89 0
2 43 -92 0
2 -43 92 0
-2 43 92 0
-2 -43 -92 0
2 60 -66 0
2 -60 66 0
-2 60 66 0
-2 -60 -66 0
8 19 85 0
8 -19 -85 0
-8 19 -85 0
-8 -19 85 0
53 57 72 0
53 -57 -72 0
-53 57 -72 0
-53 -57 72 0
3 10 -16 0
3 -10 16 0
-3 10 16 0
-3 -10 -16 0
38 92 95 0
38 -92 -95 0
-38 92 -95 0
-38 -92 95 0
17 22 -93 0
17 -22 93 0
-17 22 93 0
-17 -22 -93 0
24 43 68 0
24 -43 -68 0
-24 43 -68 0
-24 -43 68 0
10 50 -86 0
10 -50 86 0
-10 50 86 0
-10 -50 -86 0
89 90 -94 0
89 -90 94 0
-89 90 94 0
-89 -90 -94 0
18 49 80 0
18 -49 -80 0
-18 49 -80 0
-18 -49 80 0
1 7 -43 0
1 -7 43 0
-1 7 43 0
-1 -7 -43 0
39 56 -83 0
39 -56 83 0
-39 56 83 0
-39 -56 -83 0
2 36 -43 0
2 -36 43 0
-2 36 43 0
-2 -36 -43 0
9 24 -72 0
9 -24 72 0
-9 24 72 0
-9 -24 -72 0
4 18 -47 0
4 -18 47 0
-4 18 47 0
-4 -18 -47 0
8 16 -29 0
8 -16 29 0
-8 16 29 0
-8 -16 -29 0
52 58 -84 0
52 -58 84 0
-52 58 84 0
-52 -58 -84 0
35 55 66 0
35 -55 -66 0
-35 55 -66 0
-35 -55 66 0
8 36 -76 0
8 -36 76 0
-8 36 76 0
-8 -36 -76 0
14 25 -86 0
14 -25 86 0
-14 25 86 0
-14 -25 -86 0
13 53 -74 0
13 -53 74 0
-13 53 74 0
-13 -53 -74 0
5 61 -88 0
5 -61 88 0
-5 61 88 0
-5 -61 -88 0
11 33 -91 0
11 -33 91 0
-11 33 91 0
-11 -33 -91 0
61 63 -87 0
61 -63 87 0
-61 63 87 0
-61 -63 -87 0
19 31 -34 0
19 -31 34 0
-19 31 34 0
-19 -31 -34 0
25 43 -90 0
25 -43 90 0
-25 43 90 0
-25 -43 -90 0
2 47 -79 0
2 -47 79 0
-2 47 79 0
-2 -47 -79 0
28 32 71 0
28 -32 -71 0
-28 32 -71 0
-28 -32 71 0
69 77 -80 0
69 -77 80 0
-69 77 80 0
-69 -77 -80 0
54 80 96 0
54 -80 -96 0
-54 80 -96 0
-54 -80 96 0
36 49 92 0
36 -49 -92 0
-36 49 -92 0
-36 -49 92 0
44 65 -80 0
44 -65 80 0
-44 65 80 0
-44 -65 -80 0
47 54 -62 0
47 -54 62 0
-47 54 62 0
-47 -54 -62 0
51 52 93 0
51 -52 -93 0
-51 52 -93 0
-51 -52 93 0
1 39 96 0
1 -39 -96 0
-1 39 -96 0
-1 -39 96 0
12 33 96 0
12 -33 -96 0
-12 33 -96 0
-12 -33 96 0
48 56 81 0
48 -56 -81 0
-48 56 -81 0
-48 -56 81 0
10 72 -84 0
10 -72 84 0
-10 72 84 0
-10 -72 -84 0
37 52 68 0
37 -52 -68 0
-37 52 -68 0
-37 -52 68 0
32 56 -76 0
32 -56 76 0
-32 56 76 0
-32 -56 -76 0
45 48 -58 0
45 -48 58 0
-45 48 58 0
-45 -48 -58 0
3 40 -73 0
3 -40 73 0
-3 40 73 0
-3 -40 -73 0
42 58 -62 0
42 -58 62 0
-42 58 62 0
-42 -58 -62 0
10 16 -45 0
10 -16 45 0
-10 16 45 0
-10 -16 -45 0
49 58 -86 0
49 -58 86 0
-49 58 86 0
-49 -58 -86 0
18 56 -63 0
18 -56 63 0
-18 56 63 0
-18 -56 -63 0
16 63 91 0
16 -63 -91 0
-16 63 -91 0
-16 -63 91 0
10 43 71 0
10 -43 -71 0
-10 43 -71 0
-10 -43 71 0
14 35 -49 0
14 -35 49 0
-14 35 49 0
-14 -35 -49 0
3 39 -43 0
3 -39 43 0
-3 39 43 0
-3 -39 -43 0
21 26 87 0
21 -26 -87 0
-21 26 -87 0
-21 -26 87 0
5 6 -42 0
5 -6 42 0
-5 6 42 0
-5 -6 -42 0
54 89 90 0
54 -89 -90 0
-54 89 -90 0
-54 -89 90 0
21 63 71 0
21 -63 -71 0
-21 63 -71 0
-21 -63 71 0
18 30 -57 0
18 -30 57 0
-18 30 57 0
-18 -30 -57 0
58 88 94 0
58 -88 -94 0
-58 88 -94 0
-58 -88 94 0
10 20 -83 0
10 -20 83 0
-10 20 83 0
-10 -20 -83 0
21 55 57 0
21 -55 -57 0
-21 55 -57 0
-21 -55 57 0
42 46 -71 0
42 -46 71 0
-42 46 71 0
-42 -46 -71 0
19 74 75 0
19 -74 -75 0
-19 74 -75 0
-19 -74 75 0
75 82 92 0
75 -82 -92 0
-75 82 -92 0
-75 -82 92 0
24 41 -79 0
24 -41 79 0
-24 41 79 0
-24 -41 -79 0
55 63 87 0
55 -63 -87 0
-55 63 -87 0
-55 -63 87 0
20 51 58 0
20 -51 -58 0
-20 51 -58 0
-20 -51 58 0
10 24 -40 0
10 -24 40 0
-10 24 40 0
-10 -24 -40 0
35 41 -67 0
35 -41 67 0
-35 41 67 0
-35 -41 -67 0
37 83 91 0
37 -83 -91 0
-37 83 -91 0
-37 -83 91 0
24 73 83 0
24 -73 -83 0
-24 73 -83 0
-24 -73 83 0
7 24 -48 0
7 -24 48 0
-7 24 48 0
-7 -24 -48 0
9 16 -38 0
9 -16 38 0
-9 16 38 0
-9 -16 -38 0
20 23 31 0
20 -23 -31 0
-20 23 -31 0
-20 -23 31 0
29 49 -76 0
29 -49 76 0
-29 49 76 0
-29 -49 -76 0
14 18 -28 0
14 -18 28 0
-14 18 28 0
-14 -18 -28 0
35 57 -66 0
35 -57 66 0
-35 57 66 0
-35 -57 -66 0
27 60 -79 0
27 -60 79 0
-27 60 79 0
-27 -60 -79 0
26 76 81 0
26 -76 -81 0
-26 76 -81 0
-26 -76 81 0
48 77 -91 0
48 -77 91 0
-48 77 91 0
-48 -77 -91 0
69 72 91 0
69 -72 -91 0
-69 72 -91 0
-69 -72 91 0
26 30 -34 0
26 -30 34 0
-26 30 34 0
-26 -30 -34 0
34 72 76 0
34 -72 -76 0
-34 72 -76 0
-34 -72 76 0
