c description: Random 4-xor over 96 variables and 90 clauses
c generator: CNFgen (0.9.5)
c copyright: (C) 2012-2026 Massimo Lauria <massimo.lauria@uniroma1.it>
c url: https://massimolauria.net/cnfgen
c random seed: 31135
c command line: cnfgen -S 31135 -o cnfgen_regression_pack/cnfgen_cases/planted_rand4xor_v96_e90_s1_sat.cnf randkxor -p 4 96 90
c
c known_status: SAT
c pack_family: planted_randkxor
c pack_level: moderate
c pack_notes: CNFgen planted random XOR encoded as CNF
p cnf 96 720
38 41 69 71 0
38 41 -69 -71 0
38 -41 69 -71 0
38 -41 -69 71 0
-38 41 69 -71 0
-38 41 -69 71 0
-38 -41 69 71 0
-38 -41 -69 -71 0
16 17 68 -74 0
16 17 -68 74 0
16 -17 68 74 0
16 -17 -68 -74 0
-16 17 68 74 0
-16 17 -68 -74 0
-16 -17 68 -74 0
-16 -17 -68 74 0
3 22 28 29 0
3 22 -28 -29 0
3 -22 28 -29 0
3 -22 -28 29 0
-3 22 28 -29 0
-3 22 -28 29 0
-3 -22 28 29 0
-3 -22 -28 -29 0
35 49 56 73 0
35 49 -56 -73 0
35 -49 56 -73 0
35 -49 -56 73 0
-35 49 56 -73 0
-35 49 -56 73 0
-35 -49 56 73 0
-35 -49 -56 -73 0
10 15 21 76 0
10 15 -21 -76 0
10 -15 21 -76 0
10 -15 -21 76 0
-10 15 21 -76 0
-10 15 -21 76 0
-10 -15 21 76 0
-10 -15 -21 -76 0
34 52 55 -64 0
34 52 -55 64 0
34 -52 55 64 0
34 -52 -55 -64 0
-34 52 55 64 0
-34 52 -55 -64 0
-34 -52 55 -64 0
-34 -52 -55 64 0
22 28 34 -71 0
22 28 -34 71 0
22 -28 34 71 0
22 -28 -34 -71 0
-22 28 34 71 0
-22 28 -34 -71 0
-22 -28 34 -71 0
-22 -28 -34 71 0
66 76 85 -87 0
66 76 -85 87 0
66 -76 85 87 0
66 -76 -85 -87 0
-66 76 85 87 0
-66 76 -85 -87 0
-66 -76 85 -87 0
-66 -76 -85 87 0
7 36 47 -93 0
7 36 -47 93 0
7 -36 47 93 0
7 -36 -47 -93 0
-7 36 47 93 0
-7 36 -47 -93 0
-7 -36 47 -93 0
-7 -36 -47 93 0
45 54 57 68 0
45 54 -57 -68 0
45 -54 57 -68 0
45 -54 -57 68 0
-45 54 57 -68 0
-45 54 -57 68 0
-45 -54 57 68 0
-45 -54 -57 -68 0
21 38 61 74 0
21 38 -61 -74 0
21 -38 61 -74 0
21 -38 -61 74 0
-21 38 61 -74 0
-21 38 -61 74 0
-21 -38 61 74 0
-21 -38 -61 -74 0
13 31 85 88 0
13 31 -85 -88 0
13 -31 85 -88 0
13 -31 -85 88 0
-13 31 85 -88 0
-13 31 -85 88 0
-13 -31 85 88 0
-13 -31 -85 -88 0
7 9 49 59 0
7 9 -49 -59 0
7 -9 49 -59 0
7 -9 -49 59 0
-7 9 49 -59 0
-7 9 -49 59 0
-7 -9 49 59 0
-7 -9 -49 -59 0
38 40 70 -74 0
38 40 -70 74 0
38 -40 70 74 0
38 -40 -70 -74 0
-38 40 70 74 0
-38 40 -70 -74 0
-38 -40 70 -74 0
-38 -40 -70 74 0
42 49 86 -94 0
42 49 -86 94 0
42 -49 86 94 0
42 -49 -86 -94 0
-42 49 86 94 0
-42 49 -86 -94 0
-42 -49 86 -94 0
-42 -49 -86 94 0
31 64 65 -78 0
31 64 -65 78 0
31 -64 65 78 0
31 -64 -65 -78 0
-31 64 65 78 0
-31 64 -65 -78 0
-31 -64 65 -78 0
-31 -64 -65 78 0
23 30 41 -89 0
23 30 -41 89 0
23 -30 41 89 0
23 -30 -41 -89 0
-23 30 41 89 0
-23 30 -41 -89 0
-23 -30 41 -89 0
-23 -30 -41 89 0
1 8 10 -78 0
1 8 -10 78 0
1 -8 10 78 0
1 -8 -10 -78 0
-1 8 10 78 0
-1 8 -10 -78 0
-1 -8 10 -78 0
-1 -8 -10 78 0
10 16 82 -93 0
10 16 -82 93 0
10 -16 82 93 0
10 -16 -82 -93 0
-10 16 82 93 0
-10 16 -82 -93 0
-10 -16 82 -93 0
-10 -16 -82 93 0
16 53 71 83 0
16 53 -71 -83 0
16 -53 71 -83 0
16 -53 -71 83 0
-16 53 71 -83 0
-16 53 -71 83 0
-16 -53 71 83 0
-16 -53 -71 -83 0
14 33 76 -79 0
14 33 -76 79 0
14 -33 76 79 0
14 -33 -76 -79 0
-14 33 76 79 0
-14 33 -76 -79 0
-14 -33 76 -79 0
-14 -33 -76 79 0
13 31 78 -80 0
13 31 -78 80 0
13 -31 78 80 0
13 -31 -78 -80 0
-13 31 78 80 0
-13 31 -78 -80 0
-13 -31 78 -80 0
-13 -31 -78 80 0
21 24 30 -67 0
21 24 -30 67 0
21 -24 30 67 0
21 -24 -30 -67 0
-21 24 30 67 0
-21 24 -30 -67 0
-21 -24 30 -67 0
-21 -24 -30 67 0
12 22 57 87 0
12 22 -57 -87 0
12 -22 57 -87 0
12 -22 -57 87 0
-12 22 57 -87 0
-12 22 -57 87 0
-12 -22 57 87 0
-12 -22 -57 -87 0
15 52 74 85 0
15 52 -74 -85 0
15 -52 74 -85 0
15 -52 -74 85 0
-15 52 74 -85 0
-15 52 -74 85 0
-15 -52 74 85 0
-15 -52 -74 -85 0
15 67 86 -96 0
15 67 -86 96 0
15 -67 86 96 0
15 -67 -86 -96 0
-15 67 86 96 0
-15 67 -86 -96 0
-15 -67 86 -96 0
-15 -67 -86 96 0
28 31 41 -56 0
28 31 -41 56 0
28 -31 41 56 0
28 -31 -41 -56 0
-28 31 41 56 0
-28 31 -41 -56 0
-28 -31 41 -56 0
-28 -31 -41 56 0
19 68 85 -91 0
19 68 -85 91 0
19 -68 85 91 0
19 -68 -85 -91 0
-19 68 85 91 0
-19 68 -85 -91 0
-19 -68 85 -91 0
-19 -68 -85 91 0
27 45 69 83 0
27 45 -69 -83 0
27 -45 69 -83 0
27 -45 -69 83 0
-27 45 69 -83 0
-27 45 -69 83 0
-27 -45 69 83 0
-27 -45 -69 -83 0
3 14 48 -60 0
3 14 -48 60 0
3 -14 48 60 0
3 -14 -48 -60 0
-3 14 48 60 0
-3 14 -48 -60 0
-3 -14 48 -60 0
-3 -14 -48 60 0
31 49 62 86 0
31 49 -62 -86 0
31 -49 62 -86 0
31 -49 -62 86 0
-31 49 62 -86 0
-31 49 -62 86 0
-31 -49 62 86 0
-31 -49 -62 -86 0
15 41 62 -92 0
15 41 -62 92 0
15 -41 62 92 0
15 -41 -62 -92 0
-15 41 62 92 0
-15 41 -62 -92 0
-15 -41 62 -92 0
-15 -41 -62 92 0
17 32 74 -76 0
17 32 -74 76 0
17 -32 74 76 0
17 -32 -74 -76 0
-17 32 74 76 0
-17 32 -74 -76 0
-17 -32 74 -76 0
-17 -32 -74 76 0
1 6 23 -70 0
1 6 -23 70 0
1 -6 23 70 0
1 -6 -23 -70 0
-1 6 23 70 0
-1 6 -23 -70 0
-1 -6 23 -70 0
-1 -6 -23 70 0
12 56 71 -87 0
12 56 -71 87 0
12 -56 71 87 0
12 -56 -71 -87 0
-12 56 71 87 0
-12 56 -71 -87 0
-12 -56 71 -87 0
-12 -56 -71 87 0
48 67 92 -95 0
48 67 -92 95 0
48 -67 92 95 0
48 -67 -92 -95 0
-48 67 92 95 0
-48 67 -92 -95 0
-48 -67 92 -95 0
-48 -67 -92 95 0
26 74 85 86 0
26 74 -85 -86 0
26 -74 85 -86 0
26 -74 -85 86 0
-26 74 85 -86 0
-26 74 -85 86 0
-26 -74 85 86 0
-26 -74 -85 -86 0
9 78 80 95 0
9 78 -80 -95 0
9 -78 80 -95 0
9 -78 -80 95 0
-9 78 80 -95 0
-9 78 -80 95 0
-9 -78 80 95 0
-9 -78 -80 -95 0
20 26 31 69 0
20 26 -31 -69 0
20 -26 31 -69 0
20 -26 -31 69 0
-20 26 31 -69 0
-20 26 -31 69 0
-20 -26 31 69 0
-20 -26 -31 -69 0
13 21 32 59 0
13 21 -32 -59 0
13 -21 32 -59 0
13 -21 -32 59 0
-13 21 32 -59 0
-13 21 -32 59 0
-13 -21 32 59 0
-13 -21 -32 -59 0
19 45 76 -81 0
19 45 -76 81 0
19 -45 76 81 0
19 -45 -76 -81 0
-19 45 76 81 0
-19 45 -76 -81 0
-19 -45 76 -81 0
-19 -45 -76 81 0
17 21 23 71 0
17 21 -23 -71 0
17 -21 23 -71 0
17 -21 -23 71 0
-17 21 23 -71 0
-17 21 -23 71 0
-17 -21 23 71 0
-17 -21 -23 -71 0
20 46 72 96 0
20 46 -72 -96 0
20 -46 72 -96 0
20 -46 -72 96 0
-20 46 72 -96 0
-20 46 -72 96 0
-20 -46 72 96 0
-20 -46 -72 -96 0
3 27 42 -74 0
3 27 -42 74 0
3 -27 42 74 0
3 -27 -42 -74 0
-3 27 42 74 0
-3 27 -42 -74 0
-3 -27 42 -74 0
-3 -27 -42 74 0
25 52 71 -80 0
25 52 -71 80 0
25 -52 71 80 0
25 -52 -71 -80 0
-25 52 71 80 0
-25 52 -71 -80 0
-25 -52 71 -80 0
-25 -52 -71 80 0
52 77 81 -91 0
52 77 -81 91 0
52 -77 81 91 0
52 -77 -81 -91 0
-52 77 81 91 0
-52 77 -81 -91 0
-52 -77 81 -91 0
-52 -77 -81 91 0
9 15 54 80 0
9 15 -54 -80 0
9 -15 54 -80 0
9 -15 -54 80 0
-9 15 54 -80 0
-9 15 -54 80 0
-9 -15 54 80 0
-9 -15 -54 -80 0
23 62 63 -70 0
23 62 -63 70 0
23 -62 63 70 0
23 -62 -63 -70 0
-23 62 63 70 0
-23 62 -63 -70 0
-23 -62 63 -70 0
-23 -62 -63 70 0
9 20 58 75 0
9 20 -58 -75 0
9 -20 58 -75 0
9 -20 -58 75 0
-9 20 58 -75 0
-9 20 -58 75 0
-9 -20 58 75 0
-9 -20 -58 -75 0
3 13 41 -67 0
3 13 -41 67 0
3 -13 41 67 0
3 -13 -41 -67 0
-3 13 41 67 0
-3 13 -41 -67 0
-3 -13 41 -67 0
-3 -13 -41 67 0
9 23 30 -94 0
9 23 -30 94 0
9 -23 30 94 0
9 -23 -30 -94 0
-9 23 30 94 0
-9 23 -30 -94 0
-9 -23 30 -94 0
-9 -23 -30 94 0
2 19 35 94 0
2 19 -35 -94 0
2 -19 35 -94 0
2 -19 -35 94 0
-2 19 35 -94 0
-2 19 -35 94 0
-2 -19 35 94 0
-2 -19 -35 -94 0
11 16 32 45 0
11 16 -32 -45 0
11 -16 32 -45 0
11 -16 -32 45 0
-11 16 32 -45 0
-11 16 -32 45 0
-11 -16 32 45 0
-11 -16 -32 -45 0
50 69 79 -81 0
50 69 -79 81 0
50 -69 79 81 0
50 -69 -79 -81 0
-50 69 79 81 0
-50 69 -79 -81 0
-50 -69 79 -81 0
-50 -69 -79 81 0
13 56 61 75 0
13 56 -61 -75 0
13 -56 61 -75 0
13 -56 -61 75 0
-13 56 61 -75 0
-13 56 -61 75 0
-13 -56 61 75 0
-13 -56 -61 -75 0
4 20 38 -69 0
4 20 -38 69 0
4 -20 38 69 0
4 -20 -38 -69 0
-4 20 38 69 0
-4 20 -38 -69 0
-4 -20 38 -69 0
-4 -20 -38 69 0
10 13 38 -50 0
10 13 -38 50 0
10 -13 38 50 0
10 -13 -38 -50 0
-10 13 38 50 0
-10 13 -38 -50 0
-10 -13 38 -50 0
-10 -13 -38 50 0
2 23 52 79 0
2 23 -52 -79 0
2 -23 52 -79 0
2 -23 -52 79 0
-2 23 52 -79 0
-2 23 -52 79 0
-2 -23 52 79 0
-2 -23 -52 -79 0
3 8 69 90 0
3 8 -69 -90 0
3 -8 69 -90 0
3 -8 -69 90 0
-3 8 69 -90 0
-3 8 -69 90 0
-3 -8 69 90 0
-3 -8 -69 -90 0
16 19 62 87 0
16 19 -62 -87 0
16 -19 62 -87 0
16 -19 -62 87 0
-16 19 62 -87 0
-16 19 -62 87 0
-16 -19 62 87 0
-16 -19 -62 -87 0
7 38 42 -70 0
7 38 -42 70 0
7 -38 42 70 0
7 -38 -42 -70 0
-7 38 42 70 0
-7 38 -42 -70 0
-7 -38 42 -70 0
-7 -38 -42 70 0
1 37 68 80 0
1 37 -68 -80 0
1 -37 68 -80 0
1 -37 -68 80 0
-1 37 68 -80 0
-1 37 -68 80 0
-1 -37 68 80 0
-1 -37 -68 -80 0
22 31 51 61 0
22 31 -51 -61 0
22 -31 51 -61 0
22 -31 -51 61 0
-22 31 51 -61 0
-22 31 -51 61 0
-22 -31 51 61 0
-22 -31 -51 -61 0
20 60 67 89 0
20 60 -67 -89 0
20 -60 67 -89 0
20 -60 -67 89 0
-20 60 67 -89 0
-20 60 -67 89 0
-20 -60 67 89 0
-20 -60 -67 -89 0
1 29 70 -90 0
1 29 -70 90 0
1 -29 70 90 0
1 -29 -70 -90 0
-1 29 70 90 0
-1 29 -70 -90 0
-1 -29 70 -90 0
-1 -29 -70 90 0
28 44 45 91 0
28 44 -45 -91 0
28 -44 45 -91 0
28 -44 -45 91 0
-28 44 45 -91 0
-28 44 -45 91 0
-28 -44 45 91 0
-28 -44 -45 -91 0
47 48 55 85 0
47 48 -55 -85 0
47 -48 55 -85 0
47 -48 -55 85 0
-47 48 55 -85 0
-47 48 -55 85 0
-47 -48 55 85 0
-47 -48 -55 -85 0
6 15 60 -87 0
6 15 -60 87 0
6 -15 60 87 0
6 -15 -60 -87 0
-6 15 60 87 0
-6 15 -60 -87 0
-6 -15 60 -87 0
-6 -15 -60 87 0
7 47 80 -88 0
7 47 -80 88 0
7 -47 80 88 0
7 -47 -80 -88 0
-7 47 80 88 0
-7 47 -80 -88 0
-7 -47 80 -88 0
-7 -47 -80 88 0
19 45 64 95 0
19 45 -64 -95 0
19 -45 64 -95 0
19 -45 -64 95 0
-19 45 64 -95 0
-19 45 -64 95 0
-19 -45 64 95 0
-19 -45 -64 -95 0
2 21 36 -74 0
2 21 -36 74 0
2 -21 36 74 0
2 -21 -36 -74 0
-2 21 36 74 0
-2 21 -36 -74 0
-2 -21 36 -74 0
-2 -21 -36 74 0
23 29 72 85 0
23 29 -72 -85 0
23 -29 72 -85 0
23 -29 -72 85 0
-23 29 72 -85 0
-23 29 -72 85 0
-23 -29 72 85 0
-23 -29 -72 -85 0
20 23 40 -52 0
20 23 -40 52 0
20 -23 40 52 0
20 -23 -40 -52 0
-20 23 40 52 0
-20 23 -40 -52 0
-20 -23 40 -52 0
-20 -23 -40 52 0
27 34 51 -83 0
27 34 -51 83 0
27 -34 51 83 0
27 -34 -51 -83 0
-27 34 51 83 0
-27 34 -51 -83 0
-27 -34 51 -83 0
-27 -34 -51 83 0
1 18 71 76 0
1 18 -71 -76 0
1 -18 71 -76 0
1 -18 -71 76 0
-1 18 71 -76 0
-1 18 -71 76 0
-1 -18 71 76 0
-1 -18 -71 -76 0
24 49 62 -94 0
24 49 -62 94 0
24 -49 62 94 0
24 -49 -62 -94 0
-24 49 62 94 0
-24 49 -62 -94 0
-24 -49 62 -94 0
-24 -49 -62 94 0
8 44 81 92 0
8 44 -81 -92 0
8 -44 81 -92 0
8 -44 -81 92 0
-8 44 81 -92 0
-8 44 -81 92 0
-8 -44 81 92 0
-8 -44 -81 -92 0
3 19 26 42 0
3 19 -26 -42 0
3 -19 26 -42 0
3 -19 -26 42 0
-3 19 26 -42 0
-3 19 -26 42 0
-3 -19 26 42 0
-3 -19 -26 -42 0
16 21 42 90 0
16 21 -42 -90 0
16 -21 42 -90 0
16 -21 -42 90 0
-16 21 42 -90 0
-16 21 -42 90 0
-16 -21 42 90 0
-16 -21 -42 -90 0
4 22 48 -96 0
4 22 -48 96 0
4 -22 48 96 0
4 -22 -48 -96 0
-4 22 48 96 0
-4 22 -48 -96 0
-4 -22 48 -96 0
-4 -22 -48 96 0
5 33 46 92 0
5 33 -46 -92 0
5 -33 46 -92 0
5 -33 -46 92 0
-5 33 46 -92 0
-5 33 -46 92 0
-5 -33 46 92 0
-5 -33 -46 -92 0
18 24 34 45 0
18 24 -34 -45 0
18 -24 34 -45 0
18 -24 -34 45 0
-18 24 34 -45 0
-18 24 -34 45 0
-18 -24 34 45 0
-18 -24 -34 -45 0
13 45 65 -70 0
13 45 -65 70 0
13 -45 65 70 0
13 -45 -65 -70 0
-13 45 65 70 0
-13 45 -65 -70 0
-13 -45 65 -70 0
-13 -45 -65 70 0
17 39 78 -92 0
17 39 -78 92 0
17 -39 78 92 0
17 -39 -78 -92 0
-17 39 78 92 0
-17 39 -78 -92 0
-17 -39 78 -92 0
-17 -39 -78 92 0
10 17 69 95 0
10 17 -69 -95 0
10 -17 69 -95 0
10 -17 -69 95 0
-10 17 69 -95 0
-10 17 -69 95 0
-10 -17 69 95 0
-10 -17 -69 -95 0
27 52 57 95 0
27 52 -57 -95 0
27 -52 57 -95 0
27 -52 -57 95 0
-27 52 57 -95 0
-27 52 -57 95 0
-27 -52 57 95 0
-27 -52 -57 -95 0
4 17 20 -28 0
4 17 -20 28 0
4 -17 20 28 0
4 -17 -20 -28 0
-4 17 20 28 0
-4 17 -20 -28 0
-4 -17 20 -28 0
-4 -17 -20 28 0
39 43 48 -81 0
39 43 -48 81 0
39 -43 48 81 0
39 -43 -48 -81 0
-39 43 48 81 0
-39 43 -48 -81 0
-39 -43 48 -81 0
-39 -43 -48 81 0
23 43 48 -80 0
23 43 -48 80 0
23 -43 48 80 0
23 -43 -48 -80 0
-23 43 48 80 0
-23 43 -48 -80 0
-23 -43 48 -80 0
-23 -43 -48 80 0
22 50 56 -75 0
22 50 -56 75 0
22 -50 56 75 0
22 -50 -56 -75 0
-22 50 56 75 0
-22 50 -56 -75 0
-22 -50 56 -75 0
-22 -50 -56 75 0
