c description: Random 4-CNF over 120 variables and 900 clauses
c generator: CNFgen (0.9.5)
c copyright: (C) 2012-2026 Massimo Lauria <massimo.lauria@uniroma1.it>
c url: https://massimolauria.net/cnfgen
c random seed: 31056
c command line: cnfgen -S 31056 -o cnfgen_regression_pack/cnfgen_cases/planted_rand4cnf_v120_m900_s1_sat.cnf randkcnf -p 4 120 900
c
c known_status: SAT
c pack_family: planted_randkcnf
c pack_level: moderate
c pack_notes: CNFgen planted random k-CNF
p cnf 120 900
-6 -28 62 78 0
16 18 46 107 0
-70 78 -97 115 0
4 11 48 53 0
-8 -36 -68 -120 0
11 12 -31 -65 0
-10 65 -69 -120 0
-17 57 69 -83 0
13 -16 -23 -54 0
17 -52 -75 -113 0
56 58 -59 107 0
-11 -24 42 -78 0
-3 67 94 120 0
-22 -25 101 -118 0
-21 -62 -101 -119 0
54 62 77 106 0
-5 -25 44 52 0
24 42 -68 -82 0
2 18 -31 -95 0
-5 25 -43 -49 0
27 32 76 88 0
-71 80 -87 -107 0
-9 47 -60 82 0
-61 -72 -86 105 0
-24 -71 -107 -109 0
-30 -31 -49 52 0
9 -17 -67 107 0
16 -69 88 118 0
-48 -70 90 -98 0
2 24 -27 48 0
24 -67 73 76 0
-11 -23 -106 109 0
6 32 -79 104 0
-33 -69 -93 112 0
29 -71 88 -120 0
7 -10 16 27 0
-9 -34 -61 87 0
-14 -69 87 -111 0
-4 -39 114 115 0
25 40 -44 -82 0
-23 -41 54 97 0
-17 -34 -106 111 0
-4 -54 -75 76 0
49 -53 61 -117 0
-74 -92 -106 108 0
-50 55 88 111 0
9 23 -68 -78 0
54 67 103 -112 0
-36 -50 73 85 0
-45 53 73 -82 0
2 80 106 120 0
5 -69 77 -78 0
66 -92 117 118 0
14 -19 28 -110 0
-9 30 -57 -87 0
15 53 71 -97 0
66 69 -82 115 0
39 41 78 103 0
4 15 33 -53 0
13 -19 24 -53 0
49 -73 75 -100 0
-73 -85 -92 -104 0
3 30 -82 -109 0
23 43 116 -117 0
72 -84 -104 -106 0
-69 98 103 -119 0
-29 45 -46 88 0
-2 -7 18 -59 0
-61 -84 -86 -119 0
29 31 -33 -119 0
1 18 -90 91 0
-6 -46 56 -108 0
32 -69 -71 89 0
-5 -37 49 87 0
-35 83 96 -120 0
8 -23 80 -82 0
1 -81 102 -113 0
-51 56 -70 -120 0
41 52 62 -74 0
-17 20 36 67 0
50 54 63 -88 0
15 42 66 102 0
-34 -72 -79 -86 0
32 46 -92 96 0
16 -32 -88 -116 0
-2 20 -74 79 0
17 -34 54 56 0
-76 -87 93 97 0
-2 -29 52 -117 0
38 95 -98 102 0
-3 -74 -78 118 0
-38 -40 78 -102 0
53 69 91 -107 0
-52 -87 -102 105 0
-10 14 -40 96 0
-7 66 81 84 0
6 -89 96 105 0
-3 -10 -17 -95 0
10 30 -85 99 0
5 -25 46 -115 0
20 70 81 -112 0
30 -41 -102 -118 0
21 24 -63 -104 0
1 18 54 -87 0
33 -42 52 100 0
-51 -60 81 93 0
-39 86 101 -109 0
-2 -21 25 59 0
12 46 48 96 0
39 -52 66 -85 0
16 18 -47 -82 0
28 70 92 -103 0
-21 -24 53 100 0
-19 -30 -72 -74 0
-14 51 -92 98 0
-25 38 -54 -89 0
-27 -62 66 89 0
-72 84 93 -117 0
22 38 -62 -77 0
-9 11 -47 65 0
-14 55 -84 88 0
1 2 -29 -80 0
-12 -25 -60 101 0
15 -23 39 -81 0
-6 19 49 -118 0
-48 62 -74 -80 0
-6 -69 -71 117 0
-11 -86 88 97 0
11 15 -25 49 0
41 -67 91 -104 0
-67 -90 110 117 0
-15 -43 72 -89 0
-1 -21 55 -79 0
-2 18 30 87 0
-6 -16 -36 108 0
1 5 49 -73 0
-49 -59 -107 110 0
30 -59 -97 115 0
-69 90 92 -105 0
-34 -50 52 -109 0
12 -71 -111 -115 0
-34 -40 -57 76 0
21 76 104 -117 0
-14 25 32 73 0
-19 57 -61 110 0
-11 23 60 -84 0
-53 -57 76 -100 0
-4 12 -36 107 0
18 -51 -90 -107 0
-48 -67 -91 108 0
-21 42 54 -103 0
19 -21 -27 -80 0
34 61 -117 -119 0
6 27 42 -53 0
14 -22 32 -41 0
-43 -90 108 -111 0
24 -46 -90 -107 0
13 -30 -60 -74 0
1 17 -61 68 0
12 -31 54 109 0
-13 21 -57 -109 0
-4 33 -98 -119 0
-10 -72 79 -89 0
-11 -15 -17 97 0
-35 -39 -60 91 0
-18 -25 -29 -55 0
1 13 -64 -110 0
-56 81 -84 102 0
-56 62 -68 88 0
-56 -60 71 -72 0
-49 63 64 107 0
8 95 -113 117 0
12 -16 69 -115 0
-6 -28 -42 88 0
6 23 105 -115 0
-12 -68 -108 120 0
21 22 70 91 0
30 39 -42 -79 0
-23 -74 -82 -104 0
3 32 56 -102 0
49 -62 90 -93 0
36 37 -61 -82 0
-7 31 64 -68 0
11 31 -67 91 0
35 52 -86 97 0
13 44 -66 -100 0
5 27 -85 119 0
-23 -57 -69 -90 0
96 98 105 116 0
-39 43 96 -118 0
-51 55 -100 -118 0
5 -68 84 103 0
-1 -11 -54 95 0
18 55 63 -93 0
-58 71 -104 113 0
-41 -53 99 104 0
-23 -42 80 -116 0
10 -33 93 119 0
-1 -41 -57 95 0
-18 -74 77 120 0
24 42 72 102 0
1 24 83 97 0
4 -49 -63 88 0
35 51 70 103 0
-53 56 59 -78 0
4 7 -15 102 0
16 -23 79 97 0
44 -47 -68 85 0
-19 -61 67 79 0
6 8 -100 105 0
-3 28 93 -94 0
-27 -56 70 -97 0
36 82 109 -116 0
22 -76 85 96 0
3 -12 79 87 0
11 36 69 86 0
-16 -23 54 90 0
2 44 107 -113 0
-75 91 -93 -119 0
5 32 -96 115 0
25 37 91 -103 0
31 -46 47 -57 0
15 33 40 48 0
-2 37 -49 118 0
43 53 -64 -83 0
-44 -49 -51 89 0
26 30 100 117 0
-24 -96 -97 105 0
25 -29 109 111 0
16 84 -106 118 0
-2 -5 63 -68 0
-11 -18 -21 113 0
-4 -29 -52 -91 0
2 -7 33 -77 0
-20 -48 50 58 0
-7 75 -86 -89 0
12 48 105 116 0
46 -47 71 -96 0
33 -68 100 111 0
-29 43 61 -115 0
4 -47 57 84 0
-19 22 80 96 0
-44 -49 -55 76 0
64 -77 -109 -117 0
35 80 -105 -114 0
33 65 71 -102 0
51 61 -63 100 0
-39 -72 105 -115 0
-5 -19 33 112 0
5 -37 -95 -110 0
36 -57 -100 119 0
-5 -11 47 -64 0
-47 58 -106 -111 0
-35 44 -101 -111 0
-38 -43 90 -96 0
-24 38 44 79 0
-21 25 76 111 0
-15 -16 -77 -78 0
2 -43 96 -113 0
-4 -12 48 92 0
-23 -47 59 95 0
-7 16 -66 -86 0
-5 -72 -102 -109 0
-24 -33 -66 100 0
-44 -54 -73 94 0
61 82 103 113 0
5 -15 58 -73 0
25 27 -58 73 0
-24 104 -114 -120 0
-37 -62 88 -109 0
-34 69 -97 -104 0
47 91 92 107 0
-1 10 -22 -102 0
33 -59 82 87 0
8 -13 -32 -91 0
-9 -74 -83 -101 0
-45 -110 -113 -120 0
-23 43 -72 81 0
-12 -48 84 -86 0
8 -9 -68 85 0
45 67 94 96 0
-14 38 -52 -110 0
-22 -28 74 114 0
-38 46 -67 -98 0
44 67 -73 -80 0
61 71 81 95 0
7 55 -91 -98 0
28 -39 -63 76 0
-24 75 -76 97 0
-22 -60 -105 113 0
8 15 -103 104 0
9 46 61 116 0
-10 21 77 -112 0
-46 71 -74 -95 0
-4 -53 56 90 0
-33 54 107 -110 0
-16 -27 35 91 0
19 -42 -62 -102 0
-19 50 92 -119 0
-33 -36 84 90 0
45 48 -49 97 0
-39 -69 -86 -90 0
23 -36 47 70 0
13 42 83 -99 0
41 -51 60 97 0
51 -67 -83 93 0
4 -43 -58 -89 0
-22 34 -65 -91 0
-38 39 -53 -59 0
-53 104 107 117 0
1 4 48 92 0
-27 -44 -98 -120 0
6 24 -59 -117 0
13 -53 75 88 0
-27 -77 103 107 0
-37 56 60 -88 0
-16 48 -50 -81 0
24 -53 105 -114 0
-6 55 -67 80 0
-7 91 107 118 0
-11 28 -75 114 0
-30 35 78 -106 0
13 54 -59 -107 0
-40 -50 66 -108 0
-22 -114 -116 -120 0
10 -18 -94 -112 0
34 87 -110 -120 0
37 58 -92 -117 0
-5 -10 -33 -112 0
11 -29 -59 81 0
1 -9 81 -90 0
42 -72 -77 -110 0
33 -54 -60 -75 0
46 -59 83 114 0
-6 13 -92 97 0
12 -38 88 119 0
48 64 -70 -115 0
3 -35 104 107 0
26 -64 99 115 0
31 -58 66 105 0
9 66 82 -86 0
81 82 90 -111 0
1 4 -94 -113 0
-3 -11 40 -41 0
25 69 96 117 0
67 -70 73 106 0
-53 59 72 88 0
-8 -14 -76 -98 0
-30 -71 -94 120 0
-31 -68 -93 109 0
54 92 103 -109 0
19 -73 102 -111 0
25 79 87 120 0
-50 58 -106 110 0
15 -38 -42 78 0
15 -55 67 -115 0
10 -52 89 -103 0
10 -22 77 -94 0
-3 -19 20 -72 0
17 -45 65 -103 0
-3 19 84 -96 0
-18 39 83 101 0
-47 89 102 118 0
-6 10 -98 -112 0
-19 37 49 61 0
-12 -74 96 -99 0
9 -37 76 -77 0
-44 67 84 112 0
24 46 72 103 0
-32 45 -74 -77 0
49 55 67 -104 0
-15 -34 -42 -44 0
43 56 80 -98 0
-83 89 110 111 0
-42 -46 81 113 0
-27 31 -36 -49 0
-44 89 110 115 0
-29 -40 50 119 0
20 -53 -87 -91 0
21 -46 -71 86 0
-29 53 71 89 0
59 -72 -86 -115 0
6 -59 -95 -116 0
3 -32 -78 82 0
10 -30 71 120 0
4 44 96 -119 0
-4 32 58 61 0
-17 69 -70 -115 0
10 26 -76 -88 0
10 -26 -27 91 0
-11 25 -36 -93 0
-70 88 94 98 0
56 -63 -85 113 0
-12 -14 -32 68 0
8 82 90 99 0
24 -95 -96 120 0
13 75 87 -113 0
-36 -41 -42 54 0
21 39 41 106 0
33 62 -104 105 0
36 82 106 -111 0
21 -49 69 115 0
61 -64 89 114 0
-2 -24 -89 91 0
9 -23 78 116 0
-87 -89 -96 97 0
-40 -47 -73 100 0
23 -43 53 73 0
-58 -59 83 95 0
-17 -25 46 56 0
30 50 -80 94 0
7 -62 98 110 0
30 39 80 -103 0
39 56 -100 118 0
-1 -27 -61 83 0
21 -64 -65 -78 0
-10 18 -38 -103 0
36 -68 -74 110 0
25 -35 66 -105 0
56 79 -105 114 0
-18 50 65 87 0
32 76 -90 106 0
-3 -6 -73 115 0
5 -89 100 120 0
53 58 113 -114 0
12 30 -31 102 0
52 58 -72 109 0
50 72 -78 -98 0
-58 -67 -94 -99 0
-12 50 113 -117 0
6 -20 -70 89 0
8 -12 -89 114 0
29 33 -64 118 0
-59 -69 107 117 0
19 -61 -71 85 0
6 -18 -101 -116 0
-31 67 76 -89 0
-27 -45 88 99 0
-69 85 88 -105 0
-23 38 -90 92 0
-34 47 49 -118 0
-15 -25 -41 -58 0
-19 -79 -96 -108 0
33 -85 -92 -93 0
31 33 51 -56 0
34 54 -61 -82 0
2 -33 69 75 0
6 -9 37 -116 0
-21 -23 45 -99 0
11 -52 56 88 0
-82 -91 -96 111 0
20 -101 106 -111 0
-26 -59 -69 -95 0
78 -93 111 118 0
16 22 -45 68 0
-53 73 75 -112 0
7 12 -70 -118 0
12 30 -75 99 0
-4 38 -66 82 0
-56 -71 104 106 0
15 21 53 83 0
-25 -36 71 105 0
-43 46 -75 109 0
6 48 -111 -112 0
17 -22 52 -57 0
-70 -72 -82 83 0
-19 -58 109 -119 0
-8 -12 19 -60 0
-19 58 -103 109 0
-43 63 91 -96 0
52 56 58 -115 0
37 80 84 115 0
21 -39 66 -84 0
-15 -62 -65 95 0
33 -68 -75 -95 0
-6 21 -98 108 0
-62 65 68 -96 0
-9 -71 76 -113 0
55 -68 -108 112 0
-19 -39 43 114 0
-10 42 69 -114 0
6 -68 -70 -94 0
27 -37 74 -109 0
-30 65 -74 -96 0
53 61 -114 118 0
17 59 73 84 0
25 -26 66 -84 0
39 -59 -68 88 0
-58 -75 -90 -96 0
6 -22 -34 -41 0
4 12 57 -111 0
22 -27 -59 80 0
-8 40 108 -110 0
-37 -42 58 85 0
-2 -64 96 -111 0
-2 -4 -24 -72 0
-8 55 -63 89 0
-39 -42 -100 -105 0
-1 -20 -26 64 0
-8 51 92 97 0
18 -51 -88 103 0
-9 -16 -21 107 0
62 64 66 -118 0
-8 -14 19 -35 0
20 -63 71 92 0
4 -22 43 47 0
47 51 -79 98 0
-1 34 -85 98 0
37 42 -110 -111 0
-7 38 97 114 0
7 -9 -10 55 0
-62 64 -81 120 0
-17 22 -29 31 0
-34 38 41 74 0
-74 110 114 117 0
-30 38 113 116 0
25 -78 80 -118 0
-24 108 116 -120 0
9 42 -50 -98 0
68 75 -97 113 0
26 60 66 76 0
-8 -22 36 -84 0
6 -80 87 -110 0
30 -44 -99 -106 0
1 14 25 61 0
-16 -48 -85 103 0
36 -54 98 -119 0
2 -41 -45 48 0
20 24 -54 -61 0
71 -79 -98 -99 0
8 81 82 100 0
69 -95 -96 113 0
15 -45 75 102 0
21 -56 72 95 0
-38 -70 -86 101 0
38 64 109 -118 0
-23 -34 -68 -75 0
-20 -46 -60 115 0
-10 87 -95 -119 0
3 -18 -41 -45 0
8 -40 -93 -112 0
16 -29 52 -102 0
-14 68 -74 103 0
-39 -91 -112 -120 0
-40 -46 94 98 0
-56 78 -82 84 0
40 -56 77 98 0
-40 -81 -85 102 0
-4 30 48 75 0
-45 -71 -79 114 0
-73 74 -76 -77 0
-28 55 -68 109 0
-39 43 -72 -111 0
-4 -102 111 -116 0
-17 -32 -107 110 0
-46 72 -103 -113 0
13 32 -62 119 0
-18 22 34 -87 0
-6 -16 -82 -114 0
-21 38 95 -118 0
-18 45 -66 95 0
-33 -77 101 -103 0
32 -39 -53 58 0
15 70 -72 -120 0
43 -56 78 103 0
41 65 78 -106 0
6 44 -53 -62 0
2 -26 -42 87 0
-29 -72 -93 -116 0
-5 -27 -105 120 0
-8 -22 -72 -97 0
-6 -60 69 74 0
34 -43 -70 -109 0
22 -75 -88 95 0
4 87 112 116 0
-48 -60 82 -85 0
-29 51 -71 -80 0
39 -43 56 100 0
39 70 71 -116 0
24 35 -79 84 0
-16 -54 92 109 0
32 49 -65 -119 0
3 -35 -115 -118 0
-11 -27 -81 104 0
-13 -24 34 -50 0
-1 87 88 -120 0
5 -7 -15 -18 0
94 103 -109 113 0
-18 -34 -48 110 0
34 37 41 45 0
11 37 -87 101 0
71 75 -94 110 0
-22 -99 101 -104 0
30 31 39 -98 0
2 42 48 -53 0
45 91 -97 100 0
-14 51 73 105 0
-2 7 -74 -85 0
-21 53 97 104 0
8 61 -97 111 0
37 -40 105 -114 0
53 54 -60 118 0
-35 41 50 -55 0
-2 8 -58 86 0
-59 63 77 -104 0
-11 -24 -107 -110 0
-26 78 81 -92 0
25 -45 71 120 0
-55 56 64 101 0
-3 38 -96 -119 0
31 -35 -61 114 0
-6 -53 60 101 0
29 55 97 -114 0
-14 84 112 115 0
17 -44 73 77 0
19 42 -71 94 0
-4 5 -73 -113 0
38 -60 -76 101 0
-20 47 -89 99 0
-33 -34 -75 83 0
-21 59 74 -112 0
5 -21 -67 -79 0
-21 -59 66 89 0
-3 24 -48 -98 0
-78 96 -109 110 0
-21 42 78 -119 0
17 -26 -64 109 0
-4 -65 77 -78 0
-1 90 -92 103 0
-21 42 -95 101 0
-10 -39 60 -67 0
26 57 -97 -117 0
-21 -26 -54 -111 0
-51 55 109 -117 0
-36 -62 85 118 0
-20 23 39 -60 0
-17 20 -21 -95 0
-17 20 40 -54 0
4 -56 116 -117 0
50 -58 80 -96 0
27 -39 -41 118 0
-37 -63 -110 117 0
16 22 64 -82 0
5 -87 -93 102 0
4 51 -60 -64 0
-18 81 92 -117 0
-3 -52 -78 -101 0
-50 58 -106 -110 0
-9 61 -85 -107 0
-23 -46 82 116 0
31 -45 67 -85 0
-53 -68 -75 -77 0
-10 -20 -73 97 0
17 -65 66 105 0
8 -45 -53 107 0
-5 -39 80 -119 0
-25 28 84 87 0
16 76 -96 105 0
-11 -38 96 -110 0
-13 -61 69 100 0
58 -77 -109 116 0
9 -40 74 113 0
3 -45 -47 62 0
-46 56 71 100 0
-63 -80 101 -110 0
1 -18 88 -112 0
-30 -72 -83 -106 0
9 -25 -86 -110 0
-17 65 67 85 0
-9 -43 83 -93 0
-2 -24 -32 119 0
-48 -64 98 118 0
-8 -10 -91 -116 0
11 12 53 112 0
-38 64 -99 -116 0
-15 -21 -46 79 0
18 40 92 -98 0
-32 -41 -71 105 0
4 51 65 -96 0
-8 -72 -76 -99 0
-9 -13 28 96 0
-19 -39 -65 79 0
20 -31 -68 114 0
7 -56 -96 118 0
-29 -83 91 105 0
-7 -8 19 29 0
-21 -54 -67 102 0
-19 56 107 119 0
-22 25 70 90 0
55 -78 94 106 0
4 -35 60 76 0
2 13 -32 60 0
44 -55 -64 85 0
32 -35 73 80 0
-2 24 72 100 0
7 -70 -90 104 0
33 -38 -44 -91 0
-27 34 37 -114 0
28 -74 -79 -117 0
36 54 84 -93 0
-7 82 -100 118 0
13 45 67 86 0
-30 54 -56 91 0
-69 -79 -82 -112 0
-2 12 17 18 0
-31 -68 -80 -83 0
-36 -84 90 112 0
11 -55 -93 -106 0
-44 -111 -115 -116 0
-10 -11 33 42 0
25 -43 -46 79 0
-51 66 -79 107 0
-47 52 59 -99 0
1 4 98 -117 0
-54 77 -117 -118 0
-4 7 -52 -73 0
37 -76 -87 120 0
-54 61 63 113 0
7 13 -54 56 0
30 -38 55 64 0
7 9 -14 -50 0
-14 44 59 -111 0
-27 38 40 -80 0
6 -22 27 -33 0
-17 19 37 83 0
15 62 80 -86 0
-14 18 108 120 0
-33 -52 77 -116 0
-91 94 -101 -119 0
23 43 67 68 0
30 -38 -61 -95 0
41 -86 -102 -120 0
-23 -39 -53 -66 0
6 -75 110 -116 0
14 -26 55 69 0
-20 26 -58 -112 0
12 -16 -25 86 0
26 46 86 115 0
-11 35 -67 115 0
-2 63 80 -98 0
9 -32 -47 62 0
-2 30 -42 116 0
21 95 118 119 0
6 -39 -40 76 0
48 -70 -82 98 0
7 -40 58 90 0
8 15 -16 34 0
-39 85 89 107 0
-23 -40 -62 107 0
-4 15 -36 99 0
-5 11 52 -75 0
-48 57 -86 103 0
43 -45 -60 -102 0
-38 65 -110 112 0
46 64 -79 -119 0
2 -16 -42 -44 0
16 44 108 112 0
64 82 -90 -113 0
-13 -17 52 -79 0
17 -81 82 90 0
-59 -63 -84 119 0
-20 -61 108 110 0
-14 77 -79 -111 0
3 -31 84 120 0
9 10 -26 -96 0
3 80 -89 -90 0
-64 82 -96 -108 0
17 -32 -44 64 0
13 30 -52 71 0
11 -37 59 -81 0
7 60 -105 -109 0
-18 93 -109 110 0
-31 48 58 95 0
-2 -61 -96 117 0
54 -66 -77 98 0
-21 73 -76 -92 0
-34 -68 -106 -113 0
47 -52 57 58 0
22 -24 54 -96 0
-59 -64 80 112 0
-9 -83 -87 -113 0
-6 25 -75 -86 0
20 63 -90 -116 0
-1 -10 67 80 0
-49 -71 83 106 0
20 52 83 113 0
-3 18 -48 54 0
2 -10 -29 -31 0
-84 -90 -92 -93 0
4 -11 51 60 0
-28 -35 -103 112 0
41 49 73 -81 0
48 94 -103 120 0
24 51 55 -72 0
-21 -32 90 -116 0
8 -33 -61 117 0
35 51 64 -113 0
-40 63 -94 -97 0
13 58 70 -78 0
26 48 59 76 0
-18 66 -77 -118 0
-27 69 84 85 0
40 -69 -92 -118 0
-8 -35 49 -64 0
-16 -41 53 89 0
-21 24 42 63 0
42 -98 101 120 0
4 33 -57 62 0
-18 -68 -76 85 0
-19 22 48 94 0
-53 -58 -75 98 0
9 17 -97 -116 0
-10 38 -41 -67 0
37 -64 -100 119 0
3 -39 46 81 0
39 -77 -93 99 0
-62 -95 96 105 0
-16 -45 -63 -120 0
62 -86 -112 -117 0
28 -73 -97 115 0
35 -82 104 113 0
23 -72 -89 -97 0
-18 19 -45 76 0
-25 82 -88 113 0
54 -76 85 -110 0
70 -76 91 -120 0
20 23 36 75 0
-21 -30 -68 109 0
12 14 25 -31 0
42 -54 -56 -105 0
-18 58 -68 72 0
22 23 -75 109 0
-7 -10 -62 -84 0
-65 -71 79 110 0
-12 -18 -53 93 0
-2 12 -26 58 0
-4 16 -33 116 0
-3 62 -85 114 0
27 -33 47 -92 0
4 53 -55 -83 0
30 -91 -97 -107 0
-25 46 -64 115 0
7 97 -111 -114 0
4 -21 -53 -80 0
-19 25 47 -115 0
-67 69 -83 -86 0
14 45 84 114 0
8 -46 94 105 0
-23 31 -35 72 0
27 59 -105 -109 0
5 6 -15 -54 0
22 -72 -82 -106 0
34 -66 75 -77 0
49 -81 -94 112 0
23 -25 -48 -100 0
44 -62 71 -119 0
-25 58 107 -114 0
18 32 -67 -86 0
-2 -37 40 66 0
23 -40 -79 116 0
-13 -60 70 -104 0
40 -50 -76 84 0
-7 -9 68 -73 0
16 -66 78 -99 0
-3 37 -100 -105 0
8 23 -43 81 0
-18 -40 57 120 0
-10 -34 -44 114 0
26 -41 58 -119 0
-14 -25 -28 -96 0
27 -84 -85 -98 0
83 -103 -107 118 0
-15 -20 -49 -112 0
-63 102 105 107 0
23 -47 -58 69 0
12 68 77 109 0
-28 30 46 103 0
-6 69 -105 108 0
-2 -31 45 118 0
-58 62 -83 -93 0
-7 57 75 -105 0
34 44 81 -107 0
34 -47 58 -90 0
-35 74 -97 102 0
-31 93 97 111 0
28 -82 -89 -96 0
-42 -61 -104 -114 0
-11 -19 -58 -78 0
21 -23 104 116 0
36 65 68 -80 0
24 -33 -65 -104 0
-6 46 -70 -76 0
2 -79 -92 -111 0
66 -94 -103 -108 0
5 7 78 -81 0
-39 -60 68 -98 0
-22 55 -68 -109 0
27 34 48 -120 0
54 58 -107 117 0
3 103 115 118 0
