c description: Random 4-xor over 48 variables and 36 clauses
c generator: CNFgen (0.9.5)
c copyright: (C) 2012-2026 Massimo Lauria <massimo.lauria@uniroma1.it>
c url: https://massimolauria.net/cnfgen
c random seed: 31138
c command line: cnfgen -S 31138 -o cnfgen_regression_pack/cnfgen_cases/planted_rand4xor_v48_e36_s2_sat.cnf randkxor -p 4 48 36
c
c known_status: SAT
c pack_family: planted_randkxor
c pack_level: easy
c pack_notes: CNFgen planted random XOR encoded as CNF
p cnf 48 288
4 22 32 38 0
4 22 -32 -38 0
4 -22 32 -38 0
4 -22 -32 38 0
-4 22 32 -38 0
-4 22 -32 38 0
-4 -22 32 38 0
-4 -22 -32 -38 0
19 38 43 45 0
19 38 -43 -45 0
19 -38 43 -45 0
19 -38 -43 45 0
-19 38 43 -45 0
-19 38 -43 45 0
-19 -38 43 45 0
-19 -38 -43 -45 0
8 21 24 40 0
8 21 -24 -40 0
8 -21 24 -40 0
8 -21 -24 40 0
-8 21 24 -40 0
-8 21 -24 40 0
-8 -21 24 40 0
-8 -21 -24 -40 0
19 27 32 -46 0
19 27 -32 46 0
19 -27 32 46 0
19 -27 -32 -46 0
-19 27 32 46 0
-19 27 -32 -46 0
-19 -27 32 -46 0
-19 -27 -32 46 0
3 5 14 42 0
3 5 -14 -42 0
3 -5 14 -42 0
3 -5 -14 42 0
-3 5 14 -42 0
-3 5 -14 42 0
-3 -5 14 42 0
-3 -5 -14 -42 0
3 7 21 41 0
3 7 -21 -41 0
3 -7 21 -41 0
3 -7 -21 41 0
-3 7 21 -41 0
-3 7 -21 41 0
-3 -7 21 41 0
-3 -7 -21 -41 0
9 14 26 -34 0
9 14 -26 34 0
9 -14 26 34 0
9 -14 -26 -34 0
-9 14 26 34 0
-9 14 -26 -34 0
-9 -14 26 -34 0
-9 -14 -26 34 0
26 33 34 -40 0
26 33 -34 40 0
26 -33 34 40 0
26 -33 -34 -40 0
-26 33 34 40 0
-26 33 -34 -40 0
-26 -33 34 -40 0
-26 -33 -34 40 0
1 10 12 -34 0
1 10 -12 34 0
1 -10 12 34 0
1 -10 -12 -34 0
-1 10 12 34 0
-1 10 -12 -34 0
-1 -10 12 -34 0
-1 -10 -12 34 0
2 5 34 -45 0
2 5 -34 45 0
2 -5 34 45 0
2 -5 -34 -45 0
-2 5 34 45 0
-2 5 -34 -45 0
-2 -5 34 -45 0
-2 -5 -34 45 0
2 8 35 46 0
2 8 -35 -46 0
2 -8 35 -46 0
2 -8 -35 46 0
-2 8 35 -46 0
-2 8 -35 46 0
-2 -8 35 46 0
-2 -8 -35 -46 0
13 17 24 46 0
13 17 -24 -46 0
13 -17 24 -46 0
13 -17 -24 46 0
-13 17 24 -46 0
-13 17 -24 46 0
-13 -17 24 46 0
-13 -17 -24 -46 0
6 19 23 -25 0
6 19 -23 25 0
6 -19 23 25 0
6 -19 -23 -25 0
-6 19 23 25 0
-6 19 -23 -25 0
-6 -19 23 -25 0
-6 -19 -23 25 0
11 28 42 47 0
11 28 -42 -47 0
11 -28 42 -47 0
11 -28 -42 47 0
-11 28 42 -47 0
-11 28 -42 47 0
-11 -28 42 47 0
-11 -28 -42 -47 0
18 20 39 -48 0
18 20 -39 48 0
18 -20 39 48 0
18 -20 -39 -48 0
-18 20 39 48 0
-18 20 -39 -48 0
-18 -20 39 -48 0
-18 -20 -39 48 0
9 25 44 -45 0
9 25 -44 45 0
9 -25 44 45 0
9 -25 -44 -45 0
-9 25 44 45 0
-9 25 -44 -45 0
-9 -25 44 -45 0
-9 -25 -44 45 0
6 20 26 -32 0
6 20 -26 32 0
6 -20 26 32 0
6 -20 -26 -32 0
-6 20 26 32 0
-6 20 -26 -32 0
-6 -20 26 -32 0
-6 -20 -26 32 0
5 12 32 48 0
5 12 -32 -48 0
5 -12 32 -48 0
5 -12 -32 48 0
-5 12 32 -48 0
-5 12 -32 48 0
-5 -12 32 48 0
-5 -12 -32 -48 0
3 16 34 -40 0
3 16 -34 40 0
3 -16 34 40 0
3 -16 -34 -40 0
-3 16 34 40 0
-3 16 -34 -40 0
-3 -16 34 -40 0
-3 -16 -34 40 0
7 15 28 48 0
7 15 -28 -48 0
7 -15 28 -48 0
7 -15 -28 48 0
-7 15 28 -48 0
-7 15 -28 48 0
-7 -15 28 48 0
-7 -15 -28 -48 0
2 32 35 -41 0
2 32 -35 41 0
2 -32 35 41 0
2 -32 -35 -41 0
-2 32 35 41 0
-2 32 -35 -41 0
-2 -32 35 -41 0
-2 -32 -35 41 0
3 6 7 -39 0
3 6 -7 39 0
3 -6 7 39 0
3 -6 -7 -39 0
-3 6 7 39 0
-3 6 -7 -39 0
-3 -6 7 -39 0
-3 -6 -7 39 0
6 26 45 46 0
6 26 -45 -46 0
6 -26 45 -46 0
6 -26 -45 46 0
-6 26 45 -46 0
-6 26 -45 46 0
-6 -26 45 46 0
-6 -26 -45 -46 0
26 28 33 44 0
26 28 -33 -44 0
26 -28 33 -44 0
26 -28 -33 44 0
-26 28 33 -44 0
-26 28 -33 44 0
-26 -28 33 44 0
-26 -28 -33 -44 0
18 20 47 -48 0
18 20 -47 48 0
18 -20 47 48 0
18 -20 -47 -48 0
-18 20 47 48 0
-18 20 -47 -48 0
-18 -20 47 -48 0
-18 -20 -47 48 0
21 35 42 47 0
21 35 -42 -47 0
21 -35 42 -47 0
21 -35 -42 47 0
-21 35 42 -47 0
-21 35 -42 47 0
-21 -35 42 47 0
-21 -35 -42 -47 0
8 34 40 47 0
8 34 -40 -47 0
8 -34 40 -47 0
8 -34 -40 47 0
-8 34 40 -47 0
-8 34 -40 47 0
-8 -34 40 47 0
-8 -34 -40 -47 0
2 12 30 -48 0
2 12 -30 48 0
2 -12 30 48 0
2 -12 -30 -48 0
-2 12 30 48 0
-2 12 -30 -48 0
-2 -12 30 -48 0
-2 -12 -30 48 0
19 26 42 47 0
19 26 -42 -47 0
19 -26 42 -47 0
19 -26 -42 47 0
-19 26 42 -47 0
-19 26 -42 47 0
-19 -26 42 47 0
-19 -26 -42 -47 0
20 22 35 -40 0
20 22 -35 40 0
20 -22 35 40 0
20 -22 -35 -40 0
-20 22 35 40 0
-20 22 -35 -40 0
-20 -22 35 -40 0
-20 -22 -35 40 0
8 18 19 34 0
8 18 -19 -34 0
8 -18 19 -34 0
8 -18 -19 34 0
-8 18 19 -34 0
-8 18 -19 34 0
-8 -18 19 34 0
-8 -18 -19 -34 0
12 13 30 45 0
12 13 -30 -45 0
12 -13 30 -45 0
12 -13 -30 45 0
-12 13 30 -45 0
-12 13 -30 45 0
-12 -13 30 45 0
-12 -13 -30 -45 0
25 34 43 48 0
25 34 -43 -48 0
25 -34 43 -48 0
25 -34 -43 48 0
-25 34 43 -48 0
-25 34 -43 48 0
-25 -34 43 48 0
-25 -34 -43 -48 0
8 22 26 -38 0
8 22 -26 38 0
8 -22 26 38 0
8 -22 -26 -38 0
-8 22 26 38 0
-8 22 -26 -38 0
-8 -22 26 -38 0
-8 -22 -26 38 0
4 5 28 -35 0
4 5 -28 35 0
4 -5 28 35 0
4 -5 -28 -35 0
-4 5 28 35 0
-4 5 -28 -35 0
-4 -5 28 -35 0
-4 -5 -28 35 0
6 26 33 42 0
6 26 -33 -42 0
6 -26 33 -42 0
6 -26 -33 42 0
-6 26 33 -42 0
-6 26 -33 42 0
-6 -26 33 42 0
-6 -26 -33 -42 0
