c description: Random 2-CNF over 120 variables and 260 clauses
c generator: CNFgen (0.9.5)
c copyright: (C) 2012-2026 Massimo Lauria <massimo.lauria@uniroma1.it>
c url: https://massimolauria.net/cnfgen
c random seed: 31030
c command line: cnfgen -S 31030 -o cnfgen_regression_pack/cnfgen_cases/planted_rand2cnf_v120_m260_s3_sat.cnf randkcnf -p 2 120 260
c
c known_status: SAT
c pack_family: planted_randkcnf
c pack_level: moderate
c pack_notes: CNFgen planted random k-CNF
p cnf 120 260
-21 108 0
72 -91 0
-16 -116 0
2 39 0
92 99 0
8 52 0
-18 33 0
26 -46 0
79 116 0
53 58 0
-105 113 0
6 -54 0
-17 113 0
-20 105 0
38 44 0
-14 -85 0
-32 -76 0
12 53 0
58 117 0
-17 61 0
2 118 0
-57 -119 0
28 -115 0
-57 -97 0
12 -40 0
48 -85 0
-66 -108 0
27 30 0
48 -63 0
-101 117 0
30 -58 0
-46 -49 0
44 69 0
-8 -17 0
59 94 0
-83 117 0
6 99 0
28 107 0
46 -115 0
29 100 0
-15 -43 0
15 -16 0
-70 -92 0
4 -22 0
33 96 0
-2 -92 0
8 -29 0
105 118 0
-26 48 0
-2 -15 0
-37 -77 0
32 88 0
59 -69 0
67 -92 0
63 -74 0
-98 -105 0
-51 118 0
-19 -84 0
-53 -84 0
-8 -85 0
119 -120 0
-23 -62 0
-86 -116 0
41 -47 0
51 88 0
35 119 0
42 -117 0
-65 -88 0
38 45 0
79 -111 0
-2 -91 0
43 61 0
-52 53 0
-45 -94 0
-36 -98 0
-24 -106 0
24 39 0
-85 112 0
-32 119 0
-71 -84 0
4 9 0
-25 114 0
-36 85 0
35 -51 0
24 58 0
-49 -84 0
-27 -52 0
51 -100 0
29 -107 0
43 81 0
69 -94 0
-38 67 0
38 -67 0
-79 80 0
52 77 0
23 -77 0
50 -97 0
76 -98 0
32 79 0
-14 -97 0
-28 74 0
-35 -75 0
-23 111 0
61 78 0
-31 -119 0
-90 -92 0
-14 -93 0
-17 106 0
99 -117 0
-2 107 0
39 87 0
99 -106 0
-75 76 0
-2 -112 0
-58 -65 0
-100 -116 0
26 53 0
7 52 0
-85 86 0
80 96 0
-29 87 0
-65 -72 0
99 -114 0
-24 -60 0
10 69 0
51 55 0
-47 -78 0
-60 110 0
12 -86 0
35 55 0
18 120 0
-76 98 0
-7 -73 0
49 77 0
37 -98 0
-5 41 0
24 67 0
-80 -101 0
9 -94 0
35 -95 0
11 88 0
5 119 0
-76 -96 0
-40 -67 0
35 -59 0
7 -70 0
-34 -75 0
14 -68 0
-109 112 0
-7 -33 0
-48 -65 0
-38 -70 0
84 112 0
22 86 0
66 -111 0
5 107 0
-36 -90 0
5 36 0
48 -74 0
-94 -96 0
78 107 0
-32 -119 0
-59 82 0
-13 113 0
3 52 0
55 -82 0
64 94 0
-40 93 0
11 62 0
48 -106 0
-40 -86 0
17 -107 0
-27 -70 0
21 31 0
-34 43 0
-65 97 0
54 118 0
2 -83 0
-59 -93 0
55 -79 0
78 -118 0
-8 -108 0
-92 108 0
-22 112 0
54 120 0
91 -114 0
43 79 0
-27 74 0
-91 92 0
-29 -89 0
5 92 0
67 82 0
50 51 0
6 56 0
-9 -70 0
-95 116 0
1 43 0
16 -96 0
-20 62 0
-8 26 0
8 -119 0
27 71 0
-78 -92 0
-38 -116 0
90 -105 0
64 95 0
4 117 0
-57 67 0
39 46 0
-30 -46 0
35 -82 0
-80 -116 0
-20 78 0
-111 118 0
-53 -111 0
28 59 0
41 -95 0
108 -113 0
10 116 0
-13 93 0
-91 106 0
11 -98 0
-23 89 0
-3 78 0
44 -70 0
-1 -60 0
-19 -108 0
-68 -98 0
84 -87 0
31 -49 0
-23 -28 0
-7 -19 0
63 80 0
54 -106 0
12 -34 0
-31 69 0
40 56 0
57 74 0
-77 101 0
-47 -63 0
-95 -113 0
73 -117 0
22 -46 0
-65 -108 0
-20 -82 0
4 87 0
-29 32 0
5 39 0
-93 -100 0
-25 -72 0
1 38 0
-24 49 0
40 -102 0
-14 82 0
-38 57 0
-53 -75 0
-44 79 0
20 -23 0
-11 -111 0
-27 41 0
