c description: Random 3-xor over 32 variables and 40 clauses
c generator: CNFgen (0.9.5)
c copyright: (C) 2012-2026 Massimo Lauria <massimo.lauria@uniroma1.it>
c url: https://massimolauria.net/cnfgen
c random seed: 31121
c command line: cnfgen -S 31121 -o cnfgen_regression_pack/cnfgen_cases/planted_rand3xor_v32_e40_s1_sat.cnf randkxor -p 3 32 40
c
c known_status: SAT
c pack_family: planted_randkxor
c pack_level: easy
c pack_notes: CNFgen planted random XOR encoded as CNF
p cnf 32 160
3 6 10 0
3 -6 -10 0
-3 6 -10 0
-3 -6 10 0
2 8 -9 0
2 -8 9 0
-2 8 9 0
-2 -8 -9 0
6 8 20 0
6 -8 -20 0
-6 8 -20 0
-6 -8 20 0
18 22 30 0
18 -22 -30 0
-18 22 -30 0
-18 -22 30 0
18 20 23 0
18 -20 -23 0
-18 20 -23 0
-18 -20 23 0
13 17 20 0
13 -17 -20 0
-13 17 -20 0
-13 -17 20 0
15 23 24 0
15 -23 -24 0
-15 23 -24 0
-15 -23 24 0
1 5 20 0
1 -5 -20 0
-1 5 -20 0
-1 -5 20 0
10 16 -28 0
10 -16 28 0
-10 16 28 0
-10 -16 -28 0
3 18 23 0
3 -18 -23 0
-3 18 -23 0
-3 -18 23 0
4 14 -20 0
4 -14 20 0
-4 14 20 0
-4 -14 -20 0
8 20 -22 0
8 -20 22 0
-8 20 22 0
-8 -20 -22 0
8 14 -31 0
8 -14 31 0
-8 14 31 0
-8 -14 -31 0
21 26 -28 0
21 -26 28 0
-21 26 28 0
-21 -26 -28 0
14 28 -31 0
14 -28 31 0
-14 28 31 0
-14 -28 -31 0
4 11 -23 0
4 -11 23 0
-4 11 23 0
-4 -11 -23 0
18 26 -32 0
18 -26 32 0
-18 26 32 0
-18 -26 -32 0
9 27 -30 0
9 -27 30 0
-9 27 30 0
-9 -27 -30 0
16 25 27 0
16 -25 -27 0
-16 25 -27 0
-16 -25 27 0
16 17 -30 0
16 -17 30 0
-16 17 30 0
-16 -17 -30 0
6 18 -29 0
6 -18 29 0
-6 18 29 0
-6 -18 -29 0
4 11 12 0
4 -11 -12 0
-4 11 -12 0
-4 -11 12 0
8 22 -30 0
8 -22 30 0
-8 22 30 0
-8 -22 -30 0
4 13 -16 0
4 -13 16 0
-4 13 16 0
-4 -13 -16 0
22 26 27 0
22 -26 -27 0
-22 26 -27 0
-22 -26 27 0
8 21 -26 0
8 -21 26 0
-8 21 26 0
-8 -21 -26 0
9 10 -13 0
9 -10 13 0
-9 10 13 0
-9 -10 -13 0
1 4 -17 0
1 -4 17 0
-1 4 17 0
-1 -4 -17 0
1 4 16 0
1 -4 -16 0
-1 4 -16 0
-1 -4 16 0
13 24 26 0
13 -24 -26 0
-13 24 -26 0
-13 -24 26 0
19 27 28 0
19 -27 -28 0
-19 27 -28 0
-19 -27 28 0
10 16 -21 0
10 -16 21 0
-10 16 21 0
-10 -16 -21 0
13 20 25 0
13 -20 -25 0
-13 20 -25 0
-13 -20 25 0
1 22 24 0
1 -22 -24 0
-1 22 -24 0
-1 -22 24 0
7 29 -32 0
7 -29 32 0
-7 29 32 0
-7 -29 -32 0
5 16 29 0
5 -16 -29 0
-5 16 -29 0
-5 -16 29 0
4 7 27 0
4 -7 -27 0
-4 7 -27 0
-4 -7 27 0
12 16 -21 0
12 -16 21 0
-12 16 21 0
-12 -16 -21 0
17 23 -24 0
17 -23 24 0
-17 23 24 0
-17 -23 -24 0
16 17 -32 0
16 -17 32 0
-16 17 32 0
-16 -17 -32 0
