c description: Random 2-CNF over 240 variables and 520 clauses
c generator: CNFgen (0.9.5)
c copyright: (C) 2012-2026 Massimo Lauria <massimo.lauria@uniroma1.it>
c url: https://massimolauria.net/cnfgen
c random seed: 31026
c command line: cnfgen -S 31026 -o cnfgen_regression_pack/cnfgen_cases/planted_rand2cnf_v240_m520_s2_sat.cnf randkcnf -p 2 240 520
c
c known_status: SAT
c pack_family: planted_randkcnf
c pack_level: stress
c pack_notes: CNFgen planted random k-CNF
p cnf 240 520
-122 171 0
-162 -164 0
171 212 0
-146 -237 0
-68 226 0
124 -224 0
220 -234 0
-102 -166 0
76 -213 0
-97 -237 0
-21 189 0
95 210 0
-136 229 0
-106 -210 0
-93 -221 0
-12 101 0
-95 -227 0
-16 -113 0
49 127 0
-152 197 0
69 144 0
-31 -87 0
124 -187 0
102 -168 0
89 -240 0
-147 220 0
43 184 0
25 -140 0
62 -74 0
37 -206 0
122 -127 0
26 47 0
-87 188 0
36 192 0
-138 -234 0
-137 154 0
-2 -168 0
-168 -233 0
-95 185 0
36 49 0
-39 48 0
110 -236 0
-77 -139 0
-38 -166 0
-15 -181 0
61 -162 0
13 203 0
60 -111 0
-79 -218 0
44 -206 0
-136 154 0
2 232 0
30 105 0
43 73 0
2 94 0
72 -95 0
-103 143 0
-27 154 0
-144 -168 0
13 -106 0
-47 115 0
179 227 0
-81 216 0
-90 -126 0
-94 115 0
-109 127 0
-59 -121 0
-224 238 0
-48 -77 0
-190 -229 0
57 -126 0
40 -70 0
-3 72 0
-119 171 0
-213 219 0
1 150 0
136 153 0
-134 159 0
41 222 0
-18 -25 0
-17 -135 0
-48 73 0
-67 -196 0
-17 149 0
88 193 0
64 84 0
-83 -98 0
78 -232 0
98 -199 0
56 101 0
41 168 0
-103 -176 0
47 -51 0
114 218 0
44 154 0
55 222 0
119 193 0
-47 -222 0
-58 85 0
109 145 0
-117 173 0
104 -223 0
101 -164 0
58 -120 0
-32 118 0
8 143 0
143 183 0
-99 -102 0
-64 114 0
27 62 0
11 -151 0
-16 63 0
-17 161 0
-116 -175 0
-126 -220 0
128 -170 0
-2 6 0
-94 -193 0
-34 225 0
-31 -76 0
-111 204 0
11 -156 0
-55 -209 0
-48 -130 0
119 -144 0
-27 54 0
-39 209 0
157 223 0
-170 179 0
-78 -188 0
50 55 0
-96 -197 0
138 -170 0
-20 154 0
16 -200 0
-113 -221 0
-16 152 0
58 -145 0
151 -162 0
34 117 0
100 -120 0
71 137 0
62 153 0
108 237 0
-33 66 0
-67 126 0
-52 -124 0
-64 -130 0
-210 -217 0
24 -94 0
56 91 0
82 -102 0
-145 162 0
1 118 0
20 237 0
-42 62 0
-20 -237 0
-129 -201 0
9 195 0
-59 -82 0
49 230 0
-147 168 0
61 179 0
-86 -152 0
-102 -188 0
58 -209 0
110 -221 0
-52 -54 0
91 -120 0
-135 -145 0
-64 205 0
4 -196 0
-27 -74 0
-3 69 0
-39 -143 0
46 -111 0
16 -24 0
97 -128 0
-71 -207 0
19 -147 0
-6 -124 0
-91 -156 0
107 129 0
169 176 0
-37 -68 0
23 100 0
-112 -236 0
-117 -126 0
40 -147 0
172 206 0
-97 226 0
-54 -214 0
-54 -71 0
-27 153 0
80 -218 0
156 -224 0
-27 -87 0
-44 55 0
-164 -237 0
-54 185 0
110 -150 0
28 142 0
42 154 0
-124 155 0
-67 -169 0
-4 -94 0
-111 161 0
40 -169 0
15 -58 0
-102 165 0
-131 -202 0
-81 154 0
125 -186 0
11 -78 0
-18 132 0
-33 -224 0
-190 -217 0
-206 -230 0
-9 220 0
-54 -68 0
62 -204 0
220 -232 0
8 -172 0
-41 -223 0
76 128 0
70 206 0
48 229 0
28 230 0
201 203 0
19 164 0
92 -206 0
-16 -72 0
-91 -225 0
8 -90 0
62 78 0
-34 55 0
-17 -206 0
89 -229 0
26 169 0
-45 -68 0
46 218 0
156 -239 0
-147 -181 0
-7 192 0
49 -224 0
8 65 0
-32 -235 0
-10 240 0
76 -143 0
-48 -209 0
131 232 0
-120 -144 0
179 -237 0
63 142 0
-165 -232 0
152 -216 0
182 225 0
73 -174 0
-27 175 0
-28 -138 0
26 67 0
74 109 0
-127 226 0
47 -85 0
110 -197 0
-52 161 0
25 -87 0
-104 227 0
20 -168 0
-11 -186 0
-110 128 0
53 -184 0
-22 155 0
100 -221 0
-92 -95 0
125 -227 0
-46 215 0
48 103 0
-28 -168 0
175 -234 0
-54 -74 0
195 -236 0
169 236 0
-157 -213 0
151 173 0
-35 51 0
-119 -138 0
70 224 0
107 115 0
84 122 0
-88 -224 0
-48 -219 0
-80 -206 0
22 51 0
4 -127 0
98 235 0
48 -182 0
39 197 0
-147 -220 0
103 -175 0
-78 214 0
92 -158 0
-14 18 0
-72 135 0
-185 201 0
-15 -221 0
-58 129 0
169 185 0
69 75 0
80 213 0
-143 155 0
-49 -187 0
-32 74 0
-112 115 0
40 -91 0
12 230 0
45 117 0
36 -88 0
173 -213 0
42 -171 0
167 -184 0
2 162 0
-93 -163 0
85 100 0
-83 -202 0
-25 -77 0
-48 188 0
-72 169 0
-141 -162 0
-48 216 0
195 -212 0
18 -215 0
168 -228 0
156 -158 0
-89 93 0
-168 -179 0
168 -185 0
-73 217 0
42 207 0
-23 -99 0
-116 146 0
86 -209 0
135 211 0
7 -213 0
-42 -136 0
104 -200 0
63 -205 0
-58 140 0
-170 -230 0
-24 -192 0
-25 44 0
53 119 0
127 -198 0
82 178 0
11 78 0
-81 -126 0
158 -223 0
-58 -178 0
-27 150 0
-86 -120 0
24 189 0
39 -64 0
-67 168 0
2 26 0
-213 216 0
90 137 0
-50 -118 0
-113 146 0
-59 237 0
-38 238 0
-91 -128 0
-46 51 0
-148 152 0
-15 121 0
76 227 0
116 225 0
134 156 0
-35 -231 0
-144 204 0
230 239 0
80 118 0
-84 119 0
62 -140 0
88 220 0
46 -191 0
-147 156 0
-155 -186 0
-65 116 0
129 -207 0
93 -151 0
2 180 0
84 -193 0
114 -153 0
-20 -58 0
-166 -213 0
151 -199 0
-41 -68 0
137 167 0
97 -109 0
43 -143 0
72 216 0
70 155 0
-44 -120 0
-39 126 0
-86 -190 0
87 195 0
-93 -232 0
38 233 0
-97 233 0
202 -212 0
45 95 0
18 82 0
-36 225 0
-82 149 0
133 141 0
-57 71 0
14 234 0
213 229 0
-123 -220 0
-104 134 0
-64 184 0
-77 -118 0
201 -216 0
179 205 0
-32 -127 0
40 -183 0
173 234 0
16 -212 0
197 206 0
57 -133 0
7 -73 0
144 -185 0
74 222 0
-82 178 0
29 -69 0
-73 128 0
189 208 0
96 167 0
-24 166 0
-82 97 0
144 173 0
-147 -232 0
68 -221 0
7 -139 0
-9 -61 0
6 -126 0
-14 225 0
-1 20 0
77 -78 0
159 -223 0
-107 -164 0
126 -151 0
15 171 0
-138 -144 0
165 -214 0
85 144 0
19 -102 0
116 169 0
-81 -118 0
-142 -145 0
84 -92 0
-13 96 0
121 -190 0
152 220 0
110 -222 0
45 -192 0
192 224 0
-73 116 0
124 -221 0
-22 -77 0
130 -234 0
-122 -182 0
87 156 0
-22 39 0
154 -223 0
76 -148 0
-86 -131 0
38 -41 0
70 214 0
125 -161 0
-128 173 0
-21 175 0
7 -113 0
3 -150 0
21 -36 0
-84 -205 0
213 -236 0
111 215 0
-72 92 0
146 -213 0
-72 -140 0
55 194 0
2 -20 0
66 119 0
64 -174 0
-128 -158 0
-66 80 0
76 196 0
36 77 0
-30 -174 0
48 -186 0
19 151 0
122 -184 0
204 -218 0
89 -231 0
2 37 0
-139 199 0
-20 146 0
61 -139 0
-95 118 0
-3 -198 0
-42 156 0
-188 220 0
-13 61 0
10 -207 0
121 -152 0
-81 115 0
38 50 0
-35 -69 0
97 112 0
