c description: Random 4-xor over 96 variables and 90 clauses
c generator: CNFgen (0.9.5)
c copyright: (C) 2012-2026 Massimo Lauria <massimo.lauria@uniroma1.it>
c url: https://massimolauria.net/cnfgen
c random seed: 31140
c command line: cnfgen -S 31140 -o cnfgen_regression_pack/cnfgen_cases/planted_rand4xor_v96_e90_s2_sat.cnf randkxor -p 4 96 90
c
c known_status: SAT
c pack_family: planted_randkxor
c pack_level: moderate
c pack_notes: CNFgen planted random XOR encoded as CNF
p cnf 96 720
46 63 74 87 0
46 63 -74 -87 0
46 -63 74 -87 0
46 -63 -74 87 0
-46 63 74 -87 0
-46 63 -74 87 0
-46 -63 74 87 0
-46 -63 -74 -87 0
30 31 42 -93 0
30 31 -42 93 0
30 -31 42 93 0
30 -31 -42 -93 0
-30 31 42 93 0
-30 31 -42 -93 0
-30 -31 42 -93 0
-30 -31 -42 93 0
12 25 36 -93 0
12 25 -36 93 0
12 -25 36 93 0
12 -25 -36 -93 0
-12 25 36 93 0
-12 25 -36 -93 0
-12 -25 36 -93 0
-12 -25 -36 93 0
1 3 71 78 0
1 3 -71 -78 0
1 -3 71 -78 0
1 -3 -71 78 0
-1 3 71 -78 0
-1 3 -71 78 0
-1 -3 71 78 0
-1 -3 -71 -78 0
5 19 77 79 0
5 19 -77 -79 0
5 -19 77 -79 0
5 -19 -77 79 0
-5 19 77 -79 0
-5 19 -77 79 0
-5 -19 77 79 0
-5 -19 -77 -79 0
1 23 80 -93 0
1 23 -80 93 0
1 -23 80 93 0
1 -23 -80 -93 0
-1 23 80 93 0
-1 23 -80 -93 0
-1 -23 80 -93 0
-1 -23 -80 93 0
33 47 64 -82 0
33 47 -64 82 0
33 -47 64 82 0
33 -47 -64 -82 0
-33 47 64 82 0
-33 47 -64 -82 0
-33 -47 64 -82 0
-33 -47 -64 82 0
46 56 85 -91 0
46 56 -85 91 0
46 -56 85 91 0
46 -56 -85 -91 0
-46 56 85 91 0
-46 56 -85 -91 0
-46 -56 85 -91 0
-46 -56 -85 91 0
36 57 58 -85 0
36 57 -58 85 0
36 -57 58 85 0
36 -57 -58 -85 0
-36 57 58 85 0
-36 57 -58 -85 0
-36 -57 58 -85 0
-36 -57 -58 85 0
30 33 41 62 0
30 33 -41 -62 0
30 -33 41 -62 0
30 -33 -41 62 0
-30 33 41 -62 0
-30 33 -41 62 0
-30 -33 41 62 0
-30 -33 -41 -62 0
16 32 57 91 0
16 32 -57 -91 0
16 -32 57 -91 0
16 -32 -57 91 0
-16 32 57 -91 0
-16 32 -57 91 0
-16 -32 57 91 0
-16 -32 -57 -91 0
18 40 65 68 0
18 40 -65 -68 0
18 -40 65 -68 0
18 -40 -65 68 0
-18 40 65 -68 0
-18 40 -65 68 0
-18 -40 65 68 0
-18 -40 -65 -68 0
37 75 84 -90 0
37 75 -84 90 0
37 -75 84 90 0
37 -75 -84 -90 0
-37 75 84 90 0
-37 75 -84 -90 0
-37 -75 84 -90 0
-37 -75 -84 90 0
21 39 49 -74 0
21 39 -49 74 0
21 -39 49 74 0
21 -39 -49 -74 0
-21 39 49 74 0
-21 39 -49 -74 0
-21 -39 49 -74 0
-21 -39 -49 74 0
4 23 77 -96 0
4 23 -77 96 0
4 -23 77 96 0
4 -23 -77 -96 0
-4 23 77 96 0
-4 23 -77 -96 0
-4 -23 77 -96 0
-4 -23 -77 96 0
4 20 42 -65 0
4 20 -42 65 0
4 -20 42 65 0
4 -20 -42 -65 0
-4 20 42 65 0
-4 20 -42 -65 0
-4 -20 42 -65 0
-4 -20 -42 65 0
45 58 64 89 0
45 58 -64 -89 0
45 -58 64 -89 0
45 -58 -64 89 0
-45 58 64 -89 0
-45 58 -64 89 0
-45 -58 64 89 0
-45 -58 -64 -89 0
12 40 58 -83 0
12 40 -58 83 0
12 -40 58 83 0
12 -40 -58 -83 0
-12 40 58 83 0
-12 40 -58 -83 0
-12 -40 58 -83 0
-12 -40 -58 83 0
16 73 86 90 0
16 73 -86 -90 0
16 -73 86 -90 0
16 -73 -86 90 0
-16 73 86 -90 0
-16 73 -86 90 0
-16 -73 86 90 0
-16 -73 -86 -90 0
2 6 22 30 0
2 6 -22 -30 0
2 -6 22 -30 0
2 -6 -22 30 0
-2 6 22 -30 0
-2 6 -22 30 0
-2 -6 22 30 0
-2 -6 -22 -30 0
37 48 73 -90 0
37 48 -73 90 0
37 -48 73 90 0
37 -48 -73 -90 0
-37 48 73 90 0
-37 48 -73 -90 0
-37 -48 73 -90 0
-37 -48 -73 90 0
15 43 73 92 0
15 43 -73 -92 0
15 -43 73 -92 0
15 -43 -73 92 0
-15 43 73 -92 0
-15 43 -73 92 0
-15 -43 73 92 0
-15 -43 -73 -92 0
1 38 45 94 0
1 38 -45 -94 0
1 -38 45 -94 0
1 -38 -45 94 0
-1 38 45 -94 0
-1 38 -45 94 0
-1 -38 45 94 0
-1 -38 -45 -94 0
40 46 50 -64 0
40 46 -50 64 0
40 -46 50 64 0
40 -46 -50 -64 0
-40 46 50 64 0
-40 46 -50 -64 0
-40 -46 50 -64 0
-40 -46 -50 64 0
6 10 33 87 0
6 10 -33 -87 0
6 -10 33 -87 0
6 -10 -33 87 0
-6 10 33 -87 0
-6 10 -33 87 0
-6 -10 33 87 0
-6 -10 -33 -87 0
10 12 32 -41 0
10 12 -32 41 0
10 -12 32 41 0
10 -12 -32 -41 0
-10 12 32 41 0
-10 12 -32 -41 0
-10 -12 32 -41 0
-10 -12 -32 41 0
10 16 40 -52 0
10 16 -40 52 0
10 -16 40 52 0
10 -16 -40 -52 0
-10 16 40 52 0
-10 16 -40 -52 0
-10 -16 40 -52 0
-10 -16 -40 52 0
19 39 44 -87 0
19 39 -44 87 0
19 -39 44 87 0
19 -39 -44 -87 0
-19 39 44 87 0
-19 39 -44 -87 0
-19 -39 44 -87 0
-19 -39 -44 87 0
31 36 44 -72 0
31 36 -44 72 0
31 -36 44 72 0
31 -36 -44 -72 0
-31 36 44 72 0
-31 36 -44 -72 0
-31 -36 44 -72 0
-31 -36 -44 72 0
2 41 81 -83 0
2 41 -81 83 0
2 -41 81 83 0
2 -41 -81 -83 0
-2 41 81 83 0
-2 41 -81 -83 0
-2 -41 81 -83 0
-2 -41 -81 83 0
19 63 74 -92 0
19 63 -74 92 0
19 -63 74 92 0
19 -63 -74 -92 0
-19 63 74 92 0
-19 63 -74 -92 0
-19 -63 74 -92 0
-19 -63 -74 92 0
4 43 48 80 0
4 43 -48 -80 0
4 -43 48 -80 0
4 -43 -48 80 0
-4 43 48 -80 0
-4 43 -48 80 0
-4 -43 48 80 0
-4 -43 -48 -80 0
8 17 21 -71 0
8 17 -21 71 0
8 -17 21 71 0
8 -17 -21 -71 0
-8 17 21 71 0
-8 17 -21 -71 0
-8 -17 21 -71 0
-8 -17 -21 71 0
10 35 45 -54 0
10 35 -45 54 0
10 -35 45 54 0
10 -35 -45 -54 0
-10 35 45 54 0
-10 35 -45 -54 0
-10 -35 45 -54 0
-10 -35 -45 54 0
3 59 69 -77 0
3 59 -69 77 0
3 -59 69 77 0
3 -59 -69 -77 0
-3 59 69 77 0
-3 59 -69 -77 0
-3 -59 69 -77 0
-3 -59 -69 77 0
14 24 94 96 0
14 24 -94 -96 0
14 -24 94 -96 0
14 -24 -94 96 0
-14 24 94 -96 0
-14 24 -94 96 0
-14 -24 94 96 0
-14 -24 -94 -96 0
45 70 78 -90 0
45 70 -78 90 0
45 -70 78 90 0
45 -70 -78 -90 0
-45 70 78 90 0
-45 70 -78 -90 0
-45 -70 78 -90 0
-45 -70 -78 90 0
24 37 55 58 0
24 37 -55 -58 0
24 -37 55 -58 0
24 -37 -55 58 0
-24 37 55 -58 0
-24 37 -55 58 0
-24 -37 55 58 0
-24 -37 -55 -58 0
25 47 48 -85 0
25 47 -48 85 0
25 -47 48 85 0
25 -47 -48 -85 0
-25 47 48 85 0
-25 47 -48 -85 0
-25 -47 48 -85 0
-25 -47 -48 85 0
3 17 23 74 0
3 17 -23 -74 0
3 -17 23 -74 0
3 -17 -23 74 0
-3 17 23 -74 0
-3 17 -23 74 0
-3 -17 23 74 0
-3 -17 -23 -74 0
33 55 70 78 0
33 55 -70 -78 0
33 -55 70 -78 0
33 -55 -70 78 0
-33 55 70 -78 0
-33 55 -70 78 0
-33 -55 70 78 0
-33 -55 -70 -78 0
37 38 52 -70 0
37 38 -52 70 0
37 -38 52 70 0
37 -38 -52 -70 0
-37 38 52 70 0
-37 38 -52 -70 0
-37 -38 52 -70 0
-37 -38 -52 70 0
13 68 90 -95 0
13 68 -90 95 0
13 -68 90 95 0
13 -68 -90 -95 0
-13 68 90 95 0
-13 68 -90 -95 0
-13 -68 90 -95 0
-13 -68 -90 95 0
16 47 55 -76 0
16 47 -55 76 0
16 -47 55 76 0
16 -47 -55 -76 0
-16 47 55 76 0
-16 47 -55 -76 0
-16 -47 55 -76 0
-16 -47 -55 76 0
12 18 43 44 0
12 18 -43 -44 0
12 -18 43 -44 0
12 -18 -43 44 0
-12 18 43 -44 0
-12 18 -43 44 0
-12 -18 43 44 0
-12 -18 -43 -44 0
19 30 38 66 0
19 30 -38 -66 0
19 -30 38 -66 0
19 -30 -38 66 0
-19 30 38 -66 0
-19 30 -38 66 0
-19 -30 38 66 0
-19 -30 -38 -66 0
40 54 78 -79 0
40 54 -78 79 0
40 -54 78 79 0
40 -54 -78 -79 0
-40 54 78 79 0
-40 54 -78 -79 0
-40 -54 78 -79 0
-40 -54 -78 79 0
14 31 50 -86 0
14 31 -50 86 0
14 -31 50 86 0
14 -31 -50 -86 0
-14 31 50 86 0
-14 31 -50 -86 0
-14 -31 50 -86 0
-14 -31 -50 86 0
17 27 67 93 0
17 27 -67 -93 0
17 -27 67 -93 0
17 -27 -67 93 0
-17 27 67 -93 0
-17 27 -67 93 0
-17 -27 67 93 0
-17 -27 -67 -93 0
2 27 58 68 0
2 27 -58 -68 0
2 -27 58 -68 0
2 -27 -58 68 0
-2 27 58 -68 0
-2 27 -58 68 0
-2 -27 58 68 0
-2 -27 -58 -68 0
40 52 73 94 0
40 52 -73 -94 0
40 -52 73 -94 0
40 -52 -73 94 0
-40 52 73 -94 0
-40 52 -73 94 0
-40 -52 73 94 0
-40 -52 -73 -94 0
6 30 38 -46 0
6 30 -38 46 0
6 -30 38 46 0
6 -30 -38 -46 0
-6 30 38 46 0
-6 30 -38 -46 0
-6 -30 38 -46 0
-6 -30 -38 46 0
5 68 76 -91 0
5 68 -76 91 0
5 -68 76 91 0
5 -68 -76 -91 0
-5 68 76 91 0
-5 68 -76 -91 0
-5 -68 76 -91 0
-5 -68 -76 91 0
13 19 50 80 0
13 19 -50 -80 0
13 -19 50 -80 0
13 -19 -50 80 0
-13 19 50 -80 0
-13 19 -50 80 0
-13 -19 50 80 0
-13 -19 -50 -80 0
21 25 49 50 0
21 25 -49 -50 0
21 -25 49 -50 0
21 -25 -49 50 0
-21 25 49 -50 0
-21 25 -49 50 0
-21 -25 49 50 0
-21 -25 -49 -50 0
35 43 77 80 0
35 43 -77 -80 0
35 -43 77 -80 0
35 -43 -77 80 0
-35 43 77 -80 0
-35 43 -77 80 0
-35 -43 77 80 0
-35 -43 -77 -80 0
27 48 66 -68 0
27 48 -66 68 0
27 -48 66 68 0
27 -48 -66 -68 0
-27 48 66 68 0
-27 48 -66 -68 0
-27 -48 66 -68 0
-27 -48 -66 68 0
18 37 39 49 0
18 37 -39 -49 0
18 -37 39 -49 0
18 -37 -39 49 0
-18 37 39 -49 0
-18 37 -39 49 0
-18 -37 39 49 0
-18 -37 -39 -49 0
68 74 75 -79 0
68 74 -75 79 0
68 -74 75 79 0
68 -74 -75 -79 0
-68 74 75 79 0
-68 74 -75 -79 0
-68 -74 75 -79 0
-68 -74 -75 79 0
5 34 44 -69 0
5 34 -44 69 0
5 -34 44 69 0
5 -34 -44 -69 0
-5 34 44 69 0
-5 34 -44 -69 0
-5 -34 44 -69 0
-5 -34 -44 69 0
20 25 70 91 0
20 25 -70 -91 0
20 -25 70 -91 0
20 -25 -70 91 0
-20 25 70 -91 0
-20 25 -70 91 0
-20 -25 70 91 0
-20 -25 -70 -91 0
10 48 49 -84 0
10 48 -49 84 0
10 -48 49 84 0
10 -48 -49 -84 0
-10 48 49 84 0
-10 48 -49 -84 0
-10 -48 49 -84 0
-10 -48 -49 84 0
60 69 70 -74 0
60 69 -70 74 0
60 -69 70 74 0
60 -69 -70 -74 0
-60 69 70 74 0
-60 69 -70 -74 0
-60 -69 70 -74 0
-60 -69 -70 74 0
1 36 54 -66 0
1 36 -54 66 0
1 -36 54 66 0
1 -36 -54 -66 0
-1 36 54 66 0
-1 36 -54 -66 0
-1 -36 54 -66 0
-1 -36 -54 66 0
2 9 25 -48 0
2 9 -25 48 0
2 -9 25 48 0
2 -9 -25 -48 0
-2 9 25 48 0
-2 9 -25 -48 0
-2 -9 25 -48 0
-2 -9 -25 48 0
31 66 88 -95 0
31 66 -88 95 0
31 -66 88 95 0
31 -66 -88 -95 0
-31 66 88 95 0
-31 66 -88 -95 0
-31 -66 88 -95 0
-31 -66 -88 95 0
5 16 32 40 0
5 16 -32 -40 0
5 -16 32 -40 0
5 -16 -32 40 0
-5 16 32 -40 0
-5 16 -32 40 0
-5 -16 32 40 0
-5 -16 -32 -40 0
21 29 42 43 0
21 29 -42 -43 0
21 -29 42 -43 0
21 -29 -42 43 0
-21 29 42 -43 0
-21 29 -42 43 0
-21 -29 42 43 0
-21 -29 -42 -43 0
23 37 50 -57 0
23 37 -50 57 0
23 -37 50 57 0
23 -37 -50 -57 0
-23 37 50 57 0
-23 37 -50 -57 0
-23 -37 50 -57 0
-23 -37 -50 57 0
1 6 29 -36 0
1 6 -29 36 0
1 -6 29 36 0
1 -6 -29 -36 0
-1 6 29 36 0
-1 6 -29 -36 0
-1 -6 29 -36 0
-1 -6 -29 36 0
30 35 38 -45 0
30 35 -38 45 0
30 -35 38 45 0
30 -35 -38 -45 0
-30 35 38 45 0
-30 35 -38 -45 0
-30 -35 38 -45 0
-30 -35 -38 45 0
6 21 72 -90 0
6 21 -72 90 0
6 -21 72 90 0
6 -21 -72 -90 0
-6 21 72 90 0
-6 21 -72 -90 0
-6 -21 72 -90 0
-6 -21 -72 90 0
9 72 76 79 0
9 72 -76 -79 0
9 -72 76 -79 0
9 -72 -76 79 0
-9 72 76 -79 0
-9 72 -76 79 0
-9 -72 76 79 0
-9 -72 -76 -79 0
30 46 56 -61 0
30 46 -56 61 0
30 -46 56 61 0
30 -46 -56 -61 0
-30 46 56 61 0
-30 46 -56 -61 0
-30 -46 56 -61 0
-30 -46 -56 61 0
41 81 82 -95 0
41 81 -82 95 0
41 -81 82 95 0
41 -81 -82 -95 0
-41 81 82 95 0
-41 81 -82 -95 0
-41 -81 82 -95 0
-41 -81 -82 95 0
3 30 41 77 0
3 30 -41 -77 0
3 -30 41 -77 0
3 -30 -41 77 0
-3 30 41 -77 0
-3 30 -41 77 0
-3 -30 41 77 0
-3 -30 -41 -77 0
7 27 42 -90 0
7 27 -42 90 0
7 -27 42 90 0
7 -27 -42 -90 0
-7 27 42 90 0
-7 27 -42 -90 0
-7 -27 42 -90 0
-7 -27 -42 90 0
16 52 63 94 0
16 52 -63 -94 0
16 -52 63 -94 0
16 -52 -63 94 0
-16 52 63 -94 0
-16 52 -63 94 0
-16 -52 63 94 0
-16 -52 -63 -94 0
3 23 46 -92 0
3 23 -46 92 0
3 -23 46 92 0
3 -23 -46 -92 0
-3 23 46 92 0
-3 23 -46 -92 0
-3 -23 46 -92 0
-3 -23 -46 92 0
26 51 57 -95 0
26 51 -57 95 0
26 -51 57 95 0
26 -51 -57 -95 0
-26 51 57 95 0
-26 51 -57 -95 0
-26 -51 57 -95 0
-26 -51 -57 95 0
18 36 51 53 0
18 36 -51 -53 0
18 -36 51 -53 0
18 -36 -51 53 0
-18 36 51 -53 0
-18 36 -51 53 0
-18 -36 51 53 0
-18 -36 -51 -53 0
36 48 52 -85 0
36 48 -52 85 0
36 -48 52 85 0
36 -48 -52 -85 0
-36 48 52 85 0
-36 48 -52 -85 0
-36 -48 52 -85 0
-36 -48 -52 85 0
3 65 92 -96 0
3 65 -92 96 0
3 -65 92 96 0
3 -65 -92 -96 0
-3 65 92 96 0
-3 65 -92 -96 0
-3 -65 92 -96 0
-3 -65 -92 96 0
3 16 50 -55 0
3 16 -50 55 0
3 -16 50 55 0
3 -16 -50 -55 0
-3 16 50 55 0
-3 16 -50 -55 0
-3 -16 50 -55 0
-3 -16 -50 55 0
51 58 62 -95 0
51 58 -62 95 0
51 -58 62 95 0
51 -58 -62 -95 0
-51 58 62 95 0
-51 58 -62 -95 0
-51 -58 62 -95 0
-51 -58 -62 95 0
10 26 33 -69 0
10 26 -33 69 0
10 -26 33 69 0
10 -26 -33 -69 0
-10 26 33 69 0
-10 26 -33 -69 0
-10 -26 33 -69 0
-10 -26 -33 69 0
36 60 69 -79 0
36 60 -69 79 0
36 -60 69 79 0
36 -60 -69 -79 0
-36 60 69 79 0
-36 60 -69 -79 0
-36 -60 69 -79 0
-36 -60 -69 79 0
29 39 59 81 0
29 39 -59 -81 0
29 -39 59 -81 0
29 -39 -59 81 0
-29 39 59 -81 0
-29 39 -59 81 0
-29 -39 59 81 0
-29 -39 -59 -81 0
16 46 55 -88 0
16 46 -55 88 0
16 -46 55 88 0
16 -46 -55 -88 0
-16 46 55 88 0
-16 46 -55 -88 0
-16 -46 55 -88 0
-16 -46 -55 88 0
2 16 29 -50 0
2 16 -29 50 0
2 -16 29 50 0
2 -16 -29 -50 0
-2 16 29 50 0
-2 16 -29 -50 0
-2 -16 29 -50 0
-2 -16 -29 50 0
