c description: Random 3-CNF over 200 variables and 860 clauses
c generator: CNFgen (0.9.5)
c copyright: (C) 2012-2026 Massimo Lauria <massimo.lauria@uniroma1.it>
c url: https://massimolauria.net/cnfgen
c random seed: 31051
c command line: cnfgen -S 31051 -o cnfgen_regression_pack/cnfgen_cases/planted_rand3cnf_v200_m860_s3_sat.cnf randkcnf -p 3 200 860
c
c known_status: SAT
c pack_family: planted_randkcnf
c pack_level: stress
c pack_notes: CNFgen planted random k-CNF
p cnf 200 860
-7 55 -93 0
44 75 -108 0
8 -64 -84 0
64 -99 200 0
-12 -44 -72 0
146 -173 -185 0
-66 -145 -168 0
18 -31 92 0
-26 -108 159 0
8 -79 -196 0
-27 -70 163 0
38 -88 -100 0
30 -72 -133 0
-1 -8 -150 0
-50 -130 -156 0
-32 -69 72 0
43 -102 -126 0
19 45 124 0
-25 137 170 0
44 142 -186 0
-21 -133 -140 0
3 147 178 0
7 52 -86 0
-14 -143 182 0
-51 -58 126 0
92 -193 199 0
15 48 180 0
94 -105 128 0
-60 -76 -96 0
32 107 134 0
-107 -119 -191 0
-5 -9 -102 0
-31 122 136 0
79 -115 -176 0
79 -179 194 0
7 -139 -191 0
2 -49 -118 0
7 10 193 0
63 -192 -193 0
-11 21 106 0
-61 100 106 0
7 -29 -100 0
-40 -123 -161 0
48 -109 113 0
-6 -47 181 0
139 172 -185 0
37 107 172 0
53 114 184 0
117 -173 -196 0
-70 74 111 0
138 153 171 0
-29 -107 -118 0
4 -8 -13 0
46 -154 -195 0
-85 92 -175 0
48 116 -166 0
-66 124 176 0
-35 -99 184 0
30 -134 -150 0
-55 179 181 0
161 165 -171 0
-5 -134 140 0
-43 -122 -184 0
80 -146 169 0
-49 -59 -72 0
-66 -128 -169 0
132 -153 171 0
-30 188 199 0
-30 93 -112 0
-39 -46 51 0
5 146 -170 0
29 46 183 0
-26 66 97 0
51 -134 155 0
-14 -144 182 0
112 149 -198 0
-75 149 150 0
36 106 172 0
-45 117 197 0
106 -134 160 0
-121 -135 -147 0
-51 -86 -96 0
21 -75 -93 0
59 80 -185 0
-37 177 185 0
86 135 -158 0
17 -44 144 0
-29 103 -131 0
-39 -148 -196 0
98 -127 185 0
14 34 -177 0
7 148 180 0
-2 31 68 0
-157 -171 176 0
-21 -83 -96 0
10 88 145 0
43 -74 -150 0
30 121 124 0
-12 -65 105 0
-5 -21 109 0
-37 -70 -198 0
2 8 11 0
1 46 82 0
-35 -38 138 0
37 -183 -193 0
-16 -43 -70 0
-1 -97 -140 0
-137 142 -190 0
41 -90 154 0
33 -96 -113 0
-53 80 82 0
-37 -149 187 0
45 -47 -61 0
79 -114 178 0
98 -127 -136 0
88 115 191 0
19 -32 -189 0
57 -58 -122 0
-57 -102 -175 0
65 132 186 0
100 163 185 0
-82 119 157 0
58 -131 133 0
-60 63 -73 0
39 84 123 0
-61 68 -111 0
9 130 132 0
-95 -103 -198 0
16 70 -199 0
13 -66 138 0
-26 -136 143 0
8 23 47 0
24 -44 -95 0
-42 177 192 0
87 -173 182 0
35 92 168 0
-67 -92 185 0
84 115 161 0
-80 -113 148 0
25 106 157 0
106 -146 -149 0
-20 -92 -112 0
-32 -55 115 0
18 -67 -175 0
-7 -23 -152 0
37 -51 161 0
35 -94 -193 0
-66 -144 -174 0
8 52 -170 0
-89 -135 -173 0
-61 -99 115 0
59 105 162 0
-122 -159 -199 0
-10 -86 149 0
28 -93 -160 0
69 86 105 0
-13 -57 94 0
75 -77 172 0
141 147 -197 0
90 158 -200 0
-69 95 -183 0
-91 104 132 0
55 -104 147 0
-34 189 -195 0
3 -148 190 0
19 71 -172 0
71 111 -132 0
84 -144 -190 0
98 111 -166 0
-1 17 -199 0
-49 144 158 0
-12 95 132 0
-54 -87 147 0
131 -151 -184 0
21 -81 145 0
-82 -175 178 0
15 103 118 0
63 -69 -76 0
12 -45 185 0
-20 27 -121 0
42 -49 -128 0
70 -74 -166 0
63 154 168 0
-10 54 -152 0
141 -167 -171 0
-1 -72 76 0
104 120 194 0
3 121 -172 0
-68 143 -183 0
46 70 82 0
48 137 148 0
10 -113 -132 0
15 129 -142 0
-14 98 -113 0
-10 170 180 0
6 -19 30 0
-116 178 -186 0
-100 168 -178 0
-32 -53 158 0
-9 104 -121 0
145 -154 -198 0
60 123 -161 0
98 -114 -157 0
-61 -88 -183 0
-38 -91 -120 0
26 -43 -198 0
-3 -112 172 0
-64 -141 192 0
54 142 180 0
-28 -148 -175 0
-25 -131 138 0
17 136 167 0
38 -146 164 0
-50 -176 -185 0
53 61 -91 0
-131 133 -154 0
-108 160 165 0
2 -63 130 0
-22 168 195 0
-64 -70 -78 0
-25 -53 -193 0
-49 52 106 0
-28 -131 177 0
79 -108 -177 0
130 -164 -165 0
38 -39 109 0
91 -151 -171 0
-10 -55 -178 0
48 135 -149 0
135 142 -163 0
104 158 169 0
78 -101 -188 0
-45 -57 -158 0
-66 81 -176 0
-82 -118 -123 0
-15 74 104 0
-12 188 200 0
-26 -91 -162 0
37 115 -122 0
-60 70 189 0
-82 -95 -172 0
-41 -90 -171 0
-27 -110 -124 0
-53 80 -112 0
-19 -76 -124 0
4 -55 133 0
-24 138 -191 0
-28 75 125 0
49 -73 85 0
53 -68 93 0
-31 34 71 0
-16 41 132 0
42 119 121 0
-56 97 165 0
97 131 149 0
52 60 -82 0
-12 -93 155 0
15 28 -55 0
46 68 71 0
35 88 191 0
104 -123 184 0
-67 -70 105 0
47 79 125 0
-99 -148 171 0
-81 112 162 0
-1 3 144 0
1 48 169 0
-13 113 -170 0
35 39 145 0
17 66 178 0
48 59 -142 0
-59 -79 -178 0
-119 -155 187 0
109 124 -130 0
-70 135 176 0
-38 46 -131 0
-45 -125 170 0
6 -34 -145 0
-30 91 128 0
55 79 -184 0
-76 193 -197 0
-101 131 194 0
-91 -176 181 0
-89 -144 -196 0
-54 -72 -95 0
-19 106 135 0
38 106 156 0
47 -66 160 0
2 -108 -159 0
-36 87 112 0
28 -117 127 0
-47 -63 141 0
105 138 167 0
-37 -86 -122 0
-81 129 159 0
68 113 139 0
52 -67 -161 0
15 105 131 0
32 -132 186 0
68 142 183 0
30 -59 128 0
3 112 -118 0
175 177 -186 0
-104 -170 -176 0
135 173 185 0
-29 -48 -171 0
-89 157 181 0
-90 150 165 0
-36 121 -155 0
16 102 189 0
54 60 139 0
-51 -126 159 0
72 -117 182 0
-26 -107 112 0
-89 -125 169 0
-24 -61 -107 0
-42 62 106 0
72 94 -149 0
6 19 66 0
10 24 -47 0
-55 116 194 0
-91 120 199 0
-11 -62 102 0
-42 55 -104 0
71 -126 139 0
-11 -13 -181 0
-47 -186 -188 0
-2 -54 -181 0
24 -31 91 0
102 -159 176 0
120 -149 200 0
-80 -186 192 0
39 57 100 0
86 -126 -181 0
50 -80 -125 0
32 -137 195 0
42 -128 -135 0
104 157 172 0
52 87 106 0
-51 -81 177 0
79 -131 164 0
-106 -126 166 0
-5 -118 124 0
-6 -149 -198 0
80 96 189 0
63 162 -178 0
-109 143 198 0
-70 -130 184 0
-85 -97 170 0
-5 63 161 0
107 124 -193 0
13 -90 -136 0
-37 -124 -187 0
24 91 -109 0
-23 61 -175 0
7 -84 -191 0
-44 -130 -142 0
-2 41 147 0
4 65 -98 0
-8 -51 -52 0
-49 87 154 0
-13 -20 -27 0
19 -78 -184 0
5 76 -186 0
-31 -54 62 0
-27 -104 157 0
-76 -144 187 0
-82 -116 -174 0
17 -44 -47 0
42 141 155 0
42 -113 190 0
-44 -69 -90 0
37 -114 142 0
46 -74 123 0
-44 164 -197 0
-27 137 165 0
-48 -52 162 0
-90 -94 175 0
-35 -89 -128 0
-7 -34 -147 0
27 103 153 0
29 75 93 0
-14 -72 158 0
146 190 191 0
-62 -73 191 0
42 107 140 0
-6 -27 -117 0
41 51 179 0
60 -105 -155 0
-17 116 -117 0
10 -28 -119 0
-40 -133 157 0
71 -86 -88 0
136 153 167 0
70 117 193 0
99 107 155 0
133 185 -193 0
-12 -113 -120 0
60 102 113 0
-35 161 175 0
-68 135 162 0
-21 57 -122 0
-90 173 -180 0
-108 -136 199 0
-2 -118 -130 0
61 -123 184 0
-15 -49 -173 0
65 96 162 0
-25 183 198 0
-6 79 160 0
57 75 -198 0
26 92 108 0
-78 171 -193 0
-93 144 -145 0
-40 63 100 0
136 -159 -185 0
-80 -81 111 0
25 -91 -117 0
-20 85 -188 0
-51 -56 -187 0
13 -182 -183 0
96 130 -180 0
37 -113 -191 0
65 -84 165 0
20 76 189 0
2 -29 -162 0
22 39 190 0
-36 68 -141 0
-7 -61 169 0
-1 33 195 0
-13 15 -197 0
-30 -111 163 0
13 -89 152 0
18 152 -189 0
-73 75 161 0
-13 -50 -123 0
-37 132 181 0
38 161 164 0
-68 79 187 0
-12 17 -100 0
102 162 -186 0
-68 -128 -155 0
-73 -104 105 0
127 -186 -197 0
1 119 188 0
5 7 135 0
85 119 139 0
-145 155 -156 0
39 117 199 0
10 -11 -95 0
-57 -196 -200 0
-8 -14 82 0
12 63 104 0
76 -100 -162 0
-4 -18 -170 0
-12 84 -157 0
-61 -95 160 0
-86 -123 -125 0
-6 24 130 0
-38 55 -149 0
-1 -16 -92 0
-20 51 188 0
-133 148 -152 0
-31 -60 -82 0
-13 115 166 0
90 167 -196 0
-7 87 139 0
22 -124 -162 0
-21 40 42 0
16 40 -162 0
4 -73 -138 0
52 77 158 0
25 46 110 0
-81 90 -119 0
-74 117 119 0
-87 -97 200 0
-70 -136 -158 0
97 -102 -193 0
-30 -43 -50 0
12 -125 196 0
-63 -135 -137 0
10 20 -100 0
62 -78 165 0
-4 46 -145 0
21 -101 182 0
36 87 -137 0
29 143 180 0
-101 115 -149 0
-27 -76 -200 0
82 180 -195 0
98 115 176 0
-7 10 19 0
-61 91 140 0
-12 -103 -106 0
-42 -147 -186 0
-64 99 193 0
118 -157 165 0
54 -181 182 0
118 -168 -169 0
14 183 184 0
-38 71 188 0
-13 -54 -77 0
21 89 -160 0
91 -128 200 0
-10 85 -193 0
37 -91 163 0
20 46 -129 0
-80 145 -166 0
-8 -35 158 0
-102 -181 -197 0
43 -66 -103 0
98 -104 -191 0
-12 -26 -84 0
2 -50 -69 0
10 -154 185 0
109 133 167 0
39 103 -186 0
-46 122 -183 0
46 -115 150 0
-15 -89 -172 0
43 -81 94 0
-97 98 110 0
-97 -98 168 0
6 49 153 0
29 154 -194 0
-154 -196 197 0
-69 -113 -118 0
-52 56 69 0
-116 -157 -176 0
48 -97 -199 0
84 168 -185 0
71 -168 189 0
85 118 -140 0
23 -99 193 0
53 160 -161 0
72 -157 165 0
-41 99 -173 0
22 -33 -115 0
13 -59 -173 0
-22 -102 109 0
64 -78 150 0
94 -101 -174 0
17 64 194 0
13 -132 178 0
25 -145 177 0
6 -80 -156 0
105 -137 -141 0
-23 46 -174 0
26 -160 -165 0
134 159 -185 0
-72 152 186 0
16 -79 137 0
-30 -85 181 0
-117 177 195 0
-132 179 -193 0
46 -116 172 0
-23 125 -143 0
-68 -131 134 0
-5 -10 81 0
-84 -182 -195 0
-134 -151 180 0
3 35 155 0
69 -96 -130 0
71 130 -173 0
-33 -108 -114 0
-27 30 101 0
38 -102 -137 0
-74 -103 -114 0
59 -131 184 0
-13 36 155 0
-92 149 190 0
-1 -101 -120 0
8 104 -112 0
-34 64 135 0
67 70 -105 0
-56 132 -160 0
33 73 -82 0
-21 25 98 0
8 33 -170 0
51 -136 192 0
-9 49 137 0
-13 -30 -164 0
92 101 141 0
100 167 -179 0
37 171 -193 0
-40 -179 183 0
-22 -82 -190 0
-29 -121 -196 0
-150 168 -195 0
-34 62 82 0
12 55 -102 0
-8 74 -97 0
73 -81 -116 0
30 -108 -145 0
13 -14 200 0
-28 149 179 0
-129 -161 -197 0
-21 88 -95 0
30 -135 187 0
116 127 145 0
-57 -141 188 0
-7 -111 137 0
-62 106 -148 0
27 -160 -186 0
-95 -146 -149 0
-72 -74 195 0
-3 43 57 0
-37 163 191 0
35 126 199 0
49 -74 -145 0
9 67 82 0
-54 91 167 0
99 198 200 0
-38 96 -114 0
-9 -54 -138 0
-126 -127 -157 0
-54 -109 -116 0
54 -83 195 0
-92 -125 -160 0
48 83 128 0
2 28 138 0
-37 -150 199 0
-19 -52 174 0
47 -86 160 0
71 -72 -134 0
-155 -176 -197 0
-3 158 -169 0
116 -135 182 0
-47 63 139 0
6 -137 -188 0
-18 99 -124 0
-26 97 158 0
-74 -141 -187 0
-25 80 93 0
-39 42 -89 0
-176 -188 -195 0
77 122 182 0
134 148 -176 0
46 94 -116 0
-80 148 -159 0
-12 -157 -179 0
-5 -145 -193 0
117 193 -194 0
96 164 174 0
23 97 98 0
20 46 -116 0
46 -50 -146 0
72 -116 -145 0
-40 -54 -55 0
140 149 165 0
11 -26 -168 0
-54 140 179 0
-26 -44 -74 0
-5 -114 188 0
-11 -50 135 0
7 -50 -111 0
-105 150 -169 0
17 -72 100 0
-68 -129 165 0
-14 -119 151 0
11 67 118 0
15 -163 195 0
-104 173 -200 0
40 155 -170 0
-3 16 -140 0
-11 150 -175 0
-27 126 152 0
-69 -109 -198 0
5 -66 -113 0
43 -83 156 0
20 119 179 0
-26 121 159 0
-83 -180 182 0
-65 118 -182 0
-90 -131 -193 0
71 -84 -141 0
29 -68 101 0
87 91 167 0
11 20 -42 0
59 70 136 0
21 23 -93 0
-62 -79 132 0
-27 -58 -76 0
-62 72 195 0
68 -78 -143 0
-53 172 177 0
51 -83 -136 0
-33 105 -152 0
-111 -160 -173 0
91 -93 -107 0
32 -48 88 0
-5 -122 -159 0
-155 -165 -175 0
128 -158 176 0
20 36 -102 0
56 81 142 0
8 -81 198 0
72 115 -120 0
30 -135 -174 0
-31 -60 166 0
-95 116 189 0
-63 64 -70 0
46 124 -197 0
-95 114 187 0
-87 96 -103 0
109 163 165 0
109 164 187 0
-56 149 173 0
22 -74 -120 0
-57 149 -192 0
41 110 -147 0
-40 115 -177 0
8 63 -177 0
49 115 -189 0
79 117 156 0
-78 83 153 0
22 90 142 0
-51 -166 199 0
125 166 174 0
-111 147 -159 0
30 -126 -139 0
15 -60 -124 0
-19 63 -178 0
13 29 82 0
109 -156 178 0
-76 -85 179 0
-21 53 105 0
53 -111 155 0
67 99 184 0
-15 -161 -196 0
83 -89 105 0
-48 86 -183 0
-3 55 82 0
138 146 -159 0
-38 -41 -183 0
46 71 -123 0
134 140 149 0
13 43 156 0
-5 30 -77 0
39 52 -129 0
-39 138 -177 0
-74 96 163 0
-30 187 188 0
84 -101 177 0
67 -133 -191 0
2 -38 164 0
30 -48 191 0
6 -117 182 0
104 127 -140 0
44 -79 -117 0
-19 -90 -105 0
-131 -183 196 0
27 87 -91 0
29 -92 -95 0
-21 -94 166 0
32 -47 -97 0
-41 -81 -136 0
37 148 -170 0
11 43 71 0
48 64 -106 0
-31 -102 116 0
43 44 -117 0
-54 141 160 0
-7 49 146 0
66 -116 -121 0
-93 121 -149 0
-22 71 91 0
38 -69 -119 0
31 -86 -151 0
32 -37 118 0
-22 -105 198 0
-92 106 -161 0
41 80 -116 0
29 97 200 0
-25 -99 127 0
-10 -137 176 0
-42 -155 -184 0
100 -129 167 0
38 186 196 0
-56 -78 94 0
98 -114 -128 0
-71 -131 200 0
-155 -196 200 0
1 -18 -161 0
-64 -142 -178 0
-97 -182 190 0
-9 -34 151 0
23 -57 104 0
-40 113 -120 0
30 70 -196 0
29 91 167 0
-33 -126 -160 0
-127 148 -159 0
-4 22 153 0
34 -106 152 0
-127 170 -190 0
-27 -126 158 0
64 -65 164 0
15 -174 -197 0
22 -74 -197 0
-63 -156 -158 0
7 10 28 0
51 -67 198 0
23 -113 189 0
22 50 -92 0
70 102 165 0
4 95 -166 0
58 149 -160 0
7 -51 -178 0
17 -107 -138 0
-6 -21 -146 0
65 -73 173 0
60 -95 -118 0
56 -87 -152 0
-107 -169 196 0
-36 37 57 0
15 -113 157 0
-14 96 -136 0
-6 42 -43 0
17 -153 -163 0
-7 -45 156 0
-5 -16 -63 0
125 188 195 0
30 -58 66 0
-42 -102 105 0
-120 122 -143 0
-38 90 129 0
-67 -108 129 0
48 59 127 0
24 -66 -140 0
23 48 158 0
10 102 -128 0
-179 -187 192 0
-71 -117 161 0
-34 39 -183 0
-43 -60 87 0
-3 20 146 0
91 -92 145 0
18 -76 -98 0
-7 -118 124 0
1 76 98 0
19 -26 184 0
116 123 -191 0
-61 79 178 0
-110 141 182 0
-54 138 190 0
-52 175 189 0
-27 -78 83 0
-46 98 197 0
-83 99 -189 0
21 -64 -130 0
36 -94 154 0
-32 -54 -159 0
59 -111 -197 0
17 75 121 0
45 -64 96 0
54 -97 170 0
-170 -171 189 0
18 90 119 0
-16 87 -178 0
