c description: Random 2-CNF over 180 variables and 360 clauses
c generator: CNFgen (0.9.5)
c copyright: (C) 2012-2026 Massimo Lauria <massimo.lauria@uniroma1.it>
c url: https://massimolauria.net/cnfgen
c random seed: 31019
c command line: cnfgen -S 31019 -o cnfgen_regression_pack/cnfgen_cases/planted_rand2cnf_v180_m360_s1_sat.cnf randkcnf -p 2 180 360
c
c known_status: SAT
c pack_family: planted_randkcnf
c pack_level: moderate
c pack_notes: CNFgen planted random k-CNF
p cnf 180 360
22 -126 0
55 -76 0
115 -168 0
33 -126 0
40 -78 0
-67 124 0
117 121 0
-45 -50 0
99 -124 0
-10 -103 0
66 -73 0
3 55 0
-78 170 0
-4 -47 0
-55 68 0
7 -74 0
-50 129 0
118 -142 0
-42 -76 0
93 -151 0
-38 84 0
-81 125 0
-41 -114 0
109 -114 0
22 147 0
-73 158 0
-100 120 0
-31 90 0
8 18 0
164 178 0
-35 -70 0
-31 -103 0
-52 -110 0
-52 -116 0
-59 169 0
-55 -90 0
51 -53 0
19 -69 0
44 -97 0
52 179 0
68 -134 0
-29 -35 0
-38 106 0
71 -161 0
-80 104 0
1 -31 0
-44 -148 0
-81 166 0
7 170 0
24 149 0
95 177 0
-49 -86 0
145 147 0
-124 -152 0
-36 146 0
-167 168 0
49 115 0
-23 139 0
33 119 0
54 131 0
-109 120 0
4 16 0
16 -153 0
50 111 0
121 -127 0
-24 -116 0
66 166 0
-41 -63 0
59 -107 0
99 -127 0
-33 -59 0
17 -25 0
-27 -41 0
71 -149 0
-1 114 0
28 156 0
-3 -137 0
12 24 0
-61 -180 0
36 -143 0
64 177 0
-6 42 0
-105 160 0
-63 71 0
-39 45 0
5 97 0
-27 -55 0
-43 -169 0
-100 177 0
67 130 0
-25 -154 0
-83 123 0
124 136 0
40 -68 0
-107 -128 0
-77 115 0
-1 -29 0
-23 94 0
105 -122 0
-132 -149 0
-107 -113 0
-138 -153 0
33 -88 0
17 -102 0
16 162 0
-9 136 0
-77 -150 0
24 -124 0
29 -100 0
32 67 0
59 -137 0
-9 63 0
130 174 0
8 130 0
-6 -31 0
-35 -168 0
120 174 0
-30 -171 0
36 117 0
-73 141 0
68 76 0
104 -141 0
-87 -116 0
104 167 0
-2 78 0
-11 46 0
-4 -45 0
-49 146 0
32 -110 0
-94 -105 0
-98 -129 0
54 -82 0
63 119 0
7 111 0
-39 97 0
-101 -139 0
8 155 0
-53 107 0
-1 -98 0
-92 -102 0
48 108 0
-51 -69 0
-68 -76 0
87 102 0
-94 -159 0
-38 -93 0
-93 129 0
33 142 0
-101 -173 0
-18 -157 0
-4 154 0
-71 75 0
121 163 0
-52 -85 0
6 107 0
-41 120 0
86 173 0
59 87 0
132 -134 0
106 -132 0
98 -122 0
-107 135 0
68 89 0
59 -163 0
-86 160 0
121 -133 0
-122 -135 0
-84 -92 0
-107 109 0
-69 -167 0
8 176 0
-95 -128 0
9 -157 0
-16 -91 0
3 20 0
-35 81 0
-159 164 0
-1 -35 0
-42 160 0
115 -148 0
27 91 0
43 104 0
4 -108 0
87 144 0
40 102 0
168 169 0
-31 -111 0
80 -134 0
54 -170 0
-70 85 0
24 138 0
62 -101 0
-30 171 0
10 73 0
-7 -68 0
-26 -70 0
65 -176 0
-60 109 0
-3 26 0
-78 129 0
-76 149 0
-100 125 0
-109 -137 0
61 -155 0
-27 62 0
-24 93 0
-118 130 0
-4 178 0
56 59 0
12 63 0
31 68 0
-38 76 0
26 -90 0
-63 155 0
-58 174 0
-2 127 0
99 171 0
8 -70 0
96 -178 0
-52 96 0
-107 157 0
32 -91 0
-154 -179 0
-40 58 0
-77 -169 0
52 134 0
-105 166 0
-7 -39 0
18 27 0
-20 156 0
-101 127 0
146 175 0
-153 -156 0
-19 140 0
69 -126 0
59 -122 0
27 -38 0
9 27 0
-86 -144 0
-75 -81 0
-7 66 0
3 -23 0
137 159 0
-70 -85 0
34 -135 0
54 -155 0
124 -162 0
9 20 0
61 -72 0
120 169 0
10 118 0
-147 -178 0
36 -144 0
52 -118 0
163 174 0
-103 145 0
-18 154 0
-46 -81 0
-113 -179 0
-73 -119 0
65 118 0
-83 -117 0
8 52 0
-7 123 0
48 -132 0
-132 162 0
60 62 0
51 76 0
-69 136 0
39 115 0
96 -119 0
44 154 0
31 -152 0
14 46 0
59 -116 0
5 179 0
-78 172 0
-37 -163 0
110 -125 0
-76 128 0
111 159 0
-36 149 0
50 -146 0
-1 20 0
120 -133 0
9 164 0
-84 -106 0
24 -136 0
-18 117 0
-51 -83 0
-39 146 0
-144 -172 0
20 46 0
63 -141 0
-45 -131 0
-169 -175 0
-39 -99 0
-42 93 0
-37 46 0
-39 -168 0
-81 173 0
-78 -128 0
145 -173 0
74 130 0
40 -149 0
-143 166 0
20 -126 0
34 -114 0
61 -106 0
-79 110 0
116 130 0
-122 142 0
99 129 0
108 131 0
24 72 0
-5 -123 0
-93 173 0
116 -132 0
-66 -72 0
-51 -150 0
13 -58 0
113 -161 0
22 -174 0
-57 150 0
-23 111 0
42 -176 0
-134 142 0
26 126 0
-58 172 0
-39 102 0
99 141 0
100 121 0
26 -120 0
-35 -131 0
-58 -134 0
14 172 0
-32 -106 0
-49 -117 0
16 -36 0
137 155 0
39 61 0
17 -77 0
-18 -86 0
-63 -94 0
1 -4 0
-79 -158 0
39 -74 0
-126 -169 0
-122 -176 0
159 -167 0
102 138 0
35 -36 0
-63 131 0
-15 98 0
-90 176 0
-59 105 0
-155 -176 0
58 -179 0
-120 -126 0
-118 126 0
