c description: Relativized pigeonhole principle formula for 8 pigeons, 14 resting places and 12 holes
c generator: CNFgen (0.9.5)
c copyright: (C) 2012-2026 Massimo Lauria <massimo.lauria@uniroma1.it>
c url: https://massimolauria.net/cnfgen
c random seed: 31158
c command line: cnfgen -S 31158 -o cnfgen_regression_pack/cnfgen_cases/rphp_p8_r14_h12_sat.cnf rphp 8 14 12
c
c known_status: SAT
c pack_family: relativized_pigeonhole
c pack_level: moderate
c pack_notes: relativized pigeonhole principle
p cnf 294 1618
1 2 3 4 5 6 7 8 9 10 11 12 13 14 0
15 16 17 18 19 20 21 22 23 24 25 26 27 28 0
29 30 31 32 33 34 35 36 37 38 39 40 41 42 0
43 44 45 46 47 48 49 50 51 52 53 54 55 56 0
57 58 59 60 61 62 63 64 65 66 67 68 69 70 0
71 72 73 74 75 76 77 78 79 80 81 82 83 84 0
85 86 87 88 89 90 91 92 93 94 95 96 97 98 0
99 100 101 102 103 104 105 106 107 108 109 110 111 112 0
-1 -15 0
-1 -29 0
-1 -43 0
-1 -57 0
-1 -71 0
-1 -85 0
-1 -99 0
-15 -29 0
-15 -43 0
-15 -57 0
-15 -71 0
-15 -85 0
-15 -99 0
-29 -43 0
-29 -57 0
-29 -71 0
-29 -85 0
-29 -99 0
-43 -57 0
-43 -71 0
-43 -85 0
-43 -99 0
-57 -71 0
-57 -85 0
-57 -99 0
-71 -85 0
-71 -99 0
-85 -99 0
-2 -16 0
-2 -30 0
-2 -44 0
-2 -58 0
-2 -72 0
-2 -86 0
-2 -100 0
-16 -30 0
-16 -44 0
-16 -58 0
-16 -72 0
-16 -86 0
-16 -100 0
-30 -44 0
-30 -58 0
-30 -72 0
-30 -86 0
-30 -100 0
-44 -58 0
-44 -72 0
-44 -86 0
-44 -100 0
-58 -72 0
-58 -86 0
-58 -100 0
-72 -86 0
-72 -100 0
-86 -100 0
-3 -17 0
-3 -31 0
-3 -45 0
-3 -59 0
-3 -73 0
-3 -87 0
-3 -101 0
-17 -31 0
-17 -45 0
-17 -59 0
-17 -73 0
-17 -87 0
-17 -101 0
-31 -45 0
-31 -59 0
-31 -73 0
-31 -87 0
-31 -101 0
-45 -59 0
-45 -73 0
-45 -87 0
-45 -101 0
-59 -73 0
-59 -87 0
-59 -101 0
-73 -87 0
-73 -101 0
-87 -101 0
-4 -18 0
-4 -32 0
-4 -46 0
-4 -60 0
-4 -74 0
-4 -88 0
-4 -102 0
-18 -32 0
-18 -46 0
-18 -60 0
-18 -74 0
-18 -88 0
-18 -102 0
-32 -46 0
-32 -60 0
-32 -74 0
-32 -88 0
-32 -102 0
-46 -60 0
-46 -74 0
-46 -88 0
-46 -102 0
-60 -74 0
-60 -88 0
-60 -102 0
-74 -88 0
-74 -102 0
-88 -102 0
-5 -19 0
-5 -33 0
-5 -47 0
-5 -61 0
-5 -75 0
-5 -89 0
-5 -103 0
-19 -33 0
-19 -47 0
-19 -61 0
-19 -75 0
-19 -89 0
-19 -103 0
-33 -47 0
-33 -61 0
-33 -75 0
-33 -89 0
-33 -103 0
-47 -61 0
-47 -75 0
-47 -89 0
-47 -103 0
-61 -75 0
-61 -89 0
-61 -103 0
-75 -89 0
-75 -103 0
-89 -103 0
-6 -20 0
-6 -34 0
-6 -48 0
-6 -62 0
-6 -76 0
-6 -90 0
-6 -104 0
-20 -34 0
-20 -48 0
-20 -62 0
-20 -76 0
-20 -90 0
-20 -104 0
-34 -48 0
-34 -62 0
-34 -76 0
-34 -90 0
-34 -104 0
-48 -62 0
-48 -76 0
-48 -90 0
-48 -104 0
-62 -76 0
-62 -90 0
-62 -104 0
-76 -90 0
-76 -104 0
-90 -104 0
-7 -21 0
-7 -35 0
-7 -49 0
-7 -63 0
-7 -77 0
-7 -91 0
-7 -105 0
-21 -35 0
-21 -49 0
-21 -63 0
-21 -77 0
-21 -91 0
-21 -105 0
-35 -49 0
-35 -63 0
-35 -77 0
-35 -91 0
-35 -105 0
-49 -63 0
-49 -77 0
-49 -91 0
-49 -105 0
-63 -77 0
-63 -91 0
-63 -105 0
-77 -91 0
-77 -105 0
-91 -105 0
-8 -22 0
-8 -36 0
-8 -50 0
-8 -64 0
-8 -78 0
-8 -92 0
-8 -106 0
-22 -36 0
-22 -50 0
-22 -64 0
-22 -78 0
-22 -92 0
-22 -106 0
-36 -50 0
-36 -64 0
-36 -78 0
-36 -92 0
-36 -106 0
-50 -64 0
-50 -78 0
-50 -92 0
-50 -106 0
-64 -78 0
-64 -92 0
-64 -106 0
-78 -92 0
-78 -106 0
-92 -106 0
-9 -23 0
-9 -37 0
-9 -51 0
-9 -65 0
-9 -79 0
-9 -93 0
-9 -107 0
-23 -37 0
-23 -51 0
-23 -65 0
-23 -79 0
-23 -93 0
-23 -107 0
-37 -51 0
-37 -65 0
-37 -79 0
-37 -93 0
-37 -107 0
-51 -65 0
-51 -79 0
-51 -93 0
-51 -107 0
-65 -79 0
-65 -93 0
-65 -107 0
-79 -93 0
-79 -107 0
-93 -107 0
-10 -24 0
-10 -38 0
-10 -52 0
-10 -66 0
-10 -80 0
-10 -94 0
-10 -108 0
-24 -38 0
-24 -52 0
-24 -66 0
-24 -80 0
-24 -94 0
-24 -108 0
-38 -52 0
-38 -66 0
-38 -80 0
-38 -94 0
-38 -108 0
-52 -66 0
-52 -80 0
-52 -94 0
-52 -108 0
-66 -80 0
-66 -94 0
-66 -108 0
-80 -94 0
-80 -108 0
-94 -108 0
-11 -25 0
-11 -39 0
-11 -53 0
-11 -67 0
-11 -81 0
-11 -95 0
-11 -109 0
-25 -39 0
-25 -53 0
-25 -67 0
-25 -81 0
-25 -95 0
-25 -109 0
-39 -53 0
-39 -67 0
-39 -81 0
-39 -95 0
-39 -109 0
-53 -67 0
-53 -81 0
-53 -95 0
-53 -109 0
-67 -81 0
-67 -95 0
-67 -109 0
-81 -95 0
-81 -109 0
-95 -109 0
-12 -26 0
-12 -40 0
-12 -54 0
-12 -68 0
-12 -82 0
-12 -96 0
-12 -110 0
-26 -40 0
-26 -54 0
-26 -68 0
-26 -82 0
-26 -96 0
-26 -110 0
-40 -54 0
-40 -68 0
-40 -82 0
-40 -96 0
-40 -110 0
-54 -68 0
-54 -82 0
-54 -96 0
-54 -110 0
-68 -82 0
-68 -96 0
-68 -110 0
-82 -96 0
-82 -110 0
-96 -110 0
-13 -27 0
-13 -41 0
-13 -55 0
-13 -69 0
-13 -83 0
-13 -97 0
-13 -111 0
-27 -41 0
-27 -55 0
-27 -69 0
-27 -83 0
-27 -97 0
-27 -111 0
-41 -55 0
-41 -69 0
-41 -83 0
-41 -97 0
-41 -111 0
-55 -69 0
-55 -83 0
-55 -97 0
-55 -111 0
-69 -83 0
-69 -97 0
-69 -111 0
-83 -97 0
-83 -111 0
-97 -111 0
-14 -28 0
-14 -42 0
-14 -56 0
-14 -70 0
-14 -84 0
-14 -98 0
-14 -112 0
-28 -42 0
-28 -56 0
-28 -70 0
-28 -84 0
-28 -98 0
-28 -112 0
-42 -56 0
-42 -70 0
-42 -84 0
-42 -98 0
-42 -112 0
-56 -70 0
-56 -84 0
-56 -98 0
-56 -112 0
-70 -84 0
-70 -98 0
-70 -112 0
-84 -98 0
-84 -112 0
-98 -112 0
-1 281 0
-15 281 0
-29 281 0
-43 281 0
-57 281 0
-71 281 0
-85 281 0
-99 281 0
-2 282 0
-16 282 0
-30 282 0
-44 282 0
-58 282 0
-72 282 0
-86 282 0
-100 282 0
-3 283 0
-17 283 0
-31 283 0
-45 283 0
-59 283 0
-73 283 0
-87 283 0
-101 283 0
-4 284 0
-18 284 0
-32 284 0
-46 284 0
-60 284 0
-74 284 0
-88 284 0
-102 284 0
-5 285 0
-19 285 0
-33 285 0
-47 285 0
-61 285 0
-75 285 0
-89 285 0
-103 285 0
-6 286 0
-20 286 0
-34 286 0
-48 286 0
-62 286 0
-76 286 0
-90 286 0
-104 286 0
-7 287 0
-21 287 0
-35 287 0
-49 287 0
-63 287 0
-77 287 0
-91 287 0
-105 287 0
-8 288 0
-22 288 0
-36 288 0
-50 288 0
-64 288 0
-78 288 0
-92 288 0
-106 288 0
-9 289 0
-23 289 0
-37 289 0
-51 289 0
-65 289 0
-79 289 0
-93 289 0
-107 289 0
-10 290 0
-24 290 0
-38 290 0
-52 290 0
-66 290 0
-80 290 0
-94 290 0
-108 290 0
-11 291 0
-25 291 0
-39 291 0
-53 291 0
-67 291 0
-81 291 0
-95 291 0
-109 291 0
-12 292 0
-26 292 0
-40 292 0
-54 292 0
-68 292 0
-82 292 0
-96 292 0
-110 292 0
-13 293 0
-27 293 0
-41 293 0
-55 293 0
-69 293 0
-83 293 0
-97 293 0
-111 293 0
-14 294 0
-28 294 0
-42 294 0
-56 294 0
-70 294 0
-84 294 0
-98 294 0
-112 294 0
-281 113 114 115 116 117 118 119 120 121 122 123 124 0
-282 125 126 127 128 129 130 131 132 133 134 135 136 0
-283 137 138 139 140 141 142 143 144 145 146 147 148 0
-284 149 150 151 152 153 154 155 156 157 158 159 160 0
-285 161 162 163 164 165 166 167 168 169 170 171 172 0
-286 173 174 175 176 177 178 179 180 181 182 183 184 0
-287 185 186 187 188 189 190 191 192 193 194 195 196 0
-288 197 198 199 200 201 202 203 204 205 206 207 208 0
-289 209 210 211 212 213 214 215 216 217 218 219 220 0
-290 221 222 223 224 225 226 227 228 229 230 231 232 0
-291 233 234 235 236 237 238 239 240 241 242 243 244 0
-292 245 246 247 248 249 250 251 252 253 254 255 256 0
-293 257 258 259 260 261 262 263 264 265 266 267 268 0
-294 269 270 271 272 273 274 275 276 277 278 279 280 0
-281 -282 -113 -125 0
-281 -283 -113 -137 0
-281 -284 -113 -149 0
-281 -285 -113 -161 0
-281 -286 -113 -173 0
-281 -287 -113 -185 0
-281 -288 -113 -197 0
-281 -289 -113 -209 0
-281 -290 -113 -221 0
-281 -291 -113 -233 0
-281 -292 -113 -245 0
-281 -293 -113 -257 0
-281 -294 -113 -269 0
-282 -283 -125 -137 0
-282 -284 -125 -149 0
-282 -285 -125 -161 0
-282 -286 -125 -173 0
-282 -287 -125 -185 0
-282 -288 -125 -197 0
-282 -289 -125 -209 0
-282 -290 -125 -221 0
-282 -291 -125 -233 0
-282 -292 -125 -245 0
-282 -293 -125 -257 0
-282 -294 -125 -269 0
-283 -284 -137 -149 0
-283 -285 -137 -161 0
-283 -286 -137 -173 0
-283 -287 -137 -185 0
-283 -288 -137 -197 0
-283 -289 -137 -209 0
-283 -290 -137 -221 0
-283 -291 -137 -233 0
-283 -292 -137 -245 0
-283 -293 -137 -257 0
-283 -294 -137 -269 0
-284 -285 -149 -161 0
-284 -286 -149 -173 0
-284 -287 -149 -185 0
-284 -288 -149 -197 0
-284 -289 -149 -209 0
-284 -290 -149 -221 0
-284 -291 -149 -233 0
-284 -292 -149 -245 0
-284 -293 -149 -257 0
-284 -294 -149 -269 0
-285 -286 -161 -173 0
-285 -287 -161 -185 0
-285 -288 -161 -197 0
-285 -289 -161 -209 0
-285 -290 -161 -221 0
-285 -291 -161 -233 0
-285 -292 -161 -245 0
-285 -293 -161 -257 0
-285 -294 -161 -269 0
-286 -287 -173 -185 0
-286 -288 -173 -197 0
-286 -289 -173 -209 0
-286 -290 -173 -221 0
-286 -291 -173 -233 0
-286 -292 -173 -245 0
-286 -293 -173 -257 0
-286 -294 -173 -269 0
-287 -288 -185 -197 0
-287 -289 -185 -209 0
-287 -290 -185 -221 0
-287 -291 -185 -233 0
-287 -292 -185 -245 0
-287 -293 -185 -257 0
-287 -294 -185 -269 0
-288 -289 -197 -209 0
-288 -290 -197 -221 0
-288 -291 -197 -233 0
-288 -292 -197 -245 0
-288 -293 -197 -257 0
-288 -294 -197 -269 0
-289 -290 -209 -221 0
-289 -291 -209 -233 0
-289 -292 -209 -245 0
-289 -293 -209 -257 0
-289 -294 -209 -269 0
-290 -291 -221 -233 0
-290 -292 -221 -245 0
-290 -293 -221 -257 0
-290 -294 -221 -269 0
-291 -292 -233 -245 0
-291 -293 -233 -257 0
-291 -294 -233 -269 0
-292 -293 -245 -257 0
-292 -294 -245 -269 0
-293 -294 -257 -269 0
-281 -282 -114 -126 0
-281 -283 -114 -138 0
-281 -284 -114 -150 0
-281 -285 -114 -162 0
-281 -286 -114 -174 0
-281 -287 -114 -186 0
-281 -288 -114 -198 0
-281 -289 -114 -210 0
-281 -290 -114 -222 0
-281 -291 -114 -234 0
-281 -292 -114 -246 0
-281 -293 -114 -258 0
-281 -294 -114 -270 0
-282 -283 -126 -138 0
-282 -284 -126 -150 0
-282 -285 -126 -162 0
-282 -286 -126 -174 0
-282 -287 -126 -186 0
-282 -288 -126 -198 0
-282 -289 -126 -210 0
-282 -290 -126 -222 0
-282 -291 -126 -234 0
-282 -292 -126 -246 0
-282 -293 -126 -258 0
-282 -294 -126 -270 0
-283 -284 -138 -150 0
-283 -285 -138 -162 0
-283 -286 -138 -174 0
-283 -287 -138 -186 0
-283 -288 -138 -198 0
-283 -289 -138 -210 0
-283 -290 -138 -222 0
-283 -291 -138 -234 0
-283 -292 -138 -246 0
-283 -293 -138 -258 0
-283 -294 -138 -270 0
-284 -285 -150 -162 0
-284 -286 -150 -174 0
-284 -287 -150 -186 0
-284 -288 -150 -198 0
-284 -289 -150 -210 0
-284 -290 -150 -222 0
-284 -291 -150 -234 0
-284 -292 -150 -246 0
-284 -293 -150 -258 0
-284 -294 -150 -270 0
-285 -286 -162 -174 0
-285 -287 -162 -186 0
-285 -288 -162 -198 0
-285 -289 -162 -210 0
-285 -290 -162 -222 0
-285 -291 -162 -234 0
-285 -292 -162 -246 0
-285 -293 -162 -258 0
-285 -294 -162 -270 0
-286 -287 -174 -186 0
-286 -288 -174 -198 0
-286 -289 -174 -210 0
-286 -290 -174 -222 0
-286 -291 -174 -234 0
-286 -292 -174 -246 0
-286 -293 -174 -258 0
-286 -294 -174 -270 0
-287 -288 -186 -198 0
-287 -289 -186 -210 0
-287 -290 -186 -222 0
-287 -291 -186 -234 0
-287 -292 -186 -246 0
-287 -293 -186 -258 0
-287 -294 -186 -270 0
-288 -289 -198 -210 0
-288 -290 -198 -222 0
-288 -291 -198 -234 0
-288 -292 -198 -246 0
-288 -293 -198 -258 0
-288 -294 -198 -270 0
-289 -290 -210 -222 0
-289 -291 -210 -234 0
-289 -292 -210 -246 0
-289 -293 -210 -258 0
-289 -294 -210 -270 0
-290 -291 -222 -234 0
-290 -292 -222 -246 0
-290 -293 -222 -258 0
-290 -294 -222 -270 0
-291 -292 -234 -246 0
-291 -293 -234 -258 0
-291 -294 -234 -270 0
-292 -293 -246 -258 0
-292 -294 -246 -270 0
-293 -294 -258 -270 0
-281 -282 -115 -127 0
-281 -283 -115 -139 0
-281 -284 -115 -151 0
-281 -285 -115 -163 0
-281 -286 -115 -175 0
-281 -287 -115 -187 0
-281 -288 -115 -199 0
-281 -289 -115 -211 0
-281 -290 -115 -223 0
-281 -291 -115 -235 0
-281 -292 -115 -247 0
-281 -293 -115 -259 0
-281 -294 -115 -271 0
-282 -283 -127 -139 0
-282 -284 -127 -151 0
-282 -285 -127 -163 0
-282 -286 -127 -175 0
-282 -287 -127 -187 0
-282 -288 -127 -199 0
-282 -289 -127 -211 0
-282 -290 -127 -223 0
-282 -291 -127 -235 0
-282 -292 -127 -247 0
-282 -293 -127 -259 0
-282 -294 -127 -271 0
-283 -284 -139 -151 0
-283 -285 -139 -163 0
-283 -286 -139 -175 0
-283 -287 -139 -187 0
-283 -288 -139 -199 0
-283 -289 -139 -211 0
-283 -290 -139 -223 0
-283 -291 -139 -235 0
-283 -292 -139 -247 0
-283 -293 -139 -259 0
-283 -294 -139 -271 0
-284 -285 -151 -163 0
-284 -286 -151 -175 0
-284 -287 -151 -187 0
-284 -288 -151 -199 0
-284 -289 -151 -211 0
-284 -290 -151 -223 0
-284 -291 -151 -235 0
-284 -292 -151 -247 0
-284 -293 -151 -259 0
-284 -294 -151 -271 0
-285 -286 -163 -175 0
-285 -287 -163 -187 0
-285 -288 -163 -199 0
-285 -289 -163 -211 0
-285 -290 -163 -223 0
-285 -291 -163 -235 0
-285 -292 -163 -247 0
-285 -293 -163 -259 0
-285 -294 -163 -271 0
-286 -287 -175 -187 0
-286 -288 -175 -199 0
-286 -289 -175 -211 0
-286 -290 -175 -223 0
-286 -291 -175 -235 0
-286 -292 -175 -247 0
-286 -293 -175 -259 0
-286 -294 -175 -271 0
-287 -288 -187 -199 0
-287 -289 -187 -211 0
-287 -290 -187 -223 0
-287 -291 -187 -235 0
-287 -292 -187 -247 0
-287 -293 -187 -259 0
-287 -294 -187 -271 0
-288 -289 -199 -211 0
-288 -290 -199 -223 0
-288 -291 -199 -235 0
-288 -292 -199 -247 0
-288 -293 -199 -259 0
-288 -294 -199 -271 0
-289 -290 -211 -223 0
-289 -291 -211 -235 0
-289 -292 -211 -247 0
-289 -293 -211 -259 0
-289 -294 -211 -271 0
-290 -291 -223 -235 0
-290 -292 -223 -247 0
-290 -293 -223 -259 0
-290 -294 -223 -271 0
-291 -292 -235 -247 0
-291 -293 -235 -259 0
-291 -294 -235 -271 0
-292 -293 -247 -259 0
-292 -294 -247 -271 0
-293 -294 -259 -271 0
-281 -282 -116 -128 0
-281 -283 -116 -140 0
-281 -284 -116 -152 0
-281 -285 -116 -164 0
-281 -286 -116 -176 0
-281 -287 -116 -188 0
-281 -288 -116 -200 0
-281 -289 -116 -212 0
-281 -290 -116 -224 0
-281 -291 -116 -236 0
-281 -292 -116 -248 0
-281 -293 -116 -260 0
-281 -294 -116 -272 0
-282 -283 -128 -140 0
-282 -284 -128 -152 0
-282 -285 -128 -164 0
-282 -286 -128 -176 0
-282 -287 -128 -188 0
-282 -288 -128 -200 0
-282 -289 -128 -212 0
-282 -290 -128 -224 0
-282 -291 -128 -236 0
-282 -292 -128 -248 0
-282 -293 -128 -260 0
-282 -294 -128 -272 0
-283 -284 -140 -152 0
-283 -285 -140 -164 0
-283 -286 -140 -176 0
-283 -287 -140 -188 0
-283 -288 -140 -200 0
-283 -289 -140 -212 0
-283 -290 -140 -224 0
-283 -291 -140 -236 0
-283 -292 -140 -248 0
-283 -293 -140 -260 0
-283 -294 -140 -272 0
-284 -285 -152 -164 0
-284 -286 -152 -176 0
-284 -287 -152 -188 0
-284 -288 -152 -200 0
-284 -289 -152 -212 0
-284 -290 -152 -224 0
-284 -291 -152 -236 0
-284 -292 -152 -248 0
-284 -293 -152 -260 0
-284 -294 -152 -272 0
-285 -286 -164 -176 0
-285 -287 -164 -188 0
-285 -288 -164 -200 0
-285 -289 -164 -212 0
-285 -290 -164 -224 0
-285 -291 -164 -236 0
-285 -292 -164 -248 0
-285 -293 -164 -260 0
-285 -294 -164 -272 0
-286 -287 -176 -188 0
-286 -288 -176 -200 0
-286 -289 -176 -212 0
-286 -290 -176 -224 0
-286 -291 -176 -236 0
-286 -292 -176 -248 0
-286 -293 -176 -260 0
-286 -294 -176 -272 0
-287 -288 -188 -200 0
-287 -289 -188 -212 0
-287 -290 -188 -224 0
-287 -291 -188 -236 0
-287 -292 -188 -248 0
-287 -293 -188 -260 0
-287 -294 -188 -272 0
-288 -289 -200 -212 0
-288 -290 -200 -224 0
-288 -291 -200 -236 0
-288 -292 -200 -248 0
-288 -293 -200 -260 0
-288 -294 -200 -272 0
-289 -290 -212 -224 0
-289 -291 -212 -236 0
-289 -292 -212 -248 0
-289 -293 -212 -260 0
-289 -294 -212 -272 0
-290 -291 -224 -236 0
-290 -292 -224 -248 0
-290 -293 -224 -260 0
-290 -294 -224 -272 0
-291 -292 -236 -248 0
-291 -293 -236 -260 0
-291 -294 -236 -272 0
-292 -293 -248 -260 0
-292 -294 -248 -272 0
-293 -294 -260 -272 0
-281 -282 -117 -129 0
-281 -283 -117 -141 0
-281 -284 -117 -153 0
-281 -285 -117 -165 0
-281 -286 -117 -177 0
-281 -287 -117 -189 0
-281 -288 -117 -201 0
-281 -289 -117 -213 0
-281 -290 -117 -225 0
-281 -291 -117 -237 0
-281 -292 -117 -249 0
-281 -293 -117 -261 0
-281 -294 -117 -273 0
-282 -283 -129 -141 0
-282 -284 -129 -153 0
-282 -285 -129 -165 0
-282 -286 -129 -177 0
-282 -287 -129 -189 0
-282 -288 -129 -201 0
-282 -289 -129 -213 0
-282 -290 -129 -225 0
-282 -291 -129 -237 0
-282 -292 -129 -249 0
-282 -293 -129 -261 0
-282 -294 -129 -273 0
-283 -284 -141 -153 0
-283 -285 -141 -165 0
-283 -286 -141 -177 0
-283 -287 -141 -189 0
-283 -288 -141 -201 0
-283 -289 -141 -213 0
-283 -290 -141 -225 0
-283 -291 -141 -237 0
-283 -292 -141 -249 0
-283 -293 -141 -261 0
-283 -294 -141 -273 0
-284 -285 -153 -165 0
-284 -286 -153 -177 0
-284 -287 -153 -189 0
-284 -288 -153 -201 0
-284 -289 -153 -213 0
-284 -290 -153 -225 0
-284 -291 -153 -237 0
-284 -292 -153 -249 0
-284 -293 -153 -261 0
-284 -294 -153 -273 0
-285 -286 -165 -177 0
-285 -287 -165 -189 0
-285 -288 -165 -201 0
-285 -289 -165 -213 0
-285 -290 -165 -225 0
-285 -291 -165 -237 0
-285 -292 -165 -249 0
-285 -293 -165 -261 0
-285 -294 -165 -273 0
-286 -287 -177 -189 0
-286 -288 -177 -201 0
-286 -289 -177 -213 0
-286 -290 -177 -225 0
-286 -291 -177 -237 0
-286 -292 -177 -249 0
-286 -293 -177 -261 0
-286 -294 -177 -273 0
-287 -288 -189 -201 0
-287 -289 -189 -213 0
-287 -290 -189 -225 0
-287 -291 -189 -237 0
-287 -292 -189 -249 0
-287 -293 -189 -261 0
-287 -294 -189 -273 0
-288 -289 -201 -213 0
-288 -290 -201 -225 0
-288 -291 -201 -237 0
-288 -292 -201 -249 0
-288 -293 -201 -261 0
-288 -294 -201 -273 0
-289 -290 -213 -225 0
-289 -291 -213 -237 0
-289 -292 -213 -249 0
-289 -293 -213 -261 0
-289 -294 -213 -273 0
-290 -291 -225 -237 0
-290 -292 -225 -249 0
-290 -293 -225 -261 0
-290 -294 -225 -273 0
-291 -292 -237 -249 0
-291 -293 -237 -261 0
-291 -294 -237 -273 0
-292 -293 -249 -261 0
-292 -294 -249 -273 0
-293 -294 -261 -273 0
-281 -282 -118 -130 0
-281 -283 -118 -142 0
-281 -284 -118 -154 0
-281 -285 -118 -166 0
-281 -286 -118 -178 0
-281 -287 -118 -190 0
-281 -288 -118 -202 0
-281 -289 -118 -214 0
-281 -290 -118 -226 0
-281 -291 -118 -238 0
-281 -292 -118 -250 0
-281 -293 -118 -262 0
-281 -294 -118 -274 0
-282 -283 -130 -142 0
-282 -284 -130 -154 0
-282 -285 -130 -166 0
-282 -286 -130 -178 0
-282 -287 -130 -190 0
-282 -288 -130 -202 0
-282 -289 -130 -214 0
-282 -290 -130 -226 0
-282 -291 -130 -238 0
-282 -292 -130 -250 0
-282 -293 -130 -262 0
-282 -294 -130 -274 0
-283 -284 -142 -154 0
-283 -285 -142 -166 0
-283 -286 -142 -178 0
-283 -287 -142 -190 0
-283 -288 -142 -202 0
-283 -289 -142 -214 0
-283 -290 -142 -226 0
-283 -291 -142 -238 0
-283 -292 -142 -250 0
-283 -293 -142 -262 0
-283 -294 -142 -274 0
-284 -285 -154 -166 0
-284 -286 -154 -178 0
-284 -287 -154 -190 0
-284 -288 -154 -202 0
-284 -289 -154 -214 0
-284 -290 -154 -226 0
-284 -291 -154 -238 0
-284 -292 -154 -250 0
-284 -293 -154 -262 0
-284 -294 -154 -274 0
-285 -286 -166 -178 0
-285 -287 -166 -190 0
-285 -288 -166 -202 0
-285 -289 -166 -214 0
-285 -290 -166 -226 0
-285 -291 -166 -238 0
-285 -292 -166 -250 0
-285 -293 -166 -262 0
-285 -294 -166 -274 0
-286 -287 -178 -190 0
-286 -288 -178 -202 0
-286 -289 -178 -214 0
-286 -290 -178 -226 0
-286 -291 -178 -238 0
-286 -292 -178 -250 0
-286 -293 -178 -262 0
-286 -294 -178 -274 0
-287 -288 -190 -202 0
-287 -289 -190 -214 0
-287 -290 -190 -226 0
-287 -291 -190 -238 0
-287 -292 -190 -250 0
-287 -293 -190 -262 0
-287 -294 -190 -274 0
-288 -289 -202 -214 0
-288 -290 -202 -226 0
-288 -291 -202 -238 0
-288 -292 -202 -250 0
-288 -293 -202 -262 0
-288 -294 -202 -274 0
-289 -290 -214 -226 0
-289 -291 -214 -238 0
-289 -292 -214 -250 0
-289 -293 -214 -262 0
-289 -294 -214 -274 0
-290 -291 -226 -238 0
-290 -292 -226 -250 0
-290 -293 -226 -262 0
-290 -294 -226 -274 0
-291 -292 -238 -250 0
-291 -293 -238 -262 0
-291 -294 -238 -274 0
-292 -293 -250 -262 0
-292 -294 -250 -274 0
-293 -294 -262 -274 0
-281 -282 -119 -131 0
-281 -283 -119 -143 0
-281 -284 -119 -155 0
-281 -285 -119 -167 0
-281 -286 -119 -179 0
-281 -287 -119 -191 0
-281 -288 -119 -203 0
-281 -289 -119 -215 0
-281 -290 -119 -227 0
-281 -291 -119 -239 0
-281 -292 -119 -251 0
-281 -293 -119 -263 0
-281 -294 -119 -275 0
-282 -283 -131 -143 0
-282 -284 -131 -155 0
-282 -285 -131 -167 0
-282 -286 -131 -179 0
-282 -287 -131 -191 0
-282 -288 -131 -203 0
-282 -289 -131 -215 0
-282 -290 -131 -227 0
-282 -291 -131 -239 0
-282 -292 -131 -251 0
-282 -293 -131 -263 0
-282 -294 -131 -275 0
-283 -284 -143 -155 0
-283 -285 -143 -167 0
-283 -286 -143 -179 0
-283 -287 -143 -191 0
-283 -288 -143 -203 0
-283 -289 -143 -215 0
-283 -290 -143 -227 0
-283 -291 -143 -239 0
-283 -292 -143 -251 0
-283 -293 -143 -263 0
-283 -294 -143 -275 0
-284 -285 -155 -167 0
-284 -286 -155 -179 0
-284 -287 -155 -191 0
-284 -288 -155 -203 0
-284 -289 -155 -215 0
-284 -290 -155 -227 0
-284 -291 -155 -239 0
-284 -292 -155 -251 0
-284 -293 -155 -263 0
-284 -294 -155 -275 0
-285 -286 -167 -179 0
-285 -287 -167 -191 0
-285 -288 -167 -203 0
-285 -289 -167 -215 0
-285 -290 -167 -227 0
-285 -291 -167 -239 0
-285 -292 -167 -251 0
-285 -293 -167 -263 0
-285 -294 -167 -275 0
-286 -287 -179 -191 0
-286 -288 -179 -203 0
-286 -289 -179 -215 0
-286 -290 -179 -227 0
-286 -291 -179 -239 0
-286 -292 -179 -251 0
-286 -293 -179 -263 0
-286 -294 -179 -275 0
-287 -288 -191 -203 0
-287 -289 -191 -215 0
-287 -290 -191 -227 0
-287 -291 -191 -239 0
-287 -292 -191 -251 0
-287 -293 -191 -263 0
-287 -294 -191 -275 0
-288 -289 -203 -215 0
-288 -290 -203 -227 0
-288 -291 -203 -239 0
-288 -292 -203 -251 0
-288 -293 -203 -263 0
-288 -294 -203 -275 0
-289 -290 -215 -227 0
-289 -291 -215 -239 0
-289 -292 -215 -251 0
-289 -293 -215 -263 0
-289 -294 -215 -275 0
-290 -291 -227 -239 0
-290 -292 -227 -251 0
-290 -293 -227 -263 0
-290 -294 -227 -275 0
-291 -292 -239 -251 0
-291 -293 -239 -263 0
-291 -294 -239 -275 0
-292 -293 -251 -263 0
-292 -294 -251 -275 0
-293 -294 -263 -275 0
-281 -282 -120 -132 0
-281 -283 -120 -144 0
-281 -284 -120 -156 0
-281 -285 -120 -168 0
-281 -286 -120 -180 0
-281 -287 -120 -192 0
-281 -288 -120 -204 0
-281 -289 -120 -216 0
-281 -290 -120 -228 0
-281 -291 -120 -240 0
-281 -292 -120 -252 0
-281 -293 -120 -264 0
-281 -294 -120 -276 0
-282 -283 -132 -144 0
-282 -284 -132 -156 0
-282 -285 -132 -168 0
-282 -286 -132 -180 0
-282 -287 -132 -192 0
-282 -288 -132 -204 0
-282 -289 -132 -216 0
-282 -290 -132 -228 0
-282 -291 -132 -240 0
-282 -292 -132 -252 0
-282 -293 -132 -264 0
-282 -294 -132 -276 0
-283 -284 -144 -156 0
-283 -285 -144 -168 0
-283 -286 -144 -180 0
-283 -287 -144 -192 0
-283 -288 -144 -204 0
-283 -289 -144 -216 0
-283 -290 -144 -228 0
-283 -291 -144 -240 0
-283 -292 -144 -252 0
-283 -293 -144 -264 0
-283 -294 -144 -276 0
-284 -285 -156 -168 0
-284 -286 -156 -180 0
-284 -287 -156 -192 0
-284 -288 -156 -204 0
-284 -289 -156 -216 0
-284 -290 -156 -228 0
-284 -291 -156 -240 0
-284 -292 -156 -252 0
-284 -293 -156 -264 0
-284 -294 -156 -276 0
-285 -286 -168 -180 0
-285 -287 -168 -192 0
-285 -288 -168 -204 0
-285 -289 -168 -216 0
-285 -290 -168 -228 0
-285 -291 -168 -240 0
-285 -292 -168 -252 0
-285 -293 -168 -264 0
-285 -294 -168 -276 0
-286 -287 -180 -192 0
-286 -288 -180 -204 0
-286 -289 -180 -216 0
-286 -290 -180 -228 0
-286 -291 -180 -240 0
-286 -292 -180 -252 0
-286 -293 -180 -264 0
-286 -294 -180 -276 0
-287 -288 -192 -204 0
-287 -289 -192 -216 0
-287 -290 -192 -228 0
-287 -291 -192 -240 0
-287 -292 -192 -252 0
-287 -293 -192 -264 0
-287 -294 -192 -276 0
-288 -289 -204 -216 0
-288 -290 -204 -228 0
-288 -291 -204 -240 0
-288 -292 -204 -252 0
-288 -293 -204 -264 0
-288 -294 -204 -276 0
-289 -290 -216 -228 0
-289 -291 -216 -240 0
-289 -292 -216 -252 0
-289 -293 -216 -264 0
-289 -294 -216 -276 0
-290 -291 -228 -240 0
-290 -292 -228 -252 0
-290 -293 -228 -264 0
-290 -294 -228 -276 0
-291 -292 -240 -252 0
-291 -293 -240 -264 0
-291 -294 -240 -276 0
-292 -293 -252 -264 0
-292 -294 -252 -276 0
-293 -294 -264 -276 0
-281 -282 -121 -133 0
-281 -283 -121 -145 0
-281 -284 -121 -157 0
-281 -285 -121 -169 0
-281 -286 -121 -181 0
-281 -287 -121 -193 0
-281 -288 -121 -205 0
-281 -289 -121 -217 0
-281 -290 -121 -229 0
-281 -291 -121 -241 0
-281 -292 -121 -253 0
-281 -293 -121 -265 0
-281 -294 -121 -277 0
-282 -283 -133 -145 0
-282 -284 -133 -157 0
-282 -285 -133 -169 0
-282 -286 -133 -181 0
-282 -287 -133 -193 0
-282 -288 -133 -205 0
-282 -289 -133 -217 0
-282 -290 -133 -229 0
-282 -291 -133 -241 0
-282 -292 -133 -253 0
-282 -293 -133 -265 0
-282 -294 -133 -277 0
-283 -284 -145 -157 0
-283 -285 -145 -169 0
-283 -286 -145 -181 0
-283 -287 -145 -193 0
-283 -288 -145 -205 0
-283 -289 -145 -217 0
-283 -290 -145 -229 0
-283 -291 -145 -241 0
-283 -292 -145 -253 0
-283 -293 -145 -265 0
-283 -294 -145 -277 0
-284 -285 -157 -169 0
-284 -286 -157 -181 0
-284 -287 -157 -193 0
-284 -288 -157 -205 0
-284 -289 -157 -217 0
-284 -290 -157 -229 0
-284 -291 -157 -241 0
-284 -292 -157 -253 0
-284 -293 -157 -265 0
-284 -294 -157 -277 0
-285 -286 -169 -181 0
-285 -287 -169 -193 0
-285 -288 -169 -205 0
-285 -289 -169 -217 0
-285 -290 -169 -229 0
-285 -291 -169 -241 0
-285 -292 -169 -253 0
-285 -293 -169 -265 0
-285 -294 -169 -277 0
-286 -287 -181 -193 0
-286 -288 -181 -205 0
-286 -289 -181 -217 0
-286 -290 -181 -229 0
-286 -291 -181 -241 0
-286 -292 -181 -253 0
-286 -293 -181 -265 0
-286 -294 -181 -277 0
-287 -288 -193 -205 0
-287 -289 -193 -217 0
-287 -290 -193 -229 0
-287 -291 -193 -241 0
-287 -292 -193 -253 0
-287 -293 -193 -265 0
-287 -294 -193 -277 0
-288 -289 -205 -217 0
-288 -290 -205 -229 0
-288 -291 -205 -241 0
-288 -292 -205 -253 0
-288 -293 -205 -265 0
-288 -294 -205 -277 0
-289 -290 -217 -229 0
-289 -291 -217 -241 0
-289 -292 -217 -253 0
-289 -293 -217 -265 0
-289 -294 -217 -277 0
-290 -291 -229 -241 0
-290 -292 -229 -253 0
-290 -293 -229 -265 0
-290 -294 -229 -277 0
-291 -292 -241 -253 0
-291 -293 -241 -265 0
-291 -294 -241 -277 0
-292 -293 -253 -265 0
-292 -294 -253 -277 0
-293 -294 -265 -277 0
-281 -282 -122 -134 0
-281 -283 -122 -146 0
-281 -284 -122 -158 0
-281 -285 -122 -170 0
-281 -286 -122 -182 0
-281 -287 -122 -194 0
-281 -288 -122 -206 0
-281 -289 -122 -218 0
-281 -290 -122 -230 0
-281 -291 -122 -242 0
-281 -292 -122 -254 0
-281 -293 -122 -266 0
-281 -294 -122 -278 0
-282 -283 -134 -146 0
-282 -284 -134 -158 0
-282 -285 -134 -170 0
-282 -286 -134 -182 0
-282 -287 -134 -194 0
-282 -288 -134 -206 0
-282 -289 -134 -218 0
-282 -290 -134 -230 0
-282 -291 -134 -242 0
-282 -292 -134 -254 0
-282 -293 -134 -266 0
-282 -294 -134 -278 0
-283 -284 -146 -158 0
-283 -285 -146 -170 0
-283 -286 -146 -182 0
-283 -287 -146 -194 0
-283 -288 -146 -206 0
-283 -289 -146 -218 0
-283 -290 -146 -230 0
-283 -291 -146 -242 0
-283 -292 -146 -254 0
-283 -293 -146 -266 0
-283 -294 -146 -278 0
-284 -285 -158 -170 0
-284 -286 -158 -182 0
-284 -287 -158 -194 0
-284 -288 -158 -206 0
-284 -289 -158 -218 0
-284 -290 -158 -230 0
-284 -291 -158 -242 0
-284 -292 -158 -254 0
-284 -293 -158 -266 0
-284 -294 -158 -278 0
-285 -286 -170 -182 0
-285 -287 -170 -194 0
-285 -288 -170 -206 0
-285 -289 -170 -218 0
-285 -290 -170 -230 0
-285 -291 -170 -242 0
-285 -292 -170 -254 0
-285 -293 -170 -266 0
-285 -294 -170 -278 0
-286 -287 -182 -194 0
-286 -288 -182 -206 0
-286 -289 -182 -218 0
-286 -290 -182 -230 0
-286 -291 -182 -242 0
-286 -292 -182 -254 0
-286 -293 -182 -266 0
-286 -294 -182 -278 0
-287 -288 -194 -206 0
-287 -289 -194 -218 0
-287 -290 -194 -230 0
-287 -291 -194 -242 0
-287 -292 -194 -254 0
-287 -293 -194 -266 0
-287 -294 -194 -278 0
-288 -289 -206 -218 0
-288 -290 -206 -230 0
-288 -291 -206 -242 0
-288 -292 -206 -254 0
-288 -293 -206 -266 0
-288 -294 -206 -278 0
-289 -290 -218 -230 0
-289 -291 -218 -242 0
-289 -292 -218 -254 0
-289 -293 -218 -266 0
-289 -294 -218 -278 0
-290 -291 -230 -242 0
-290 -292 -230 -254 0
-290 -293 -230 -266 0
-290 -294 -230 -278 0
-291 -292 -242 -254 0
-291 -293 -242 -266 0
-291 -294 -242 -278 0
-292 -293 -254 -266 0
-292 -294 -254 -278 0
-293 -294 -266 -278 0
-281 -282 -123 -135 0
-281 -283 -123 -147 0
-281 -284 -123 -159 0
-281 -285 -123 -171 0
-281 -286 -123 -183 0
-281 -287 -123 -195 0
-281 -288 -123 -207 0
-281 -289 -123 -219 0
-281 -290 -123 -231 0
-281 -291 -123 -243 0
-281 -292 -123 -255 0
-281 -293 -123 -267 0
-281 -294 -123 -279 0
-282 -283 -135 -147 0
-282 -284 -135 -159 0
-282 -285 -135 -171 0
-282 -286 -135 -183 0
-282 -287 -135 -195 0
-282 -288 -135 -207 0
-282 -289 -135 -219 0
-282 -290 -135 -231 0
-282 -291 -135 -243 0
-282 -292 -135 -255 0
-282 -293 -135 -267 0
-282 -294 -135 -279 0
-283 -284 -147 -159 0
-283 -285 -147 -171 0
-283 -286 -147 -183 0
-283 -287 -147 -195 0
-283 -288 -147 -207 0
-283 -289 -147 -219 0
-283 -290 -147 -231 0
-283 -291 -147 -243 0
-283 -292 -147 -255 0
-283 -293 -147 -267 0
-283 -294 -147 -279 0
-284 -285 -159 -171 0
-284 -286 -159 -183 0
-284 -287 -159 -195 0
-284 -288 -159 -207 0
-284 -289 -159 -219 0
-284 -290 -159 -231 0
-284 -291 -159 -243 0
-284 -292 -159 -255 0
-284 -293 -159 -267 0
-284 -294 -159 -279 0
-285 -286 -171 -183 0
-285 -287 -171 -195 0
-285 -288 -171 -207 0
-285 -289 -171 -219 0
-285 -290 -171 -231 0
-285 -291 -171 -243 0
-285 -292 -171 -255 0
-285 -293 -171 -267 0
-285 -294 -171 -279 0
-286 -287 -183 -195 0
-286 -288 -183 -207 0
-286 -289 -183 -219 0
-286 -290 -183 -231 0
-286 -291 -183 -243 0
-286 -292 -183 -255 0
-286 -293 -183 -267 0
-286 -294 -183 -279 0
-287 -288 -195 -207 0
-287 -289 -195 -219 0
-287 -290 -195 -231 0
-287 -291 -195 -243 0
-287 -292 -195 -255 0
-287 -293 -195 -267 0
-287 -294 -195 -279 0
-288 -289 -207 -219 0
-288 -290 -207 -231 0
-288 -291 -207 -243 0
-288 -292 -207 -255 0
-288 -293 -207 -267 0
-288 -294 -207 -279 0
-289 -290 -219 -231 0
-289 -291 -219 -243 0
-289 -292 -219 -255 0
-289 -293 -219 -267 0
-289 -294 -219 -279 0
-290 -291 -231 -243 0
-290 -292 -231 -255 0
-290 -293 -231 -267 0
-290 -294 -231 -279 0
-291 -292 -243 -255 0
-291 -293 -243 -267 0
-291 -294 -243 -279 0
-292 -293 -255 -267 0
-292 -294 -255 -279 0
-293 -294 -267 -279 0
-281 -282 -124 -136 0
-281 -283 -124 -148 0
-281 -284 -124 -160 0
-281 -285 -124 -172 0
-281 -286 -124 -184 0
-281 -287 -124 -196 0
-281 -288 -124 -208 0
-281 -289 -124 -220 0
-281 -290 -124 -232 0
-281 -291 -124 -244 0
-281 -292 -124 -256 0
-281 -293 -124 -268 0
-281 -294 -124 -280 0
-282 -283 -136 -148 0
-282 -284 -136 -160 0
-282 -285 -136 -172 0
-282 -286 -136 -184 0
-282 -287 -136 -196 0
-282 -288 -136 -208 0
-282 -289 -136 -220 0
-282 -290 -136 -232 0
-282 -291 -136 -244 0
-282 -292 -136 -256 0
-282 -293 -136 -268 0
-282 -294 -136 -280 0
-283 -284 -148 -160 0
-283 -285 -148 -172 0
-283 -286 -148 -184 0
-283 -287 -148 -196 0
-283 -288 -148 -208 0
-283 -289 -148 -220 0
-283 -290 -148 -232 0
-283 -291 -148 -244 0
-283 -292 -148 -256 0
-283 -293 -148 -268 0
-283 -294 -148 -280 0
-284 -285 -160 -172 0
-284 -286 -160 -184 0
-284 -287 -160 -196 0
-284 -288 -160 -208 0
-284 -289 -160 -220 0
-284 -290 -160 -232 0
-284 -291 -160 -244 0
-284 -292 -160 -256 0
-284 -293 -160 -268 0
-284 -294 -160 -280 0
-285 -286 -172 -184 0
-285 -287 -172 -196 0
-285 -288 -172 -208 0
-285 -289 -172 -220 0
-285 -290 -172 -232 0
-285 -291 -172 -244 0
-285 -292 -172 -256 0
-285 -293 -172 -268 0
-285 -294 -172 -280 0
-286 -287 -184 -196 0
-286 -288 -184 -208 0
-286 -289 -184 -220 0
-286 -290 -184 -232 0
-286 -291 -184 -244 0
-286 -292 -184 -256 0
-286 -293 -184 -268 0
-286 -294 -184 -280 0
-287 -288 -196 -208 0
-287 -289 -196 -220 0
-287 -290 -196 -232 0
-287 -291 -196 -244 0
-287 -292 -196 -256 0
-287 -293 -196 -268 0
-287 -294 -196 -280 0
-288 -289 -208 -220 0
-288 -290 -208 -232 0
-288 -291 -208 -244 0
-288 -292 -208 -256 0
-288 -293 -208 -268 0
-288 -294 -208 -280 0
-289 -290 -220 -232 0
-289 -291 -220 -244 0
-289 -292 -220 -256 0
-289 -293 -220 -268 0
-289 -294 -220 -280 0
-290 -291 -232 -244 0
-290 -292 -232 -256 0
-290 -293 -232 -268 0
-290 -294 -232 -280 0
-291 -292 -244 -256 0
-291 -293 -244 -268 0
-291 -294 -244 -280 0
-292 -293 -256 -268 0
-292 -294 -256 -280 0
-293 -294 -268 -280 0
