c description: Relativized pigeonhole principle formula for 8 pigeons, 12 resting places and 10 holes
c generator: CNFgen (0.9.5)
c copyright: (C) 2012-2026 Massimo Lauria <massimo.lauria@uniroma1.it>
c url: https://massimolauria.net/cnfgen
c random seed: 31156
c command line: cnfgen -S 31156 -o cnfgen_regression_pack/cnfgen_cases/rphp_p8_r12_h10_sat.cnf rphp 8 12 10
c
c known_status: SAT
c pack_family: relativized_pigeonhole
c pack_level: moderate
c pack_notes: relativized pigeonhole principle
p cnf 228 1112
1 2 3 4 5 6 7 8 9 10 11 12 0
13 14 15 16 17 18 19 20 21 22 23 24 0
25 26 27 28 29 30 31 32 33 34 35 36 0
37 38 39 40 41 42 43 44 45 46 47 48 0
49 50 51 52 53 54 55 56 57 58 59 60 0
61 62 63 64 65 66 67 68 69 70 71 72 0
73 74 75 76 77 78 79 80 81 82 83 84 0
85 86 87 88 89 90 91 92 93 94 95 96 0
-1 -13 0
-1 -25 0
-1 -37 0
-1 -49 0
-1 -61 0
-1 -73 0
-1 -85 0
-13 -25 0
-13 -37 0
-13 -49 0
-13 -61 0
-13 -73 0
-13 -85 0
-25 -37 0
-25 -49 0
-25 -61 0
-25 -73 0
-25 -85 0
-37 -49 0
-37 -61 0
-37 -73 0
-37 -85 0
-49 -61 0
-49 -73 0
-49 -85 0
-61 -73 0
-61 -85 0
-73 -85 0
-2 -14 0
-2 -26 0
-2 -38 0
-2 -50 0
-2 -62 0
-2 -74 0
-2 -86 0
-14 -26 0
-14 -38 0
-14 -50 0
-14 -62 0
-14 -74 0
-14 -86 0
-26 -38 0
-26 -50 0
-26 -62 0
-26 -74 0
-26 -86 0
-38 -50 0
-38 -62 0
-38 -74 0
-38 -86 0
-50 -62 0
-50 -74 0
-50 -86 0
-62 -74 0
-62 -86 0
-74 -86 0
-3 -15 0
-3 -27 0
-3 -39 0
-3 -51 0
-3 -63 0
-3 -75 0
-3 -87 0
-15 -27 0
-15 -39 0
-15 -51 0
-15 -63 0
-15 -75 0
-15 -87 0
-27 -39 0
-27 -51 0
-27 -63 0
-27 -75 0
-27 -87 0
-39 -51 0
-39 -63 0
-39 -75 0
-39 -87 0
-51 -63 0
-51 -75 0
-51 -87 0
-63 -75 0
-63 -87 0
-75 -87 0
-4 -16 0
-4 -28 0
-4 -40 0
-4 -52 0
-4 -64 0
-4 -76 0
-4 -88 0
-16 -28 0
-16 -40 0
-16 -52 0
-16 -64 0
-16 -76 0
-16 -88 0
-28 -40 0
-28 -52 0
-28 -64 0
-28 -76 0
-28 -88 0
-40 -52 0
-40 -64 0
-40 -76 0
-40 -88 0
-52 -64 0
-52 -76 0
-52 -88 0
-64 -76 0
-64 -88 0
-76 -88 0
-5 -17 0
-5 -29 0
-5 -41 0
-5 -53 0
-5 -65 0
-5 -77 0
-5 -89 0
-17 -29 0
-17 -41 0
-17 -53 0
-17 -65 0
-17 -77 0
-17 -89 0
-29 -41 0
-29 -53 0
-29 -65 0
-29 -77 0
-29 -89 0
-41 -53 0
-41 -65 0
-41 -77 0
-41 -89 0
-53 -65 0
-53 -77 0
-53 -89 0
-65 -77 0
-65 -89 0
-77 -89 0
-6 -18 0
-6 -30 0
-6 -42 0
-6 -54 0
-6 -66 0
-6 -78 0
-6 -90 0
-18 -30 0
-18 -42 0
-18 -54 0
-18 -66 0
-18 -78 0
-18 -90 0
-30 -42 0
-30 -54 0
-30 -66 0
-30 -78 0
-30 -90 0
-42 -54 0
-42 -66 0
-42 -78 0
-42 -90 0
-54 -66 0
-54 -78 0
-54 -90 0
-66 -78 0
-66 -90 0
-78 -90 0
-7 -19 0
-7 -31 0
-7 -43 0
-7 -55 0
-7 -67 0
-7 -79 0
-7 -91 0
-19 -31 0
-19 -43 0
-19 -55 0
-19 -67 0
-19 -79 0
-19 -91 0
-31 -43 0
-31 -55 0
-31 -67 0
-31 -79 0
-31 -91 0
-43 -55 0
-43 -67 0
-43 -79 0
-43 -91 0
-55 -67 0
-55 -79 0
-55 -91 0
-67 -79 0
-67 -91 0
-79 -91 0
-8 -20 0
-8 -32 0
-8 -44 0
-8 -56 0
-8 -68 0
-8 -80 0
-8 -92 0
-20 -32 0
-20 -44 0
-20 -56 0
-20 -68 0
-20 -80 0
-20 -92 0
-32 -44 0
-32 -56 0
-32 -68 0
-32 -80 0
-32 -92 0
-44 -56 0
-44 -68 0
-44 -80 0
-44 -92 0
-56 -68 0
-56 -80 0
-56 -92 0
-68 -80 0
-68 -92 0
-80 -92 0
-9 -21 0
-9 -33 0
-9 -45 0
-9 -57 0
-9 -69 0
-9 -81 0
-9 -93 0
-21 -33 0
-21 -45 0
-21 -57 0
-21 -69 0
-21 -81 0
-21 -93 0
-33 -45 0
-33 -57 0
-33 -69 0
-33 -81 0
-33 -93 0
-45 -57 0
-45 -69 0
-45 -81 0
-45 -93 0
-57 -69 0
-57 -81 0
-57 -93 0
-69 -81 0
-69 -93 0
-81 -93 0
-10 -22 0
-10 -34 0
-10 -46 0
-10 -58 0
-10 -70 0
-10 -82 0
-10 -94 0
-22 -34 0
-22 -46 0
-22 -58 0
-22 -70 0
-22 -82 0
-22 -94 0
-34 -46 0
-34 -58 0
-34 -70 0
-34 -82 0
-34 -94 0
-46 -58 0
-46 -70 0
-46 -82 0
-46 -94 0
-58 -70 0
-58 -82 0
-58 -94 0
-70 -82 0
-70 -94 0
-82 -94 0
-11 -23 0
-11 -35 0
-11 -47 0
-11 -59 0
-11 -71 0
-11 -83 0
-11 -95 0
-23 -35 0
-23 -47 0
-23 -59 0
-23 -71 0
-23 -83 0
-23 -95 0
-35 -47 0
-35 -59 0
-35 -71 0
-35 -83 0
-35 -95 0
-47 -59 0
-47 -71 0
-47 -83 0
-47 -95 0
-59 -71 0
-59 -83 0
-59 -95 0
-71 -83 0
-71 -95 0
-83 -95 0
-12 -24 0
-12 -36 0
-12 -48 0
-12 -60 0
-12 -72 0
-12 -84 0
-12 -96 0
-24 -36 0
-24 -48 0
-24 -60 0
-24 -72 0
-24 -84 0
-24 -96 0
-36 -48 0
-36 -60 0
-36 -72 0
-36 -84 0
-36 -96 0
-48 -60 0
-48 -72 0
-48 -84 0
-48 -96 0
-60 -72 0
-60 -84 0
-60 -96 0
-72 -84 0
-72 -96 0
-84 -96 0
-1 217 0
-13 217 0
-25 217 0
-37 217 0
-49 217 0
-61 217 0
-73 217 0
-85 217 0
-2 218 0
-14 218 0
-26 218 0
-38 218 0
-50 218 0
-62 218 0
-74 218 0
-86 218 0
-3 219 0
-15 219 0
-27 219 0
-39 219 0
-51 219 0
-63 219 0
-75 219 0
-87 219 0
-4 220 0
-16 220 0
-28 220 0
-40 220 0
-52 220 0
-64 220 0
-76 220 0
-88 220 0
-5 221 0
-17 221 0
-29 221 0
-41 221 0
-53 221 0
-65 221 0
-77 221 0
-89 221 0
-6 222 0
-18 222 0
-30 222 0
-42 222 0
-54 222 0
-66 222 0
-78 222 0
-90 222 0
-7 223 0
-19 223 0
-31 223 0
-43 223 0
-55 223 0
-67 223 0
-79 223 0
-91 223 0
-8 224 0
-20 224 0
-32 224 0
-44 224 0
-56 224 0
-68 224 0
-80 224 0
-92 224 0
-9 225 0
-21 225 0
-33 225 0
-45 225 0
-57 225 0
-69 225 0
-81 225 0
-93 225 0
-10 226 0
-22 226 0
-34 226 0
-46 226 0
-58 226 0
-70 226 0
-82 226 0
-94 226 0
-11 227 0
-23 227 0
-35 227 0
-47 227 0
-59 227 0
-71 227 0
-83 227 0
-95 227 0
-12 228 0
-24 228 0
-36 228 0
-48 228 0
-60 228 0
-72 228 0
-84 228 0
-96 228 0
-217 97 98 99 100 101 102 103 104 105 106 0
-218 107 108 109 110 111 112 113 114 115 116 0
-219 117 118 119 120 121 122 123 124 125 126 0
-220 127 128 129 130 131 132 133 134 135 136 0
-221 137 138 139 140 141 142 143 144 145 146 0
-222 147 148 149 150 151 152 153 154 155 156 0
-223 157 158 159 160 161 162 163 164 165 166 0
-224 167 168 169 170 171 172 173 174 175 176 0
-225 177 178 179 180 181 182 183 184 185 186 0
-226 187 188 189 190 191 192 193 194 195 196 0
-227 197 198 199 200 201 202 203 204 205 206 0
-228 207 208 209 210 211 212 213 214 215 216 0
-217 -218 -97 -107 0
-217 -219 -97 -117 0
-217 -220 -97 -127 0
-217 -221 -97 -137 0
-217 -222 -97 -147 0
-217 -223 -97 -157 0
-217 -224 -97 -167 0
-217 -225 -97 -177 0
-217 -226 -97 -187 0
-217 -227 -97 -197 0
-217 -228 -97 -207 0
-218 -219 -107 -117 0
-218 -220 -107 -127 0
-218 -221 -107 -137 0
-218 -222 -107 -147 0
-218 -223 -107 -157 0
-218 -224 -107 -167 0
-218 -225 -107 -177 0
-218 -226 -107 -187 0
-218 -227 -107 -197 0
-218 -228 -107 -207 0
-219 -220 -117 -127 0
-219 -221 -117 -137 0
-219 -222 -117 -147 0
-219 -223 -117 -157 0
-219 -224 -117 -167 0
-219 -225 -117 -177 0
-219 -226 -117 -187 0
-219 -227 -117 -197 0
-219 -228 -117 -207 0
-220 -221 -127 -137 0
-220 -222 -127 -147 0
-220 -223 -127 -157 0
-220 -224 -127 -167 0
-220 -225 -127 -177 0
-220 -226 -127 -187 0
-220 -227 -127 -197 0
-220 -228 -127 -207 0
-221 -222 -137 -147 0
-221 -223 -137 -157 0
-221 -224 -137 -167 0
-221 -225 -137 -177 0
-221 -226 -137 -187 0
-221 -227 -137 -197 0
-221 -228 -137 -207 0
-222 -223 -147 -157 0
-222 -224 -147 -167 0
-222 -225 -147 -177 0
-222 -226 -147 -187 0
-222 -227 -147 -197 0
-222 -228 -147 -207 0
-223 -224 -157 -167 0
-223 -225 -157 -177 0
-223 -226 -157 -187 0
-223 -227 -157 -197 0
-223 -228 -157 -207 0
-224 -225 -167 -177 0
-224 -226 -167 -187 0
-224 -227 -167 -197 0
-224 -228 -167 -207 0
-225 -226 -177 -187 0
-225 -227 -177 -197 0
-225 -228 -177 -207 0
-226 -227 -187 -197 0
-226 -228 -187 -207 0
-227 -228 -197 -207 0
-217 -218 -98 -108 0
-217 -219 -98 -118 0
-217 -220 -98 -128 0
-217 -221 -98 -138 0
-217 -222 -98 -148 0
-217 -223 -98 -158 0
-217 -224 -98 -168 0
-217 -225 -98 -178 0
-217 -226 -98 -188 0
-217 -227 -98 -198 0
-217 -228 -98 -208 0
-218 -219 -108 -118 0
-218 -220 -108 -128 0
-218 -221 -108 -138 0
-218 -222 -108 -148 0
-218 -223 -108 -158 0
-218 -224 -108 -168 0
-218 -225 -108 -178 0
-218 -226 -108 -188 0
-218 -227 -108 -198 0
-218 -228 -108 -208 0
-219 -220 -118 -128 0
-219 -221 -118 -138 0
-219 -222 -118 -148 0
-219 -223 -118 -158 0
-219 -224 -118 -168 0
-219 -225 -118 -178 0
-219 -226 -118 -188 0
-219 -227 -118 -198 0
-219 -228 -118 -208 0
-220 -221 -128 -138 0
-220 -222 -128 -148 0
-220 -223 -128 -158 0
-220 -224 -128 -168 0
-220 -225 -128 -178 0
-220 -226 -128 -188 0
-220 -227 -128 -198 0
-220 -228 -128 -208 0
-221 -222 -138 -148 0
-221 -223 -138 -158 0
-221 -224 -138 -168 0
-221 -225 -138 -178 0
-221 -226 -138 -188 0
-221 -227 -138 -198 0
-221 -228 -138 -208 0
-222 -223 -148 -158 0
-222 -224 -148 -168 0
-222 -225 -148 -178 0
-222 -226 -148 -188 0
-222 -227 -148 -198 0
-222 -228 -148 -208 0
-223 -224 -158 -168 0
-223 -225 -158 -178 0
-223 -226 -158 -188 0
-223 -227 -158 -198 0
-223 -228 -158 -208 0
-224 -225 -168 -178 0
-224 -226 -168 -188 0
-224 -227 -168 -198 0
-224 -228 -168 -208 0
-225 -226 -178 -188 0
-225 -227 -178 -198 0
-225 -228 -178 -208 0
-226 -227 -188 -198 0
-226 -228 -188 -208 0
-227 -228 -198 -208 0
-217 -218 -99 -109 0
-217 -219 -99 -119 0
-217 -220 -99 -129 0
-217 -221 -99 -139 0
-217 -222 -99 -149 0
-217 -223 -99 -159 0
-217 -224 -99 -169 0
-217 -225 -99 -179 0
-217 -226 -99 -189 0
-217 -227 -99 -199 0
-217 -228 -99 -209 0
-218 -219 -109 -119 0
-218 -220 -109 -129 0
-218 -221 -109 -139 0
-218 -222 -109 -149 0
-218 -223 -109 -159 0
-218 -224 -109 -169 0
-218 -225 -109 -179 0
-218 -226 -109 -189 0
-218 -227 -109 -199 0
-218 -228 -109 -209 0
-219 -220 -119 -129 0
-219 -221 -119 -139 0
-219 -222 -119 -149 0
-219 -223 -119 -159 0
-219 -224 -119 -169 0
-219 -225 -119 -179 0
-219 -226 -119 -189 0
-219 -227 -119 -199 0
-219 -228 -119 -209 0
-220 -221 -129 -139 0
-220 -222 -129 -149 0
-220 -223 -129 -159 0
-220 -224 -129 -169 0
-220 -225 -129 -179 0
-220 -226 -129 -189 0
-220 -227 -129 -199 0
-220 -228 -129 -209 0
-221 -222 -139 -149 0
-221 -223 -139 -159 0
-221 -224 -139 -169 0
-221 -225 -139 -179 0
-221 -226 -139 -189 0
-221 -227 -139 -199 0
-221 -228 -139 -209 0
-222 -223 -149 -159 0
-222 -224 -149 -169 0
-222 -225 -149 -179 0
-222 -226 -149 -189 0
-222 -227 -149 -199 0
-222 -228 -149 -209 0
-223 -224 -159 -169 0
-223 -225 -159 -179 0
-223 -226 -159 -189 0
-223 -227 -159 -199 0
-223 -228 -159 -209 0
-224 -225 -169 -179 0
-224 -226 -169 -189 0
-224 -227 -169 -199 0
-224 -228 -169 -209 0
-225 -226 -179 -189 0
-225 -227 -179 -199 0
-225 -228 -179 -209 0
-226 -227 -189 -199 0
-226 -228 -189 -209 0
-227 -228 -199 -209 0
-217 -218 -100 -110 0
-217 -219 -100 -120 0
-217 -220 -100 -130 0
-217 -221 -100 -140 0
-217 -222 -100 -150 0
-217 -223 -100 -160 0
-217 -224 -100 -170 0
-217 -225 -100 -180 0
-217 -226 -100 -190 0
-217 -227 -100 -200 0
-217 -228 -100 -210 0
-218 -219 -110 -120 0
-218 -220 -110 -130 0
-218 -221 -110 -140 0
-218 -222 -110 -150 0
-218 -223 -110 -160 0
-218 -224 -110 -170 0
-218 -225 -110 -180 0
-218 -226 -110 -190 0
-218 -227 -110 -200 0
-218 -228 -110 -210 0
-219 -220 -120 -130 0
-219 -221 -120 -140 0
-219 -222 -120 -150 0
-219 -223 -120 -160 0
-219 -224 -120 -170 0
-219 -225 -120 -180 0
-219 -226 -120 -190 0
-219 -227 -120 -200 0
-219 -228 -120 -210 0
-220 -221 -130 -140 0
-220 -222 -130 -150 0
-220 -223 -130 -160 0
-220 -224 -130 -170 0
-220 -225 -130 -180 0
-220 -226 -130 -190 0
-220 -227 -130 -200 0
-220 -228 -130 -210 0
-221 -222 -140 -150 0
-221 -223 -140 -160 0
-221 -224 -140 -170 0
-221 -225 -140 -180 0
-221 -226 -140 -190 0
-221 -227 -140 -200 0
-221 -228 -140 -210 0
-222 -223 -150 -160 0
-222 -224 -150 -170 0
-222 -225 -150 -180 0
-222 -226 -150 -190 0
-222 -227 -150 -200 0
-222 -228 -150 -210 0
-223 -224 -160 -170 0
-223 -225 -160 -180 0
-223 -226 -160 -190 0
-223 -227 -160 -200 0
-223 -228 -160 -210 0
-224 -225 -170 -180 0
-224 -226 -170 -190 0
-224 -227 -170 -200 0
-224 -228 -170 -210 0
-225 -226 -180 -190 0
-225 -227 -180 -200 0
-225 -228 -180 -210 0
-226 -227 -190 -200 0
-226 -228 -190 -210 0
-227 -228 -200 -210 0
-217 -218 -101 -111 0
-217 -219 -101 -121 0
-217 -220 -101 -131 0
-217 -221 -101 -141 0
-217 -222 -101 -151 0
-217 -223 -101 -161 0
-217 -224 -101 -171 0
-217 -225 -101 -181 0
-217 -226 -101 -191 0
-217 -227 -101 -201 0
-217 -228 -101 -211 0
-218 -219 -111 -121 0
-218 -220 -111 -131 0
-218 -221 -111 -141 0
-218 -222 -111 -151 0
-218 -223 -111 -161 0
-218 -224 -111 -171 0
-218 -225 -111 -181 0
-218 -226 -111 -191 0
-218 -227 -111 -201 0
-218 -228 -111 -211 0
-219 -220 -121 -131 0
-219 -221 -121 -141 0
-219 -222 -121 -151 0
-219 -223 -121 -161 0
-219 -224 -121 -171 0
-219 -225 -121 -181 0
-219 -226 -121 -191 0
-219 -227 -121 -201 0
-219 -228 -121 -211 0
-220 -221 -131 -141 0
-220 -222 -131 -151 0
-220 -223 -131 -161 0
-220 -224 -131 -171 0
-220 -225 -131 -181 0
-220 -226 -131 -191 0
-220 -227 -131 -201 0
-220 -228 -131 -211 0
-221 -222 -141 -151 0
-221 -223 -141 -161 0
-221 -224 -141 -171 0
-221 -225 -141 -181 0
-221 -226 -141 -191 0
-221 -227 -141 -201 0
-221 -228 -141 -211 0
-222 -223 -151 -161 0
-222 -224 -151 -171 0
-222 -225 -151 -181 0
-222 -226 -151 -191 0
-222 -227 -151 -201 0
-222 -228 -151 -211 0
-223 -224 -161 -171 0
-223 -225 -161 -181 0
-223 -226 -161 -191 0
-223 -227 -161 -201 0
-223 -228 -161 -211 0
-224 -225 -171 -181 0
-224 -226 -171 -191 0
-224 -227 -171 -201 0
-224 -228 -171 -211 0
-225 -226 -181 -191 0
-225 -227 -181 -201 0
-225 -228 -181 -211 0
-226 -227 -191 -201 0
-226 -228 -191 -211 0
-227 -228 -201 -211 0
-217 -218 -102 -112 0
-217 -219 -102 -122 0
-217 -220 -102 -132 0
-217 -221 -102 -142 0
-217 -222 -102 -152 0
-217 -223 -102 -162 0
-217 -224 -102 -172 0
-217 -225 -102 -182 0
-217 -226 -102 -192 0
-217 -227 -102 -202 0
-217 -228 -102 -212 0
-218 -219 -112 -122 0
-218 -220 -112 -132 0
-218 -221 -112 -142 0
-218 -222 -112 -152 0
-218 -223 -112 -162 0
-218 -224 -112 -172 0
-218 -225 -112 -182 0
-218 -226 -112 -192 0
-218 -227 -112 -202 0
-218 -228 -112 -212 0
-219 -220 -122 -132 0
-219 -221 -122 -142 0
-219 -222 -122 -152 0
-219 -223 -122 -162 0
-219 -224 -122 -172 0
-219 -225 -122 -182 0
-219 -226 -122 -192 0
-219 -227 -122 -202 0
-219 -228 -122 -212 0
-220 -221 -132 -142 0
-220 -222 -132 -152 0
-220 -223 -132 -162 0
-220 -224 -132 -172 0
-220 -225 -132 -182 0
-220 -226 -132 -192 0
-220 -227 -132 -202 0
-220 -228 -132 -212 0
-221 -222 -142 -152 0
-221 -223 -142 -162 0
-221 -224 -142 -172 0
-221 -225 -142 -182 0
-221 -226 -142 -192 0
-221 -227 -142 -202 0
-221 -228 -142 -212 0
-222 -223 -152 -162 0
-222 -224 -152 -172 0
-222 -225 -152 -182 0
-222 -226 -152 -192 0
-222 -227 -152 -202 0
-222 -228 -152 -212 0
-223 -224 -162 -172 0
-223 -225 -162 -182 0
-223 -226 -162 -192 0
-223 -227 -162 -202 0
-223 -228 -162 -212 0
-224 -225 -172 -182 0
-224 -226 -172 -192 0
-224 -227 -172 -202 0
-224 -228 -172 -212 0
-225 -226 -182 -192 0
-225 -227 -182 -202 0
-225 -228 -182 -212 0
-226 -227 -192 -202 0
-226 -228 -192 -212 0
-227 -228 -202 -212 0
-217 -218 -103 -113 0
-217 -219 -103 -123 0
-217 -220 -103 -133 0
-217 -221 -103 -143 0
-217 -222 -103 -153 0
-217 -223 -103 -163 0
-217 -224 -103 -173 0
-217 -225 -103 -183 0
-217 -226 -103 -193 0
-217 -227 -103 -203 0
-217 -228 -103 -213 0
-218 -219 -113 -123 0
-218 -220 -113 -133 0
-218 -221 -113 -143 0
-218 -222 -113 -153 0
-218 -223 -113 -163 0
-218 -224 -113 -173 0
-218 -225 -113 -183 0
-218 -226 -113 -193 0
-218 -227 -113 -203 0
-218 -228 -113 -213 0
-219 -220 -123 -133 0
-219 -221 -123 -143 0
-219 -222 -123 -153 0
-219 -223 -123 -163 0
-219 -224 -123 -173 0
-219 -225 -123 -183 0
-219 -226 -123 -193 0
-219 -227 -123 -203 0
-219 -228 -123 -213 0
-220 -221 -133 -143 0
-220 -222 -133 -153 0
-220 -223 -133 -163 0
-220 -224 -133 -173 0
-220 -225 -133 -183 0
-220 -226 -133 -193 0
-220 -227 -133 -203 0
-220 -228 -133 -213 0
-221 -222 -143 -153 0
-221 -223 -143 -163 0
-221 -224 -143 -173 0
-221 -225 -143 -183 0
-221 -226 -143 -193 0
-221 -227 -143 -203 0
-221 -228 -143 -213 0
-222 -223 -153 -163 0
-222 -224 -153 -173 0
-222 -225 -153 -183 0
-222 -226 -153 -193 0
-222 -227 -153 -203 0
-222 -228 -153 -213 0
-223 -224 -163 -173 0
-223 -225 -163 -183 0
-223 -226 -163 -193 0
-223 -227 -163 -203 0
-223 -228 -163 -213 0
-224 -225 -173 -183 0
-224 -226 -173 -193 0
-224 -227 -173 -203 0
-224 -228 -173 -213 0
-225 -226 -183 -193 0
-225 -227 -183 -203 0
-225 -228 -183 -213 0
-226 -227 -193 -203 0
-226 -228 -193 -213 0
-227 -228 -203 -213 0
-217 -218 -104 -114 0
-217 -219 -104 -124 0
-217 -220 -104 -134 0
-217 -221 -104 -144 0
-217 -222 -104 -154 0
-217 -223 -104 -164 0
-217 -224 -104 -174 0
-217 -225 -104 -184 0
-217 -226 -104 -194 0
-217 -227 -104 -204 0
-217 -228 -104 -214 0
-218 -219 -114 -124 0
-218 -220 -114 -134 0
-218 -221 -114 -144 0
-218 -222 -114 -154 0
-218 -223 -114 -164 0
-218 -224 -114 -174 0
-218 -225 -114 -184 0
-218 -226 -114 -194 0
-218 -227 -114 -204 0
-218 -228 -114 -214 0
-219 -220 -124 -134 0
-219 -221 -124 -144 0
-219 -222 -124 -154 0
-219 -223 -124 -164 0
-219 -224 -124 -174 0
-219 -225 -124 -184 0
-219 -226 -124 -194 0
-219 -227 -124 -204 0
-219 -228 -124 -214 0
-220 -221 -134 -144 0
-220 -222 -134 -154 0
-220 -223 -134 -164 0
-220 -224 -134 -174 0
-220 -225 -134 -184 0
-220 -226 -134 -194 0
-220 -227 -134 -204 0
-220 -228 -134 -214 0
-221 -222 -144 -154 0
-221 -223 -144 -164 0
-221 -224 -144 -174 0
-221 -225 -144 -184 0
-221 -226 -144 -194 0
-221 -227 -144 -204 0
-221 -228 -144 -214 0
-222 -223 -154 -164 0
-222 -224 -154 -174 0
-222 -225 -154 -184 0
-222 -226 -154 -194 0
-222 -227 -154 -204 0
-222 -228 -154 -214 0
-223 -224 -164 -174 0
-223 -225 -164 -184 0
-223 -226 -164 -194 0
-223 -227 -164 -204 0
-223 -228 -164 -214 0
-224 -225 -174 -184 0
-224 -226 -174 -194 0
-224 -227 -174 -204 0
-224 -228 -174 -214 0
-225 -226 -184 -194 0
-225 -227 -184 -204 0
-225 -228 -184 -214 0
-226 -227 -194 -204 0
-226 -228 -194 -214 0
-227 -228 -204 -214 0
-217 -218 -105 -115 0
-217 -219 -105 -125 0
-217 -220 -105 -135 0
-217 -221 -105 -145 0
-217 -222 -105 -155 0
-217 -223 -105 -165 0
-217 -224 -105 -175 0
-217 -225 -105 -185 0
-217 -226 -105 -195 0
-217 -227 -105 -205 0
-217 -228 -105 -215 0
-218 -219 -115 -125 0
-218 -220 -115 -135 0
-218 -221 -115 -145 0
-218 -222 -115 -155 0
-218 -223 -115 -165 0
-218 -224 -115 -175 0
-218 -225 -115 -185 0
-218 -226 -115 -195 0
-218 -227 -115 -205 0
-218 -228 -115 -215 0
-219 -220 -125 -135 0
-219 -221 -125 -145 0
-219 -222 -125 -155 0
-219 -223 -125 -165 0
-219 -224 -125 -175 0
-219 -225 -125 -185 0
-219 -226 -125 -195 0
-219 -227 -125 -205 0
-219 -228 -125 -215 0
-220 -221 -135 -145 0
-220 -222 -135 -155 0
-220 -223 -135 -165 0
-220 -224 -135 -175 0
-220 -225 -135 -185 0
-220 -226 -135 -195 0
-220 -227 -135 -205 0
-220 -228 -135 -215 0
-221 -222 -145 -155 0
-221 -223 -145 -165 0
-221 -224 -145 -175 0
-221 -225 -145 -185 0
-221 -226 -145 -195 0
-221 -227 -145 -205 0
-221 -228 -145 -215 0
-222 -223 -155 -165 0
-222 -224 -155 -175 0
-222 -225 -155 -185 0
-222 -226 -155 -195 0
-222 -227 -155 -205 0
-222 -228 -155 -215 0
-223 -224 -165 -175 0
-223 -225 -165 -185 0
-223 -226 -165 -195 0
-223 -227 -165 -205 0
-223 -228 -165 -215 0
-224 -225 -175 -185 0
-224 -226 -175 -195 0
-224 -227 -175 -205 0
-224 -228 -175 -215 0
-225 -226 -185 -195 0
-225 -227 -185 -205 0
-225 -228 -185 -215 0
-226 -227 -195 -205 0
-226 -228 -195 -215 0
-227 -228 -205 -215 0
-217 -218 -106 -116 0
-217 -219 -106 -126 0
-217 -220 -106 -136 0
-217 -221 -106 -146 0
-217 -222 -106 -156 0
-217 -223 -106 -166 0
-217 -224 -106 -176 0
-217 -225 -106 -186 0
-217 -226 -106 -196 0
-217 -227 -106 -206 0
-217 -228 -106 -216 0
-218 -219 -116 -126 0
-218 -220 -116 -136 0
-218 -221 -116 -146 0
-218 -222 -116 -156 0
-218 -223 -116 -166 0
-218 -224 -116 -176 0
-218 -225 -116 -186 0
-218 -226 -116 -196 0
-218 -227 -116 -206 0
-218 -228 -116 -216 0
-219 -220 -126 -136 0
-219 -221 -126 -146 0
-219 -222 -126 -156 0
-219 -223 -126 -166 0
-219 -224 -126 -176 0
-219 -225 -126 -186 0
-219 -226 -126 -196 0
-219 -227 -126 -206 0
-219 -228 -126 -216 0
-220 -221 -136 -146 0
-220 -222 -136 -156 0
-220 -223 -136 -166 0
-220 -224 -136 -176 0
-220 -225 -136 -186 0
-220 -226 -136 -196 0
-220 -227 -136 -206 0
-220 -228 -136 -216 0
-221 -222 -146 -156 0
-221 -223 -146 -166 0
-221 -224 -146 -176 0
-221 -225 -146 -186 0
-221 -226 -146 -196 0
-221 -227 -146 -206 0
-221 -228 -146 -216 0
-222 -223 -156 -166 0
-222 -224 -156 -176 0
-222 -225 -156 -186 0
-222 -226 -156 -196 0
-222 -227 -156 -206 0
-222 -228 -156 -216 0
-223 -224 -166 -176 0
-223 -225 -166 -186 0
-223 -226 -166 -196 0
-223 -227 -166 -206 0
-223 -228 -166 -216 0
-224 -225 -176 -186 0
-224 -226 -176 -196 0
-224 -227 -176 -206 0
-224 -228 -176 -216 0
-225 -226 -186 -196 0
-225 -227 -186 -206 0
-225 -228 -186 -216 0
-226 -227 -196 -206 0
-226 -228 -196 -216 0
-227 -228 -206 -216 0
