c description: Pigeonhole principle formula for 7 pigeons and 6 holes (reshuffled)
c generator: CNFgen (0.9.5)
c copyright: (C) 2012-2026 Massimo Lauria <massimo.lauria@uniroma1.it>
c url: https://massimolauria.net/cnfgen
c transformation 1: Formula reshuffling
c random seed: 31218
c command line: cnfgen -S 31218 -o cnfgen_regression_pack/cnfgen_cases/shuffle_php_p7_h6_unsat.cnf php 7 6 -T shuffle
c
c known_status: UNSAT
c pack_family: pigeonhole_transform
c pack_level: moderate
c pack_notes: satisfiability-preserving CNFgen transformation
p cnf 42 133
-32 -21 0
28 -32 0
-22 -41 0
-38 -25 0
17 -9 0
20 -1 0
3 18 0
21 9 -15 -20 -5 -10 0
3 -13 0
-24 31 0
28 36 0
40 14 0
-33 -11 0
-34 -25 0
-8 -21 0
18 16 0
7 -19 0
28 -21 0
17 -29 0
-27 15 0
-27 18 0
-38 -4 0
-4 -25 0
12 14 0
17 -22 0
-4 10 0
-22 -9 0
-23 30 0
6 30 0
40 5 0
-34 -11 0
-42 36 0
17 -41 0
8 22 -35 -6 -7 38 0
5 -19 0
3 35 0
-42 -8 0
2 20 0
2 -1 0
12 5 0
18 15 0
6 2 0
-32 26 0
-11 -25 0
35 16 0
35 15 0
15 16 0
16 -13 0
-38 -34 0
-26 -31 13 1 19 25 0
17 31 0
-29 -9 0
-33 -25 0
-8 28 0
-29 -41 0
12 -37 0
32 41 -18 23 37 4 0
-8 36 0
5 14 0
-29 -24 0
-33 -38 0
17 -24 0
30 -1 0
42 -17 -3 -39 -12 33 0
10 -11 0
-23 20 0
7 5 0
-27 16 0
14 -19 0
-41 31 0
3 -27 0
-41 -9 0
-38 -11 0
-29 31 0
-37 14 0
2 30 0
-22 31 0
-23 -1 0
3 15 0
-42 -32 0
36 26 0
35 -27 0
-33 10 0
-22 -24 0
12 40 0
39 20 0
-21 36 0
40 -37 0
-37 5 0
3 16 0
6 -23 0
39 2 0
39 30 0
12 7 0
-42 -21 0
-42 28 0
39 -1 0
12 -19 0
-34 -4 0
-33 -34 0
39 -23 0
35 18 0
-8 -32 0
28 26 0
-28 29 27 -2 -40 34 0
-22 -29 0
7 -37 0
-32 36 0
-4 -11 0
-42 26 0
6 20 0
40 -19 0
-27 -13 0
10 -25 0
-41 -24 0
18 -13 0
-8 26 0
6 -1 0
2 -23 0
-9 31 0
-38 10 0
-36 24 -16 -30 -14 11 0
7 14 0
15 -13 0
-33 -4 0
35 -13 0
39 6 0
20 30 0
-37 -19 0
-34 10 0
-21 26 0
-9 -24 0
7 40 0
