c description: Counting Principle: 7 divided in parts of size 3. (reshuffled)
c generator: CNFgen (0.9.5)
c copyright: (C) 2012-2026 Massimo Lauria <massimo.lauria@uniroma1.it>
c url: https://massimolauria.net/cnfgen
c transformation 1: Formula reshuffling
c random seed: 31223
c command line: cnfgen -S 31223 -o cnfgen_regression_pack/cnfgen_cases/shuffle_count_m7_p3_unsat.cnf count 7 3 -T shuffle
c
c known_status: UNSAT
c pack_family: counting_transform
c pack_level: moderate
c pack_notes: satisfiability-preserving CNFgen transformation
p cnf 35 742
16 17 0
15 -19 0
-19 13 0
-27 8 0
26 -29 0
-24 7 0
35 13 0
-32 -28 0
-32 -20 0
-3 1 0
-19 -29 0
-31 -19 0
22 -28 0
17 35 0
12 -25 0
18 -30 0
15 8 0
-24 17 0
23 12 0
-30 -4 0
-31 -29 0
-32 11 0
32 6 -23 -11 -12 24 -9 -16 -22 -17 -26 34 -35 -2 30 0
-6 -24 0
14 -19 0
-27 5 0
-27 18 0
23 14 0
12 -30 0
12 -27 0
11 -27 0
11 -30 0
18 -20 0
-28 13 0
16 -4 0
15 17 0
-32 -6 0
-20 8 0
-3 17 0
23 13 0
2 13 0
-33 -24 0
18 -28 0
-3 21 0
-31 15 0
-33 13 0
9 22 0
26 2 0
22 -20 0
14 -28 0
35 -29 0
1 -27 0
23 -31 0
22 2 0
1 26 0
-32 7 0
9 -25 0
1 2 0
18 35 0
21 18 0
-32 -30 0
14 9 0
-30 -29 0
16 7 0
14 -27 0
-6 26 0
17 5 0
12 15 0
11 12 0
23 11 0
-32 15 0
-24 22 0
22 -19 0
-31 -28 0
26 -30 0
-24 -20 0
18 -4 0
12 -24 0
23 18 0
-28 -4 0
13 8 0
-10 18 0
14 17 0
9 8 0
23 26 0
-27 -25 0
-6 1 0
26 7 0
-27 2 0
-3 13 0
-31 -34 0
11 35 0
-29 8 0
-6 21 0
-24 7 0
21 -20 0
-6 -34 0
35 2 0
-32 23 0
17 13 0
-33 -31 0
21 -4 0
-10 -28 0
23 5 0
9 -25 0
-6 17 0
-33 -4 0
23 8 0
17 26 0
23 15 0
-28 -20 0
1 -30 0
15 26 0
-30 -20 0
1 8 0
-10 26 0
-31 -4 0
-33 -31 0
32 6 -23 -11 -12 33 -14 10 31 3 -21 -15 -1 27 -18 0
17 -4 0
1 13 0
14 -25 0
-27 8 0
-10 21 0
23 -27 0
-6 -33 0
21 -24 0
-33 7 0
-32 -29 0
14 -25 0
26 5 0
-34 -30 0
11 16 0
13 5 0
-24 -19 0
17 35 0
2 -4 0
22 -34 0
21 26 0
7 -4 0
-24 22 0
-34 -30 0
-6 16 0
-33 -10 0
-6 -27 0
-10 1 0
-3 15 0
-6 -4 0
-32 16 0
23 17 0
2 -25 0
18 16 0
35 8 0
-33 -34 0
32 33 -14 10 31 24 -9 -16 -22 -7 19 28 29 25 20 0
21 7 0
-33 -19 0
16 35 0
9 7 0
-3 7 0
12 1 0
-3 5 0
9 5 0
-29 -20 0
9 -28 0
21 35 0
-25 13 0
12 -28 0
-3 7 0
-10 8 0
1 5 0
35 -25 0
15 -4 0
12 16 0
-19 8 0
22 2 0
-10 1 0
17 2 0
-20 -4 0
14 -29 0
-6 5 0
-32 12 0
17 -34 0
11 21 0
-6 18 0
14 1 0
9 -30 0
23 9 0
-4 8 0
21 -30 0
-24 -34 0
-28 -29 0
14 -3 0
-10 -20 0
23 -29 0
1 -29 0
-19 -4 0
-24 16 0
21 5 0
12 22 0
11 -3 0
9 13 0
-6 14 0
7 -29 0
12 18 0
-33 17 0
35 -4 0
17 -19 0
-10 -19 0
15 -28 0
15 5 0
-29 8 0
23 -3 0
-33 18 0
18 -29 0
-34 -20 0
-32 26 0
14 9 0
1 35 0
-24 -4 0
21 15 0
5 8 0
-3 9 0
-6 15 0
-10 13 0
35 -19 0
-32 -19 0
-32 -24 0
-19 5 0
11 -20 0
23 1 0
-20 5 0
35 5 0
-29 -20 0
-31 -3 0
-27 18 0
-32 9 0
18 -20 0
-27 13 0
-25 5 0
14 -20 0
-6 11 0
-27 17 0
-34 -4 0
15 13 0
6 33 3 -21 -15 24 -17 -26 34 -7 19 28 -13 -5 4 0
-33 -10 0
16 -29 0
5 -4 0
22 35 0
-33 15 0
-32 12 0
-24 2 0
2 -20 0
23 35 0
-27 2 0
-3 8 0
22 -20 0
15 18 0
22 -4 0
26 35 0
-19 13 0
-32 -33 0
-29 -4 0
22 8 0
-19 -28 0
9 -29 0
11 -4 0
-27 -34 0
-33 21 0
-33 -28 0
-3 26 0
1 -4 0
23 -10 0
-32 2 0
-10 -20 0
1 35 0
-27 -28 0
12 8 0
17 5 0
-19 -25 0
14 22 0
23 35 0
15 -20 0
14 -10 0
-25 8 0
2 -30 0
-32 -24 0
-10 -25 0
26 -28 0
9 -20 0
9 -29 0
21 -34 0
-6 -3 0
-31 15 0
16 22 0
-30 -25 0
11 22 0
16 35 0
-34 -19 0
-4 8 0
-33 22 0
-10 16 0
-32 -31 0
14 21 0
1 -20 0
-6 -10 0
1 -27 0
-31 16 0
16 -25 0
15 1 0
12 5 0
-32 35 0
-3 15 0
7 13 0
1 16 0
12 9 0
11 26 0
11 9 0
21 1 0
7 -19 0
18 -19 0
-32 14 0
-33 14 0
-31 18 0
9 16 0
16 13 0
16 22 0
-10 -30 0
23 -30 0
-31 7 0
-28 -20 0
-3 -29 0
11 14 0
-31 1 0
-30 -19 0
-34 -28 0
14 7 0
9 26 0
11 -33 0
17 7 0
26 -20 0
11 26 0
-29 13 0
12 35 0
11 1 0
11 -19 0
-25 -4 0
12 2 0
14 16 0
-10 22 0
-32 -25 0
16 -19 0
26 35 0
2 5 0
14 -3 0
-3 5 0
11 1 0
1 7 0
26 8 0
-32 -10 0
-30 8 0
12 -3 0
-31 -24 0
16 -30 0
7 5 0
-29 -25 0
-32 17 0
18 26 0
12 22 0
-31 -27 0
12 -27 0
21 16 0
-31 -25 0
26 -34 0
16 -30 0
11 -31 0
7 -25 0
15 -25 0
-10 -4 0
-32 -31 0
12 -4 0
21 26 0
-3 2 0
-32 -3 0
-24 -30 0
12 -34 0
-3 -34 0
-31 21 0
-33 1 0
26 -19 0
-32 18 0
2 -29 0
-10 -29 0
21 1 0
35 -30 0
11 35 0
23 1 0
-29 5 0
14 13 0
-25 5 0
18 -25 0
-30 13 0
22 -25 0
-6 23 0
17 8 0
-33 5 0
11 -30 0
-32 1 0
7 -20 0
21 -28 0
9 2 0
-24 -34 0
-31 -27 0
-3 -4 0
14 5 0
-6 -30 0
12 -20 0
-33 7 0
15 2 0
23 -3 0
11 21 0
22 -30 0
-32 -27 0
-10 21 0
-6 -24 0
1 18 0
35 -29 0
26 13 0
12 17 0
12 14 0
22 26 0
-27 9 0
14 -27 0
2 -30 0
-32 9 0
17 7 0
-11 10 -21 -1 -18 -16 -26 -35 30 19 29 20 -13 4 -8 0
18 -4 0
15 22 0
26 13 0
21 13 0
1 -25 0
23 7 0
-3 -27 0
-6 9 0
9 -34 0
-6 21 0
2 -25 0
-10 -19 0
-31 -28 0
15 18 0
-31 -20 0
17 13 0
-19 -4 0
21 -19 0
16 26 0
-34 5 0
-32 -34 0
14 8 0
12 -31 0
7 -25 0
23 -34 0
1 17 0
-31 -25 0
11 17 0
-10 15 0
18 8 0
16 26 0
22 7 0
7 5 0
-6 13 0
9 22 0
-31 18 0
-3 21 0
17 -30 0
-10 -31 0
-10 -29 0
-30 -4 0
11 -10 0
11 -10 0
-33 -29 0
-34 -4 0
2 7 0
11 18 0
11 -34 0
-3 -19 0
17 -34 0
12 21 0
-31 2 0
-31 22 0
-33 26 0
-10 18 0
-3 -28 0
14 -10 0
-24 35 0
-27 35 0
11 8 0
13 -4 0
26 -34 0
-33 21 0
-32 22 0
14 -29 0
-10 -3 0
-3 13 0
12 26 0
-20 8 0
17 -28 0
26 -4 0
-33 16 0
-34 13 0
12 -34 0
-6 -34 0
-28 -4 0
-31 -30 0
-24 26 0
-24 9 0
12 18 0
12 15 0
-34 7 0
23 -27 0
7 -28 0
-34 2 0
-6 12 0
1 9 0
-27 -29 0
11 12 0
2 5 0
21 -27 0
35 -20 0
-3 17 0
-34 5 0
11 16 0
15 -27 0
-33 -3 0
15 -34 0
-19 -20 0
15 -34 0
-27 22 0
21 -4 0
-20 13 0
15 5 0
-33 -25 0
18 8 0
-6 12 0
-32 23 0
-3 18 0
-27 -4 0
23 2 0
14 18 0
-3 35 0
-6 15 0
-10 16 0
17 -25 0
-10 9 0
14 15 0
-6 -3 0
21 18 0
18 5 0
18 2 0
-33 -3 0
18 13 0
35 8 0
12 -10 0
-3 -24 0
-32 -33 0
-23 -14 3 -1 27 -9 -17 -35 -2 -7 29 25 -13 -5 -8 0
-6 23 0
1 18 0
-28 -25 0
-10 -31 0
9 2 0
15 -28 0
-33 -24 0
18 -30 0
-27 -30 0
21 13 0
16 -19 0
16 -34 0
1 13 0
-29 13 0
-34 8 0
-24 5 0
23 14 0
-30 8 0
21 -29 0
23 21 0
-30 -20 0
-31 5 0
23 9 0
14 1 0
16 2 0
17 2 0
-6 17 0
5 -4 0
26 -19 0
14 7 0
-10 -27 0
-33 -19 0
-33 -28 0
7 8 0
9 17 0
-25 8 0
-33 9 0
-33 15 0
-31 -20 0
-32 16 0
-31 8 0
23 16 0
11 2 0
-32 -6 0
-28 8 0
-25 -20 0
-6 -28 0
21 8 0
21 17 0
-32 22 0
12 2 0
-6 35 0
-20 -4 0
22 -34 0
-28 5 0
-27 -20 0
23 11 0
13 -4 0
12 -33 0
-24 16 0
16 8 0
14 -24 0
15 -27 0
-6 2 0
-6 11 0
16 -29 0
7 -28 0
18 22 0
-6 7 0
-6 -19 0
-19 -20 0
-34 2 0
11 -29 0
13 5 0
22 5 0
17 26 0
7 13 0
18 -34 0
15 -24 0
-34 35 0
7 -19 0
23 12 0
-24 -28 0
17 -29 0
9 35 0
14 -31 0
-3 -25 0
15 -30 0
-28 5 0
22 -28 0
-24 13 0
-30 -28 0
-19 -28 0
-27 -25 0
-3 1 0
-6 22 0
16 -20 0
-33 14 0
11 -24 0
-6 26 0
-27 7 0
-34 -28 0
5 8 0
-28 -25 0
35 13 0
-19 -29 0
23 -25 0
-24 17 0
-32 -10 0
-25 -20 0
22 -30 0
23 17 0
23 2 0
11 18 0
-12 31 -15 27 -18 -22 34 -2 30 28 25 20 -5 4 -8 0
12 -30 0
15 7 0
23 -33 0
11 15 0
9 -19 0
21 15 0
14 -31 0
-31 9 0
9 35 0
35 2 0
9 7 0
14 2 0
35 7 0
23 22 0
-24 -28 0
22 17 0
14 35 0
-24 -19 0
-10 35 0
-10 -24 0
16 -20 0
-33 -20 0
26 -4 0
-24 26 0
-27 5 0
-3 -27 0
-29 -25 0
-6 -31 0
-32 14 0
-10 7 0
23 -24 0
13 8 0
2 8 0
1 8 0
1 -29 0
-24 -29 0
-32 11 0
-32 21 0
22 -25 0
9 17 0
26 -30 0
9 16 0
21 -19 0
-6 -33 0
12 -31 0
-33 -27 0
-24 9 0
1 -19 0
-30 5 0
15 -4 0
-24 -25 0
11 13 0
16 -28 0
35 -30 0
-31 22 0
22 -29 0
2 -28 0
2 8 0
-34 -25 0
7 -29 0
