c description: Sparse stone formula of Complete binary tree of height 3 with 5 stones
c generator: CNFgen (0.9.5)
c copyright: (C) 2012-2026 Massimo Lauria <massimo.lauria@uniroma1.it>
c url: https://massimolauria.net/cnfgen
c random seed: 31217
c command line: cnfgen -S 31217 -o cnfgen_regression_pack/cnfgen_cases/stone5_tree3_unsat.cnf stone 5 tree 3 --sparse 3
c
c known_status: UNSAT
c pack_family: stone
c pack_level: moderate
c pack_notes: sparse stone formula
p cnf 50 159
6 7 8 0
9 10 11 0
12 13 14 0
15 16 17 0
18 19 20 0
21 22 23 0
24 25 26 0
27 28 29 0
30 31 32 0
33 34 35 0
36 37 38 0
39 40 41 0
42 43 44 0
45 46 47 0
48 49 50 0
-6 2 0
-7 3 0
-8 4 0
-9 2 0
-10 4 0
-11 5 0
-12 2 0
-13 3 0
-14 5 0
-15 1 0
-16 2 0
-17 4 0
-18 2 0
-19 3 0
-20 4 0
-21 1 0
-22 3 0
-23 4 0
-24 2 0
-25 3 0
-26 5 0
-27 3 0
-28 4 0
-29 5 0
-7 -10 -30 -3 -4 2 0
-7 -11 -30 -3 -5 2 0
-8 -10 -30 -4 2 0
-8 -11 -30 -4 -5 2 0
-6 -9 -31 -2 4 0
-6 -11 -31 -2 -5 4 0
-7 -9 -31 -3 -2 4 0
-7 -11 -31 -3 -5 4 0
-6 -9 -32 -2 5 0
-6 -10 -32 -2 -4 5 0
-7 -9 -32 -3 -2 5 0
-7 -10 -32 -3 -4 5 0
-8 -9 -32 -4 -2 5 0
-8 -10 -32 -4 5 0
-12 -16 -33 -2 1 0
-12 -17 -33 -2 -4 1 0
-13 -16 -33 -3 -2 1 0
-13 -17 -33 -3 -4 1 0
-14 -16 -33 -5 -2 1 0
-14 -17 -33 -5 -4 1 0
-12 -15 -34 -2 -1 4 0
-12 -16 -34 -2 4 0
-13 -15 -34 -3 -1 4 0
-13 -16 -34 -3 -2 4 0
-14 -15 -34 -5 -1 4 0
-14 -16 -34 -5 -2 4 0
-12 -15 -35 -2 -1 5 0
-12 -16 -35 -2 5 0
-12 -17 -35 -2 -4 5 0
-13 -15 -35 -3 -1 5 0
-13 -16 -35 -3 -2 5 0
-13 -17 -35 -3 -4 5 0
-18 -22 -36 -2 -3 1 0
-18 -23 -36 -2 -4 1 0
-19 -22 -36 -3 1 0
-19 -23 -36 -3 -4 1 0
-20 -22 -36 -4 -3 1 0
-20 -23 -36 -4 1 0
-18 -21 -37 -2 -1 4 0
-18 -22 -37 -2 -3 4 0
-19 -21 -37 -3 -1 4 0
-19 -22 -37 -3 4 0
-18 -21 -38 -2 -1 5 0
-18 -22 -38 -2 -3 5 0
-18 -23 -38 -2 -4 5 0
-19 -21 -38 -3 -1 5 0
-19 -22 -38 -3 5 0
-19 -23 -38 -3 -4 5 0
-20 -21 -38 -4 -1 5 0
-20 -22 -38 -4 -3 5 0
-20 -23 -38 -4 5 0
-24 -28 -39 -2 -4 3 0
-24 -29 -39 -2 -5 3 0
-26 -28 -39 -5 -4 3 0
-26 -29 -39 -5 3 0
-24 -27 -40 -2 -3 4 0
-24 -29 -40 -2 -5 4 0
-25 -27 -40 -3 4 0
-25 -29 -40 -3 -5 4 0
-26 -27 -40 -5 -3 4 0
-26 -29 -40 -5 4 0
-24 -27 -41 -2 -3 5 0
-24 -28 -41 -2 -4 5 0
-25 -27 -41 -3 5 0
-25 -28 -41 -3 -4 5 0
-31 -33 -42 -4 -1 2 0
-31 -34 -42 -4 2 0
-31 -35 -42 -4 -5 2 0
-32 -33 -42 -5 -1 2 0
-32 -34 -42 -5 -4 2 0
-32 -35 -42 -5 2 0
-30 -33 -43 -2 -1 4 0
-30 -35 -43 -2 -5 4 0
-32 -33 -43 -5 -1 4 0
-32 -35 -43 -5 4 0
-30 -33 -44 -2 -1 5 0
-30 -34 -44 -2 -4 5 0
-31 -33 -44 -4 -1 5 0
-31 -34 -44 -4 5 0
-36 -39 -45 -1 -3 2 0
-36 -40 -45 -1 -4 2 0
-36 -41 -45 -1 -5 2 0
-37 -39 -45 -4 -3 2 0
-37 -40 -45 -4 2 0
-37 -41 -45 -4 -5 2 0
-38 -39 -45 -5 -3 2 0
-38 -40 -45 -5 -4 2 0
-38 -41 -45 -5 2 0
-36 -40 -46 -1 -4 3 0
-36 -41 -46 -1 -5 3 0
-37 -40 -46 -4 3 0
-37 -41 -46 -4 -5 3 0
-38 -40 -46 -5 -4 3 0
-38 -41 -46 -5 3 0
-36 -39 -47 -1 -3 4 0
-36 -41 -47 -1 -5 4 0
-38 -39 -47 -5 -3 4 0
-38 -41 -47 -5 4 0
-42 -45 -48 -2 1 0
-42 -46 -48 -2 -3 1 0
-42 -47 -48 -2 -4 1 0
-43 -45 -48 -4 -2 1 0
-43 -46 -48 -4 -3 1 0
-43 -47 -48 -4 1 0
-44 -45 -48 -5 -2 1 0
-44 -46 -48 -5 -3 1 0
-44 -47 -48 -5 -4 1 0
-42 -45 -49 -2 4 0
-42 -46 -49 -2 -3 4 0
-44 -45 -49 -5 -2 4 0
-44 -46 -49 -5 -3 4 0
-42 -45 -50 -2 5 0
-42 -46 -50 -2 -3 5 0
-42 -47 -50 -2 -4 5 0
-43 -45 -50 -4 -2 5 0
-43 -46 -50 -4 -3 5 0
-43 -47 -50 -4 5 0
-48 -1 0
-49 -4 0
-50 -5 0
