c description: the complete graph of order 4 is not a subgraph of the complete graph of order 5
c generator: CNFgen (0.9.5)
c copyright: (C) 2012-2026 Massimo Lauria <massimo.lauria@uniroma1.it>
c url: https://massimolauria.net/cnfgen
c random seed: 31203
c command line: cnfgen -S 31203 -o cnfgen_regression_pack/cnfgen_cases/subgraph_k4_in_k5_sat.cnf subgraph -G complete 5 -H complete 4
c
c known_status: SAT
c pack_family: subgraph
c pack_level: easy
c pack_notes: subgraph containment
p cnf 20 74
1 2 3 4 5 0
6 7 8 9 10 0
11 12 13 14 15 0
16 17 18 19 20 0
-1 -2 0
-1 -3 0
-1 -4 0
-1 -5 0
-2 -3 0
-2 -4 0
-2 -5 0
-3 -4 0
-3 -5 0
-4 -5 0
-6 -7 0
-6 -8 0
-6 -9 0
-6 -10 0
-7 -8 0
-7 -9 0
-7 -10 0
-8 -9 0
-8 -10 0
-9 -10 0
-11 -12 0
-11 -13 0
-11 -14 0
-11 -15 0
-12 -13 0
-12 -14 0
-12 -15 0
-13 -14 0
-13 -15 0
-14 -15 0
-16 -17 0
-16 -18 0
-16 -19 0
-16 -20 0
-17 -18 0
-17 -19 0
-17 -20 0
-18 -19 0
-18 -20 0
-19 -20 0
-1 -6 0
-1 -11 0
-1 -16 0
-6 -11 0
-6 -16 0
-11 -16 0
-2 -7 0
-2 -12 0
-2 -17 0
-7 -12 0
-7 -17 0
-12 -17 0
-3 -8 0
-3 -13 0
-3 -18 0
-8 -13 0
-8 -18 0
-13 -18 0
-4 -9 0
-4 -14 0
-4 -19 0
-9 -14 0
-9 -19 0
-14 -19 0
-5 -10 0
-5 -15 0
-5 -20 0
-10 -15 0
-10 -20 0
-15 -20 0
