c description: Subset cardinality formula for Random regular bipartite with (16,16) vertices and left degree 4 + 1 random edges
c generator: CNFgen (0.9.5)
c copyright: (C) 2012-2026 Massimo Lauria <massimo.lauria@uniroma1.it>
c url: https://massimolauria.net/cnfgen
c random seed: 31211
c command line: cnfgen -S 31211 -o cnfgen_regression_pack/cnfgen_cases/subsetcard_n16_unsat.cnf subsetcard 16
c
c known_status: UNSAT
c pack_family: subset_cardinality
c pack_level: moderate
c pack_notes: subset cardinality principle
p cnf 65 140
1 2 3 0
1 2 4 0
1 3 4 0
2 3 4 0
5 6 7 0
5 6 8 0
5 7 8 0
6 7 8 0
9 10 11 0
9 10 12 0
9 11 12 0
10 11 12 0
13 14 15 0
13 14 16 0
13 15 16 0
14 15 16 0
17 18 19 0
17 18 20 0
17 19 20 0
18 19 20 0
21 22 23 0
21 22 24 0
21 23 24 0
22 23 24 0
25 26 27 0
25 26 28 0
25 27 28 0
26 27 28 0
29 30 31 0
29 30 32 0
29 31 32 0
30 31 32 0
33 34 35 0
33 34 36 0
33 35 36 0
34 35 36 0
37 38 39 0
37 38 40 0
37 38 41 0
37 39 40 0
37 39 41 0
37 40 41 0
38 39 40 0
38 39 41 0
38 40 41 0
39 40 41 0
42 43 44 0
42 43 45 0
42 44 45 0
43 44 45 0
46 47 48 0
46 47 49 0
46 48 49 0
47 48 49 0
50 51 52 0
50 51 53 0
50 52 53 0
51 52 53 0
54 55 56 0
54 55 57 0
54 56 57 0
55 56 57 0
58 59 60 0
58 59 61 0
58 60 61 0
59 60 61 0
62 63 64 0
62 63 65 0
62 64 65 0
63 64 65 0
-9 -42 -50 0
-9 -42 -62 0
-9 -50 -62 0
-42 -50 -62 0
-13 -21 -25 0
-13 -21 -63 0
-13 -25 -63 0
-21 -25 -63 0
-1 -46 -54 0
-1 -46 -64 0
-1 -54 -64 0
-46 -54 -64 0
-29 -33 -37 0
-29 -33 -51 0
-29 -37 -51 0
-33 -37 -51 0
-22 -30 -34 0
-22 -30 -58 0
-22 -34 -58 0
-30 -34 -58 0
-17 -23 -26 0
-17 -23 -38 0
-17 -23 -47 0
-17 -26 -38 0
-17 -26 -47 0
-17 -38 -47 0
-23 -26 -38 0
-23 -26 -47 0
-23 -38 -47 0
-26 -38 -47 0
-14 -24 -52 0
-14 -24 -59 0
-14 -52 -59 0
-24 -52 -59 0
-5 -10 -39 0
-5 -10 -53 0
-5 -39 -53 0
-10 -39 -53 0
-6 -43 -55 0
-6 -43 -60 0
-6 -55 -60 0
-43 -55 -60 0
-2 -11 -15 0
-2 -11 -56 0
-2 -15 -56 0
-11 -15 -56 0
-3 -12 -18 0
-3 -12 -48 0
-3 -18 -48 0
-12 -18 -48 0
-7 -19 -27 0
-7 -19 -44 0
-7 -27 -44 0
-19 -27 -44 0
-16 -31 -40 0
-16 -31 -65 0
-16 -40 -65 0
-31 -40 -65 0
-8 -35 -41 0
-8 -35 -61 0
-8 -41 -61 0
-35 -41 -61 0
-20 -28 -49 0
-20 -28 -57 0
-20 -49 -57 0
-28 -49 -57 0
-4 -32 -36 0
-4 -32 -45 0
-4 -36 -45 0
-32 -36 -45 0
