c description: Tseitin formula on Random 4-regular graph of 64 vertices, with odd charge
c generator: CNFgen (0.9.5)
c copyright: (C) 2012-2026 Massimo Lauria <massimo.lauria@uniroma1.it>
c url: https://massimolauria.net/cnfgen
c random seed: 31168
c command line: cnfgen -S 31168 -o cnfgen_regression_pack/cnfgen_cases/tseitin_first_v64_d4_unsat.cnf tseitin first gnd 64 4
c
c known_status: UNSAT
c pack_family: tseitin
c pack_level: moderate
c pack_notes: Tseitin formula on random regular graph
p cnf 128 512
1 2 3 4 0
1 2 -3 -4 0
1 -2 3 -4 0
1 -2 -3 4 0
-1 2 3 -4 0
-1 2 -3 4 0
-1 -2 3 4 0
-1 -2 -3 -4 0
5 6 7 -8 0
5 6 -7 8 0
5 -6 7 8 0
5 -6 -7 -8 0
-5 6 7 8 0
-5 6 -7 -8 0
-5 -6 7 -8 0
-5 -6 -7 8 0
9 10 11 -12 0
9 10 -11 12 0
9 -10 11 12 0
9 -10 -11 -12 0
-9 10 11 12 0
-9 10 -11 -12 0
-9 -10 11 -12 0
-9 -10 -11 12 0
13 14 15 -16 0
13 14 -15 16 0
13 -14 15 16 0
13 -14 -15 -16 0
-13 14 15 16 0
-13 14 -15 -16 0
-13 -14 15 -16 0
-13 -14 -15 16 0
17 18 19 -20 0
17 18 -19 20 0
17 -18 19 20 0
17 -18 -19 -20 0
-17 18 19 20 0
-17 18 -19 -20 0
-17 -18 19 -20 0
-17 -18 -19 20 0
21 22 23 -24 0
21 22 -23 24 0
21 -22 23 24 0
21 -22 -23 -24 0
-21 22 23 24 0
-21 22 -23 -24 0
-21 -22 23 -24 0
-21 -22 -23 24 0
25 26 27 -28 0
25 26 -27 28 0
25 -26 27 28 0
25 -26 -27 -28 0
-25 26 27 28 0
-25 26 -27 -28 0
-25 -26 27 -28 0
-25 -26 -27 28 0
29 30 31 -32 0
29 30 -31 32 0
29 -30 31 32 0
29 -30 -31 -32 0
-29 30 31 32 0
-29 30 -31 -32 0
-29 -30 31 -32 0
-29 -30 -31 32 0
33 34 35 -36 0
33 34 -35 36 0
33 -34 35 36 0
33 -34 -35 -36 0
-33 34 35 36 0
-33 34 -35 -36 0
-33 -34 35 -36 0
-33 -34 -35 36 0
37 38 39 -40 0
37 38 -39 40 0
37 -38 39 40 0
37 -38 -39 -40 0
-37 38 39 40 0
-37 38 -39 -40 0
-37 -38 39 -40 0
-37 -38 -39 40 0
1 9 41 -42 0
1 9 -41 42 0
1 -9 41 42 0
1 -9 -41 -42 0
-1 9 41 42 0
-1 9 -41 -42 0
-1 -9 41 -42 0
-1 -9 -41 42 0
25 43 44 -45 0
25 43 -44 45 0
25 -43 44 45 0
25 -43 -44 -45 0
-25 43 44 45 0
-25 43 -44 -45 0
-25 -43 44 -45 0
-25 -43 -44 45 0
13 21 46 -47 0
13 21 -46 47 0
13 -21 46 47 0
13 -21 -46 -47 0
-13 21 46 47 0
-13 21 -46 -47 0
-13 -21 46 -47 0
-13 -21 -46 47 0
43 48 49 -50 0
43 48 -49 50 0
43 -48 49 50 0
43 -48 -49 -50 0
-43 48 49 50 0
-43 48 -49 -50 0
-43 -48 49 -50 0
-43 -48 -49 50 0
14 51 52 -53 0
14 51 -52 53 0
14 -51 52 53 0
14 -51 -52 -53 0
-14 51 52 53 0
-14 51 -52 -53 0
-14 -51 52 -53 0
-14 -51 -52 53 0
44 54 55 -56 0
44 54 -55 56 0
44 -54 55 56 0
44 -54 -55 -56 0
-44 54 55 56 0
-44 54 -55 -56 0
-44 -54 55 -56 0
-44 -54 -55 56 0
51 57 58 -59 0
51 57 -58 59 0
51 -57 58 59 0
51 -57 -58 -59 0
-51 57 58 59 0
-51 57 -58 -59 0
-51 -57 58 -59 0
-51 -57 -58 59 0
17 60 61 -62 0
17 60 -61 62 0
17 -60 61 62 0
17 -60 -61 -62 0
-17 60 61 62 0
-17 60 -61 -62 0
-17 -60 61 -62 0
-17 -60 -61 62 0
22 63 64 -65 0
22 63 -64 65 0
22 -63 64 65 0
22 -63 -64 -65 0
-22 63 64 65 0
-22 63 -64 -65 0
-22 -63 64 -65 0
-22 -63 -64 65 0
5 29 66 -67 0
5 29 -66 67 0
5 -29 66 67 0
5 -29 -66 -67 0
-5 29 66 67 0
-5 29 -66 -67 0
-5 -29 66 -67 0
-5 -29 -66 67 0
2 6 68 -69 0
2 6 -68 69 0
2 -6 68 69 0
2 -6 -68 -69 0
-2 6 68 69 0
-2 6 -68 -69 0
-2 -6 68 -69 0
-2 -6 -68 69 0
45 60 70 -71 0
45 60 -70 71 0
45 -60 70 71 0
45 -60 -70 -71 0
-45 60 70 71 0
-45 60 -70 -71 0
-45 -60 70 -71 0
-45 -60 -70 71 0
72 73 74 -75 0
72 73 -74 75 0
72 -73 74 75 0
72 -73 -74 -75 0
-72 73 74 75 0
-72 73 -74 -75 0
-72 -73 74 -75 0
-72 -73 -74 75 0
7 72 76 -77 0
7 72 -76 77 0
7 -72 76 77 0
7 -72 -76 -77 0
-7 72 76 77 0
-7 72 -76 -77 0
-7 -72 76 -77 0
-7 -72 -76 77 0
30 78 79 -80 0
30 78 -79 80 0
30 -78 79 80 0
30 -78 -79 -80 0
-30 78 79 80 0
-30 78 -79 -80 0
-30 -78 79 -80 0
-30 -78 -79 80 0
10 81 82 -83 0
10 81 -82 83 0
10 -81 82 83 0
10 -81 -82 -83 0
-10 81 82 83 0
-10 81 -82 -83 0
-10 -81 82 -83 0
-10 -81 -82 83 0
33 84 85 -86 0
33 84 -85 86 0
33 -84 85 86 0
33 -84 -85 -86 0
-33 84 85 86 0
-33 84 -85 -86 0
-33 -84 85 -86 0
-33 -84 -85 86 0
15 87 88 -89 0
15 87 -88 89 0
15 -87 88 89 0
15 -87 -88 -89 0
-15 87 88 89 0
-15 87 -88 -89 0
-15 -87 88 -89 0
-15 -87 -88 89 0
90 91 92 -93 0
90 91 -92 93 0
90 -91 92 93 0
90 -91 -92 -93 0
-90 91 92 93 0
-90 91 -92 -93 0
-90 -91 92 -93 0
-90 -91 -92 93 0
11 94 95 -96 0
11 94 -95 96 0
11 -94 95 96 0
11 -94 -95 -96 0
-11 94 95 96 0
-11 94 -95 -96 0
-11 -94 95 -96 0
-11 -94 -95 96 0
41 97 98 -99 0
41 97 -98 99 0
41 -97 98 99 0
41 -97 -98 -99 0
-41 97 98 99 0
-41 97 -98 -99 0
-41 -97 98 -99 0
-41 -97 -98 99 0
46 66 81 -90 0
46 66 -81 90 0
46 -66 81 90 0
46 -66 -81 -90 0
-46 66 81 90 0
-46 66 -81 -90 0
-46 -66 81 -90 0
-46 -66 -81 90 0
37 73 78 -100 0
37 73 -78 100 0
37 -73 78 100 0
37 -73 -78 -100 0
-37 73 78 100 0
-37 73 -78 -100 0
-37 -73 78 -100 0
-37 -73 -78 100 0
63 67 91 -101 0
63 67 -91 101 0
63 -67 91 101 0
63 -67 -91 -101 0
-63 67 91 101 0
-63 67 -91 -101 0
-63 -67 91 -101 0
-63 -67 -91 101 0
3 38 68 -102 0
3 38 -68 102 0
3 -38 68 102 0
3 -38 -68 -102 0
-3 38 68 102 0
-3 38 -68 -102 0
-3 -38 68 -102 0
-3 -38 -68 102 0
39 48 69 -101 0
39 48 -69 101 0
39 -48 69 101 0
39 -48 -69 -101 0
-39 48 69 101 0
-39 48 -69 -101 0
-39 -48 69 -101 0
-39 -48 -69 101 0
57 79 103 -104 0
57 79 -103 104 0
57 -79 103 104 0
57 -79 -103 -104 0
-57 79 103 104 0
-57 79 -103 -104 0
-57 -79 103 -104 0
-57 -79 -103 104 0
18 54 87 -105 0
18 54 -87 105 0
18 -54 87 105 0
18 -54 -87 -105 0
-18 54 87 105 0
-18 54 -87 -105 0
-18 -54 87 -105 0
-18 -54 -87 105 0
16 23 42 -105 0
16 23 -42 105 0
16 -23 42 105 0
16 -23 -42 -105 0
-16 23 42 105 0
-16 23 -42 -105 0
-16 -23 42 -105 0
-16 -23 -42 105 0
97 106 107 -108 0
97 106 -107 108 0
97 -106 107 108 0
97 -106 -107 -108 0
-97 106 107 108 0
-97 106 -107 -108 0
-97 -106 107 -108 0
-97 -106 -107 108 0
12 82 94 -109 0
12 82 -94 109 0
12 -82 94 109 0
12 -82 -94 -109 0
-12 82 94 109 0
-12 82 -94 -109 0
-12 -82 94 -109 0
-12 -82 -94 109 0
40 49 88 -109 0
40 49 -88 109 0
40 -49 88 109 0
40 -49 -88 -109 0
-40 49 88 109 0
-40 49 -88 -109 0
-40 -49 88 -109 0
-40 -49 -88 109 0
52 92 110 -111 0
52 92 -110 111 0
52 -92 110 111 0
52 -92 -110 -111 0
-52 92 110 111 0
-52 92 -110 -111 0
-52 -92 110 -111 0
-52 -92 -110 111 0
26 50 98 -112 0
26 50 -98 112 0
26 -50 98 112 0
26 -50 -98 -112 0
-26 50 98 112 0
-26 50 -98 -112 0
-26 -50 98 -112 0
-26 -50 -98 112 0
80 113 114 -115 0
80 113 -114 115 0
80 -113 114 115 0
80 -113 -114 -115 0
-80 113 114 115 0
-80 113 -114 -115 0
-80 -113 114 -115 0
-80 -113 -114 115 0
55 106 116 -117 0
55 106 -116 117 0
55 -106 116 117 0
55 -106 -116 -117 0
-55 106 116 117 0
-55 106 -116 -117 0
-55 -106 116 -117 0
-55 -106 -116 117 0
31 110 116 -118 0
31 110 -116 118 0
31 -110 116 118 0
31 -110 -116 -118 0
-31 110 116 118 0
-31 110 -116 -118 0
-31 -110 116 -118 0
-31 -110 -116 118 0
100 119 120 -121 0
100 119 -120 121 0
100 -119 120 121 0
100 -119 -120 -121 0
-100 119 120 121 0
-100 119 -120 -121 0
-100 -119 120 -121 0
-100 -119 -120 121 0
24 64 103 -113 0
24 64 -103 113 0
24 -64 103 113 0
24 -64 -103 -113 0
-24 64 103 113 0
-24 64 -103 -113 0
-24 -64 103 -113 0
-24 -64 -103 113 0
19 93 114 -117 0
19 93 -114 117 0
19 -93 114 117 0
19 -93 -114 -117 0
-19 93 114 117 0
-19 93 -114 -117 0
-19 -93 114 -117 0
-19 -93 -114 117 0
61 119 122 -123 0
61 119 -122 123 0
61 -119 122 123 0
61 -119 -122 -123 0
-61 119 122 123 0
-61 119 -122 -123 0
-61 -119 122 -123 0
-61 -119 -122 123 0
53 58 76 -115 0
53 58 -76 115 0
53 -58 76 115 0
53 -58 -76 -115 0
-53 58 76 115 0
-53 58 -76 -115 0
-53 -58 76 -115 0
-53 -58 -76 115 0
74 111 124 -125 0
74 111 -124 125 0
74 -111 124 125 0
74 -111 -124 -125 0
-74 111 124 125 0
-74 111 -124 -125 0
-74 -111 124 -125 0
-74 -111 -124 125 0
4 104 120 -122 0
4 104 -120 122 0
4 -104 120 122 0
4 -104 -120 -122 0
-4 104 120 122 0
-4 104 -120 -122 0
-4 -104 120 -122 0
-4 -104 -120 122 0
34 70 84 -102 0
34 70 -84 102 0
34 -70 84 102 0
34 -70 -84 -102 0
-34 70 84 102 0
-34 70 -84 -102 0
-34 -70 84 -102 0
-34 -70 -84 102 0
32 77 107 -124 0
32 77 -107 124 0
32 -77 107 124 0
32 -77 -107 -124 0
-32 77 107 124 0
-32 77 -107 -124 0
-32 -77 107 -124 0
-32 -77 -107 124 0
65 121 125 -126 0
65 121 -125 126 0
65 -121 125 126 0
65 -121 -125 -126 0
-65 121 125 126 0
-65 121 -125 -126 0
-65 -121 125 -126 0
-65 -121 -125 126 0
27 75 99 -127 0
27 75 -99 127 0
27 -75 99 127 0
27 -75 -99 -127 0
-27 75 99 127 0
-27 75 -99 -127 0
-27 -75 99 -127 0
-27 -75 -99 127 0
8 47 85 -95 0
8 47 -85 95 0
8 -47 85 95 0
8 -47 -85 -95 0
-8 47 85 95 0
-8 47 -85 -95 0
-8 -47 85 -95 0
-8 -47 -85 95 0
20 56 86 -123 0
20 56 -86 123 0
20 -56 86 123 0
20 -56 -86 -123 0
-20 56 86 123 0
-20 56 -86 -123 0
-20 -56 86 -123 0
-20 -56 -86 123 0
28 35 62 -128 0
28 35 -62 128 0
28 -35 62 128 0
28 -35 -62 -128 0
-28 35 62 128 0
-28 35 -62 -128 0
-28 -35 62 -128 0
-28 -35 -62 128 0
36 96 112 -127 0
36 96 -112 127 0
36 -96 112 127 0
36 -96 -112 -127 0
-36 96 112 127 0
-36 96 -112 -127 0
-36 -96 112 -127 0
-36 -96 -112 127 0
59 83 89 -108 0
59 83 -89 108 0
59 -83 89 108 0
59 -83 -89 -108 0
-59 83 89 108 0
-59 83 -89 -108 0
-59 -83 89 -108 0
-59 -83 -89 108 0
71 118 126 -128 0
71 118 -126 128 0
71 -118 126 128 0
71 -118 -126 -128 0
-71 118 126 128 0
-71 118 -126 -128 0
-71 -118 126 -128 0
-71 -118 -126 128 0
