c description: Tseitin formula on Random 4-regular graph of 80 vertices, with odd charge
c generator: CNFgen (0.9.5)
c copyright: (C) 2012-2026 Massimo Lauria <massimo.lauria@uniroma1.it>
c url: https://massimolauria.net/cnfgen
c random seed: 31170
c command line: cnfgen -S 31170 -o cnfgen_regression_pack/cnfgen_cases/tseitin_first_v80_d4_unsat.cnf tseitin first gnd 80 4
c
c known_status: UNSAT
c pack_family: tseitin
c pack_level: moderate
c pack_notes: Tseitin formula on random regular graph
p cnf 160 640
1 2 3 4 0
1 2 -3 -4 0
1 -2 3 -4 0
1 -2 -3 4 0
-1 2 3 -4 0
-1 2 -3 4 0
-1 -2 3 4 0
-1 -2 -3 -4 0
5 6 7 -8 0
5 6 -7 8 0
5 -6 7 8 0
5 -6 -7 -8 0
-5 6 7 8 0
-5 6 -7 -8 0
-5 -6 7 -8 0
-5 -6 -7 8 0
9 10 11 -12 0
9 10 -11 12 0
9 -10 11 12 0
9 -10 -11 -12 0
-9 10 11 12 0
-9 10 -11 -12 0
-9 -10 11 -12 0
-9 -10 -11 12 0
9 13 14 -15 0
9 13 -14 15 0
9 -13 14 15 0
9 -13 -14 -15 0
-9 13 14 15 0
-9 13 -14 -15 0
-9 -13 14 -15 0
-9 -13 -14 15 0
16 17 18 -19 0
16 17 -18 19 0
16 -17 18 19 0
16 -17 -18 -19 0
-16 17 18 19 0
-16 17 -18 -19 0
-16 -17 18 -19 0
-16 -17 -18 19 0
20 21 22 -23 0
20 21 -22 23 0
20 -21 22 23 0
20 -21 -22 -23 0
-20 21 22 23 0
-20 21 -22 -23 0
-20 -21 22 -23 0
-20 -21 -22 23 0
24 25 26 -27 0
24 25 -26 27 0
24 -25 26 27 0
24 -25 -26 -27 0
-24 25 26 27 0
-24 25 -26 -27 0
-24 -25 26 -27 0
-24 -25 -26 27 0
10 28 29 -30 0
10 28 -29 30 0
10 -28 29 30 0
10 -28 -29 -30 0
-10 28 29 30 0
-10 28 -29 -30 0
-10 -28 29 -30 0
-10 -28 -29 30 0
31 32 33 -34 0
31 32 -33 34 0
31 -32 33 34 0
31 -32 -33 -34 0
-31 32 33 34 0
-31 32 -33 -34 0
-31 -32 33 -34 0
-31 -32 -33 34 0
35 36 37 -38 0
35 36 -37 38 0
35 -36 37 38 0
35 -36 -37 -38 0
-35 36 37 38 0
-35 36 -37 -38 0
-35 -36 37 -38 0
-35 -36 -37 38 0
39 40 41 -42 0
39 40 -41 42 0
39 -40 41 42 0
39 -40 -41 -42 0
-39 40 41 42 0
-39 40 -41 -42 0
-39 -40 41 -42 0
-39 -40 -41 42 0
16 43 44 -45 0
16 43 -44 45 0
16 -43 44 45 0
16 -43 -44 -45 0
-16 43 44 45 0
-16 43 -44 -45 0
-16 -43 44 -45 0
-16 -43 -44 45 0
46 47 48 -49 0
46 47 -48 49 0
46 -47 48 49 0
46 -47 -48 -49 0
-46 47 48 49 0
-46 47 -48 -49 0
-46 -47 48 -49 0
-46 -47 -48 49 0
31 50 51 -52 0
31 50 -51 52 0
31 -50 51 52 0
31 -50 -51 -52 0
-31 50 51 52 0
-31 50 -51 -52 0
-31 -50 51 -52 0
-31 -50 -51 52 0
28 53 54 -55 0
28 53 -54 55 0
28 -53 54 55 0
28 -53 -54 -55 0
-28 53 54 55 0
-28 53 -54 -55 0
-28 -53 54 -55 0
-28 -53 -54 55 0
13 56 57 -58 0
13 56 -57 58 0
13 -56 57 58 0
13 -56 -57 -58 0
-13 56 57 58 0
-13 56 -57 -58 0
-13 -56 57 -58 0
-13 -56 -57 58 0
53 59 60 -61 0
53 59 -60 61 0
53 -59 60 61 0
53 -59 -60 -61 0
-53 59 60 61 0
-53 59 -60 -61 0
-53 -59 60 -61 0
-53 -59 -60 61 0
46 62 63 -64 0
46 62 -63 64 0
46 -62 63 64 0
46 -62 -63 -64 0
-46 62 63 64 0
-46 62 -63 -64 0
-46 -62 63 -64 0
-46 -62 -63 64 0
62 65 66 -67 0
62 65 -66 67 0
62 -65 66 67 0
62 -65 -66 -67 0
-62 65 66 67 0
-62 65 -66 -67 0
-62 -65 66 -67 0
-62 -65 -66 67 0
1 50 68 -69 0
1 50 -68 69 0
1 -50 68 69 0
1 -50 -68 -69 0
-1 50 68 69 0
-1 50 -68 -69 0
-1 -50 68 -69 0
-1 -50 -68 69 0
70 71 72 -73 0
70 71 -72 73 0
70 -71 72 73 0
70 -71 -72 -73 0
-70 71 72 73 0
-70 71 -72 -73 0
-70 -71 72 -73 0
-70 -71 -72 73 0
32 68 74 -75 0
32 68 -74 75 0
32 -68 74 75 0
32 -68 -74 -75 0
-32 68 74 75 0
-32 68 -74 -75 0
-32 -68 74 -75 0
-32 -68 -74 75 0
76 77 78 -79 0
76 77 -78 79 0
76 -77 78 79 0
76 -77 -78 -79 0
-76 77 78 79 0
-76 77 -78 -79 0
-76 -77 78 -79 0
-76 -77 -78 79 0
80 81 82 -83 0
80 81 -82 83 0
80 -81 82 83 0
80 -81 -82 -83 0
-80 81 82 83 0
-80 81 -82 -83 0
-80 -81 82 -83 0
-80 -81 -82 83 0
63 84 85 -86 0
63 84 -85 86 0
63 -84 85 86 0
63 -84 -85 -86 0
-63 84 85 86 0
-63 84 -85 -86 0
-63 -84 85 -86 0
-63 -84 -85 86 0
87 88 89 -90 0
87 88 -89 90 0
87 -88 89 90 0
87 -88 -89 -90 0
-87 88 89 90 0
-87 88 -89 -90 0
-87 -88 89 -90 0
-87 -88 -89 90 0
17 91 92 -93 0
17 91 -92 93 0
17 -91 92 93 0
17 -91 -92 -93 0
-17 91 92 93 0
-17 91 -92 -93 0
-17 -91 92 -93 0
-17 -91 -92 93 0
20 94 95 -96 0
20 94 -95 96 0
20 -94 95 96 0
20 -94 -95 -96 0
-20 94 95 96 0
-20 94 -95 -96 0
-20 -94 95 -96 0
-20 -94 -95 96 0
51 69 91 -97 0
51 69 -91 97 0
51 -69 91 97 0
51 -69 -91 -97 0
-51 69 91 97 0
-51 69 -91 -97 0
-51 -69 91 -97 0
-51 -69 -91 97 0
24 98 99 -100 0
24 98 -99 100 0
24 -98 99 100 0
24 -98 -99 -100 0
-24 98 99 100 0
-24 98 -99 -100 0
-24 -98 99 -100 0
-24 -98 -99 100 0
101 102 103 -104 0
101 102 -103 104 0
101 -102 103 104 0
101 -102 -103 -104 0
-101 102 103 104 0
-101 102 -103 -104 0
-101 -102 103 -104 0
-101 -102 -103 104 0
39 43 70 -105 0
39 43 -70 105 0
39 -43 70 105 0
39 -43 -70 -105 0
-39 43 70 105 0
-39 43 -70 -105 0
-39 -43 70 -105 0
-39 -43 -70 105 0
106 107 108 -109 0
106 107 -108 109 0
106 -107 108 109 0
106 -107 -108 -109 0
-106 107 108 109 0
-106 107 -108 -109 0
-106 -107 108 -109 0
-106 -107 -108 109 0
18 71 110 -111 0
18 71 -110 111 0
18 -71 110 111 0
18 -71 -110 -111 0
-18 71 110 111 0
-18 71 -110 -111 0
-18 -71 110 -111 0
-18 -71 -110 111 0
2 35 76 -98 0
2 35 -76 98 0
2 -35 76 98 0
2 -35 -76 -98 0
-2 35 76 98 0
-2 35 -76 -98 0
-2 -35 76 -98 0
-2 -35 -76 98 0
29 77 92 -112 0
29 77 -92 112 0
29 -77 92 112 0
29 -77 -92 -112 0
-29 77 92 112 0
-29 77 -92 -112 0
-29 -77 92 -112 0
-29 -77 -92 112 0
84 105 113 -114 0
84 105 -113 114 0
84 -105 113 114 0
84 -105 -113 -114 0
-84 105 113 114 0
-84 105 -113 -114 0
-84 -105 113 -114 0
-84 -105 -113 114 0
33 94 115 -116 0
33 94 -115 116 0
33 -94 115 116 0
33 -94 -115 -116 0
-33 94 115 116 0
-33 94 -115 -116 0
-33 -94 115 -116 0
-33 -94 -115 116 0
74 85 117 -118 0
74 85 -117 118 0
74 -85 117 118 0
74 -85 -117 -118 0
-74 85 117 118 0
-74 85 -117 -118 0
-74 -85 117 -118 0
-74 -85 -117 118 0
75 101 119 -120 0
75 101 -119 120 0
75 -101 119 120 0
75 -101 -119 -120 0
-75 101 119 120 0
-75 101 -119 -120 0
-75 -101 119 -120 0
-75 -101 -119 120 0
14 36 121 -122 0
14 36 -121 122 0
14 -36 121 122 0
14 -36 -121 -122 0
-14 36 121 122 0
-14 36 -121 -122 0
-14 -36 121 -122 0
-14 -36 -121 122 0
47 65 97 -123 0
47 65 -97 123 0
47 -65 97 123 0
47 -65 -97 -123 0
-47 65 97 123 0
-47 65 -97 -123 0
-47 -65 97 -123 0
-47 -65 -97 123 0
21 40 117 -124 0
21 40 -117 124 0
21 -40 117 124 0
21 -40 -117 -124 0
-21 40 117 124 0
-21 40 -117 -124 0
-21 -40 117 -124 0
-21 -40 -117 124 0
72 87 125 -126 0
72 87 -125 126 0
72 -87 125 126 0
72 -87 -125 -126 0
-72 87 125 126 0
-72 87 -125 -126 0
-72 -87 125 -126 0
-72 -87 -125 126 0
15 80 88 -127 0
15 80 -88 127 0
15 -80 88 127 0
15 -80 -88 -127 0
-15 80 88 127 0
-15 80 -88 -127 0
-15 -80 88 -127 0
-15 -80 -88 127 0
3 102 128 -129 0
3 102 -128 129 0
3 -102 128 129 0
3 -102 -128 -129 0
-3 102 128 129 0
-3 102 -128 -129 0
-3 -102 128 -129 0
-3 -102 -128 129 0
22 121 130 -131 0
22 121 -130 131 0
22 -121 130 131 0
22 -121 -130 -131 0
-22 121 130 131 0
-22 121 -130 -131 0
-22 -121 130 -131 0
-22 -121 -130 131 0
130 132 133 -134 0
130 132 -133 134 0
130 -132 133 134 0
130 -132 -133 -134 0
-130 132 133 134 0
-130 132 -133 -134 0
-130 -132 133 -134 0
-130 -132 -133 134 0
95 113 119 -135 0
95 113 -119 135 0
95 -113 119 135 0
95 -113 -119 -135 0
-95 113 119 135 0
-95 113 -119 -135 0
-95 -113 119 -135 0
-95 -113 -119 135 0
25 54 136 -137 0
25 54 -136 137 0
25 -54 136 137 0
25 -54 -136 -137 0
-25 54 136 137 0
-25 54 -136 -137 0
-25 -54 136 -137 0
-25 -54 -136 137 0
5 41 112 -138 0
5 41 -112 138 0
5 -41 112 138 0
5 -41 -112 -138 0
-5 41 112 138 0
-5 41 -112 -138 0
-5 -41 112 -138 0
-5 -41 -112 138 0
139 140 141 -142 0
139 140 -141 142 0
139 -140 141 142 0
139 -140 -141 -142 0
-139 140 141 142 0
-139 140 -141 -142 0
-139 -140 141 -142 0
-139 -140 -141 142 0
138 143 144 -145 0
138 143 -144 145 0
138 -143 144 145 0
138 -143 -144 -145 0
-138 143 144 145 0
-138 143 -144 -145 0
-138 -143 144 -145 0
-138 -143 -144 145 0
23 34 64 -146 0
23 34 -64 146 0
23 -34 64 146 0
23 -34 -64 -146 0
-23 34 64 146 0
-23 34 -64 -146 0
-23 -34 64 -146 0
-23 -34 -64 146 0
4 52 128 -139 0
4 52 -128 139 0
4 -52 128 139 0
4 -52 -128 -139 0
-4 52 128 139 0
-4 52 -128 -139 0
-4 -52 128 -139 0
-4 -52 -128 139 0
26 93 131 -147 0
26 93 -131 147 0
26 -93 131 147 0
26 -93 -131 -147 0
-26 93 131 147 0
-26 93 -131 -147 0
-26 -93 131 -147 0
-26 -93 -131 147 0
11 132 135 -148 0
11 132 -135 148 0
11 -132 135 148 0
11 -132 -135 -148 0
-11 132 135 148 0
-11 132 -135 -148 0
-11 -132 135 -148 0
-11 -132 -135 148 0
59 99 149 -150 0
59 99 -149 150 0
59 -99 149 150 0
59 -99 -149 -150 0
-59 99 149 150 0
-59 99 -149 -150 0
-59 -99 149 -150 0
-59 -99 -149 150 0
42 73 125 -140 0
42 73 -125 140 0
42 -73 125 140 0
42 -73 -125 -140 0
-42 73 125 140 0
-42 73 -125 -140 0
-42 -73 125 -140 0
-42 -73 -125 140 0
56 78 146 -151 0
56 78 -146 151 0
56 -78 146 151 0
56 -78 -146 -151 0
-56 78 146 151 0
-56 78 -146 -151 0
-56 -78 146 -151 0
-56 -78 -146 151 0
19 106 114 -152 0
19 106 -114 152 0
19 -106 114 152 0
19 -106 -114 -152 0
-19 106 114 152 0
-19 106 -114 -152 0
-19 -106 114 -152 0
-19 -106 -114 152 0
143 151 153 -154 0
143 151 -153 154 0
143 -151 153 154 0
143 -151 -153 -154 0
-143 151 153 154 0
-143 151 -153 -154 0
-143 -151 153 -154 0
-143 -151 -153 154 0
55 81 107 -155 0
55 81 -107 155 0
55 -81 107 155 0
55 -81 -107 -155 0
-55 81 107 155 0
-55 81 -107 -155 0
-55 -81 107 -155 0
-55 -81 -107 155 0
66 123 136 -144 0
66 123 -136 144 0
66 -123 136 144 0
66 -123 -136 -144 0
-66 123 136 144 0
-66 123 -136 -144 0
-66 -123 136 -144 0
-66 -123 -136 144 0
44 96 110 -156 0
44 96 -110 156 0
44 -96 110 156 0
44 -96 -110 -156 0
-44 96 110 156 0
-44 96 -110 -156 0
-44 -96 110 -156 0
-44 -96 -110 156 0
60 100 124 -155 0
60 100 -124 155 0
60 -100 124 155 0
60 -100 -124 -155 0
-60 100 124 155 0
-60 100 -124 -155 0
-60 -100 124 -155 0
-60 -100 -124 155 0
30 37 115 -133 0
30 37 -115 133 0
30 -37 115 133 0
30 -37 -115 -133 0
-30 37 115 133 0
-30 37 -115 -133 0
-30 -37 115 -133 0
-30 -37 -115 133 0
38 118 145 -157 0
38 118 -145 157 0
38 -118 145 157 0
38 -118 -145 -157 0
-38 118 145 157 0
-38 118 -145 -157 0
-38 -118 145 -157 0
-38 -118 -145 157 0
103 108 152 -153 0
103 108 -152 153 0
103 -108 152 153 0
103 -108 -152 -153 0
-103 108 152 153 0
-103 108 -152 -153 0
-103 -108 152 -153 0
-103 -108 -152 153 0
79 129 134 -147 0
79 129 -134 147 0
79 -129 134 147 0
79 -129 -134 -147 0
-79 129 134 147 0
-79 129 -134 -147 0
-79 -129 134 -147 0
-79 -129 -134 147 0
89 127 141 -149 0
89 127 -141 149 0
89 -127 141 149 0
89 -127 -141 -149 0
-89 127 141 149 0
-89 127 -141 -149 0
-89 -127 141 -149 0
-89 -127 -141 149 0
6 61 148 -158 0
6 61 -148 158 0
6 -61 148 158 0
6 -61 -148 -158 0
-6 61 148 158 0
-6 61 -148 -158 0
-6 -61 148 -158 0
-6 -61 -148 158 0
48 104 137 -142 0
48 104 -137 142 0
48 -104 137 142 0
48 -104 -137 -142 0
-48 104 137 142 0
-48 104 -137 -142 0
-48 -104 137 -142 0
-48 -104 -137 142 0
12 27 156 -159 0
12 27 -156 159 0
12 -27 156 159 0
12 -27 -156 -159 0
-12 27 156 159 0
-12 27 -156 -159 0
-12 -27 156 -159 0
-12 -27 -156 159 0
7 82 154 -160 0
7 82 -154 160 0
7 -82 154 160 0
7 -82 -154 -160 0
-7 82 154 160 0
-7 82 -154 -160 0
-7 -82 154 -160 0
-7 -82 -154 160 0
49 57 120 -126 0
49 57 -120 126 0
49 -57 120 126 0
49 -57 -120 -126 0
-49 57 120 126 0
-49 57 -120 -126 0
-49 -57 120 -126 0
-49 -57 -120 126 0
8 45 83 -111 0
8 45 -83 111 0
8 -45 83 111 0
8 -45 -83 -111 0
-8 45 83 111 0
-8 45 -83 -111 0
-8 -45 83 -111 0
-8 -45 -83 111 0
86 90 157 -160 0
86 90 -157 160 0
86 -90 157 160 0
86 -90 -157 -160 0
-86 90 157 160 0
-86 90 -157 -160 0
-86 -90 157 -160 0
-86 -90 -157 160 0
109 122 150 -159 0
109 122 -150 159 0
109 -122 150 159 0
109 -122 -150 -159 0
-109 122 150 159 0
-109 122 -150 -159 0
-109 -122 150 -159 0
-109 -122 -150 159 0
58 67 116 -158 0
58 67 -116 158 0
58 -67 116 158 0
58 -67 -116 -158 0
-58 67 116 158 0
-58 67 -116 -158 0
-58 -67 116 -158 0
-58 -67 -116 158 0
