c description: Tseitin formula on Random 4-regular graph of 100 vertices, with even charge
c generator: CNFgen (0.9.5)
c copyright: (C) 2012-2026 Massimo Lauria <massimo.lauria@uniroma1.it>
c url: https://massimolauria.net/cnfgen
c random seed: 31171
c command line: cnfgen -S 31171 -o cnfgen_regression_pack/cnfgen_cases/tseitin_zero_v100_d4_sat.cnf tseitin zero gnd 100 4
c
c known_status: SAT
c pack_family: tseitin
c pack_level: stress
c pack_notes: Tseitin formula on random regular graph
p cnf 200 800
1 2 3 -4 0
1 2 -3 4 0
1 -2 3 4 0
1 -2 -3 -4 0
-1 2 3 4 0
-1 2 -3 -4 0
-1 -2 3 -4 0
-1 -2 -3 4 0
5 6 7 -8 0
5 6 -7 8 0
5 -6 7 8 0
5 -6 -7 -8 0
-5 6 7 8 0
-5 6 -7 -8 0
-5 -6 7 -8 0
-5 -6 -7 8 0
9 10 11 -12 0
9 10 -11 12 0
9 -10 11 12 0
9 -10 -11 -12 0
-9 10 11 12 0
-9 10 -11 -12 0
-9 -10 11 -12 0
-9 -10 -11 12 0
13 14 15 -16 0
13 14 -15 16 0
13 -14 15 16 0
13 -14 -15 -16 0
-13 14 15 16 0
-13 14 -15 -16 0
-13 -14 15 -16 0
-13 -14 -15 16 0
17 18 19 -20 0
17 18 -19 20 0
17 -18 19 20 0
17 -18 -19 -20 0
-17 18 19 20 0
-17 18 -19 -20 0
-17 -18 19 -20 0
-17 -18 -19 20 0
21 22 23 -24 0
21 22 -23 24 0
21 -22 23 24 0
21 -22 -23 -24 0
-21 22 23 24 0
-21 22 -23 -24 0
-21 -22 23 -24 0
-21 -22 -23 24 0
25 26 27 -28 0
25 26 -27 28 0
25 -26 27 28 0
25 -26 -27 -28 0
-25 26 27 28 0
-25 26 -27 -28 0
-25 -26 27 -28 0
-25 -26 -27 28 0
29 30 31 -32 0
29 30 -31 32 0
29 -30 31 32 0
29 -30 -31 -32 0
-29 30 31 32 0
-29 30 -31 -32 0
-29 -30 31 -32 0
-29 -30 -31 32 0
33 34 35 -36 0
33 34 -35 36 0
33 -34 35 36 0
33 -34 -35 -36 0
-33 34 35 36 0
-33 34 -35 -36 0
-33 -34 35 -36 0
-33 -34 -35 36 0
17 37 38 -39 0
17 37 -38 39 0
17 -37 38 39 0
17 -37 -38 -39 0
-17 37 38 39 0
-17 37 -38 -39 0
-17 -37 38 -39 0
-17 -37 -38 39 0
40 41 42 -43 0
40 41 -42 43 0
40 -41 42 43 0
40 -41 -42 -43 0
-40 41 42 43 0
-40 41 -42 -43 0
-40 -41 42 -43 0
-40 -41 -42 43 0
18 44 45 -46 0
18 44 -45 46 0
18 -44 45 46 0
18 -44 -45 -46 0
-18 44 45 46 0
-18 44 -45 -46 0
-18 -44 45 -46 0
-18 -44 -45 46 0
47 48 49 -50 0
47 48 -49 50 0
47 -48 49 50 0
47 -48 -49 -50 0
-47 48 49 50 0
-47 48 -49 -50 0
-47 -48 49 -50 0
-47 -48 -49 50 0
51 52 53 -54 0
51 52 -53 54 0
51 -52 53 54 0
51 -52 -53 -54 0
-51 52 53 54 0
-51 52 -53 -54 0
-51 -52 53 -54 0
-51 -52 -53 54 0
51 55 56 -57 0
51 55 -56 57 0
51 -55 56 57 0
51 -55 -56 -57 0
-51 55 56 57 0
-51 55 -56 -57 0
-51 -55 56 -57 0
-51 -55 -56 57 0
25 58 59 -60 0
25 58 -59 60 0
25 -58 59 60 0
25 -58 -59 -60 0
-25 58 59 60 0
-25 58 -59 -60 0
-25 -58 59 -60 0
-25 -58 -59 60 0
19 61 62 -63 0
19 61 -62 63 0
19 -61 62 63 0
19 -61 -62 -63 0
-19 61 62 63 0
-19 61 -62 -63 0
-19 -61 62 -63 0
-19 -61 -62 63 0
40 64 65 -66 0
40 64 -65 66 0
40 -64 65 66 0
40 -64 -65 -66 0
-40 64 65 66 0
-40 64 -65 -66 0
-40 -64 65 -66 0
-40 -64 -65 66 0
5 67 68 -69 0
5 67 -68 69 0
5 -67 68 69 0
5 -67 -68 -69 0
-5 67 68 69 0
-5 67 -68 -69 0
-5 -67 68 -69 0
-5 -67 -68 69 0
1 70 71 -72 0
1 70 -71 72 0
1 -70 71 72 0
1 -70 -71 -72 0
-1 70 71 72 0
-1 70 -71 -72 0
-1 -70 71 -72 0
-1 -70 -71 72 0
73 74 75 -76 0
73 74 -75 76 0
73 -74 75 76 0
73 -74 -75 -76 0
-73 74 75 76 0
-73 74 -75 -76 0
-73 -74 75 -76 0
-73 -74 -75 76 0
77 78 79 -80 0
77 78 -79 80 0
77 -78 79 80 0
77 -78 -79 -80 0
-77 78 79 80 0
-77 78 -79 -80 0
-77 -78 79 -80 0
-77 -78 -79 80 0
70 81 82 -83 0
70 81 -82 83 0
70 -81 82 83 0
70 -81 -82 -83 0
-70 81 82 83 0
-70 81 -82 -83 0
-70 -81 82 -83 0
-70 -81 -82 83 0
55 84 85 -86 0
55 84 -85 86 0
55 -84 85 86 0
55 -84 -85 -86 0
-55 84 85 86 0
-55 84 -85 -86 0
-55 -84 85 -86 0
-55 -84 -85 86 0
21 87 88 -89 0
21 87 -88 89 0
21 -87 88 89 0
21 -87 -88 -89 0
-21 87 88 89 0
-21 87 -88 -89 0
-21 -87 88 -89 0
-21 -87 -88 89 0
29 61 90 -91 0
29 61 -90 91 0
29 -61 90 91 0
29 -61 -90 -91 0
-29 61 90 91 0
-29 61 -90 -91 0
-29 -61 90 -91 0
-29 -61 -90 91 0
33 92 93 -94 0
33 92 -93 94 0
33 -92 93 94 0
33 -92 -93 -94 0
-33 92 93 94 0
-33 92 -93 -94 0
-33 -92 93 -94 0
-33 -92 -93 94 0
95 96 97 -98 0
95 96 -97 98 0
95 -96 97 98 0
95 -96 -97 -98 0
-95 96 97 98 0
-95 96 -97 -98 0
-95 -96 97 -98 0
-95 -96 -97 98 0
73 99 100 -101 0
73 99 -100 101 0
73 -99 100 101 0
73 -99 -100 -101 0
-73 99 100 101 0
-73 99 -100 -101 0
-73 -99 100 -101 0
-73 -99 -100 101 0
6 26 44 -102 0
6 26 -44 102 0
6 -26 44 102 0
6 -26 -44 -102 0
-6 26 44 102 0
-6 26 -44 -102 0
-6 -26 44 -102 0
-6 -26 -44 102 0
74 103 104 -105 0
74 103 -104 105 0
74 -103 104 105 0
74 -103 -104 -105 0
-74 103 104 105 0
-74 103 -104 -105 0
-74 -103 104 -105 0
-74 -103 -104 105 0
22 106 107 -108 0
22 106 -107 108 0
22 -106 107 108 0
22 -106 -107 -108 0
-22 106 107 108 0
-22 106 -107 -108 0
-22 -106 107 -108 0
-22 -106 -107 108 0
109 110 111 -112 0
109 110 -111 112 0
109 -110 111 112 0
109 -110 -111 -112 0
-109 110 111 112 0
-109 110 -111 -112 0
-109 -110 111 -112 0
-109 -110 -111 112 0
84 113 114 -115 0
84 113 -114 115 0
84 -113 114 115 0
84 -113 -114 -115 0
-84 113 114 115 0
-84 113 -114 -115 0
-84 -113 114 -115 0
-84 -113 -114 115 0
9 62 116 -117 0
9 62 -116 117 0
9 -62 116 117 0
9 -62 -116 -117 0
-9 62 116 117 0
-9 62 -116 -117 0
-9 -62 116 -117 0
-9 -62 -116 117 0
13 118 119 -120 0
13 118 -119 120 0
13 -118 119 120 0
13 -118 -119 -120 0
-13 118 119 120 0
-13 118 -119 -120 0
-13 -118 119 -120 0
-13 -118 -119 120 0
23 118 121 -122 0
23 118 -121 122 0
23 -118 121 122 0
23 -118 -121 -122 0
-23 118 121 122 0
-23 118 -121 -122 0
-23 -118 121 -122 0
-23 -118 -121 122 0
123 124 125 -126 0
123 124 -125 126 0
123 -124 125 126 0
123 -124 -125 -126 0
-123 124 125 126 0
-123 124 -125 -126 0
-123 -124 125 -126 0
-123 -124 -125 126 0
127 128 129 -130 0
127 128 -129 130 0
127 -128 129 130 0
127 -128 -129 -130 0
-127 128 129 130 0
-127 128 -129 -130 0
-127 -128 129 -130 0
-127 -128 -129 130 0
77 131 132 -133 0
77 131 -132 133 0
77 -131 132 133 0
77 -131 -132 -133 0
-77 131 132 133 0
-77 131 -132 -133 0
-77 -131 132 -133 0
-77 -131 -132 133 0
10 99 123 -134 0
10 99 -123 134 0
10 -99 123 134 0
10 -99 -123 -134 0
-10 99 123 134 0
-10 99 -123 -134 0
-10 -99 123 -134 0
-10 -99 -123 134 0
47 124 135 -136 0
47 124 -135 136 0
47 -124 135 136 0
47 -124 -135 -136 0
-47 124 135 136 0
-47 124 -135 -136 0
-47 -124 135 -136 0
-47 -124 -135 136 0
71 95 100 -137 0
71 95 -100 137 0
71 -95 100 137 0
71 -95 -100 -137 0
-71 95 100 137 0
-71 95 -100 -137 0
-71 -95 100 -137 0
-71 -95 -100 137 0
58 90 127 -138 0
58 90 -127 138 0
58 -90 127 138 0
58 -90 -127 -138 0
-58 90 127 138 0
-58 90 -127 -138 0
-58 -90 127 -138 0
-58 -90 -127 138 0
24 91 139 -140 0
24 91 -139 140 0
24 -91 139 140 0
24 -91 -139 -140 0
-24 91 139 140 0
-24 91 -139 -140 0
-24 -91 139 -140 0
-24 -91 -139 140 0
101 131 138 -141 0
101 131 -138 141 0
101 -131 138 141 0
101 -131 -138 -141 0
-101 131 138 141 0
-101 131 -138 -141 0
-101 -131 138 -141 0
-101 -131 -138 141 0
67 109 142 -143 0
67 109 -142 143 0
67 -109 142 143 0
67 -109 -142 -143 0
-67 109 142 143 0
-67 109 -142 -143 0
-67 -109 142 -143 0
-67 -109 -142 143 0
7 144 145 -146 0
7 144 -145 146 0
7 -144 145 146 0
7 -144 -145 -146 0
-7 144 145 146 0
-7 144 -145 -146 0
-7 -144 145 -146 0
-7 -144 -145 146 0
11 27 147 -148 0
11 27 -147 148 0
11 -27 147 148 0
11 -27 -147 -148 0
-11 27 147 148 0
-11 27 -147 -148 0
-11 -27 147 -148 0
-11 -27 -147 148 0
30 37 59 -149 0
30 37 -59 149 0
30 -37 59 149 0
30 -37 -59 -149 0
-30 37 59 149 0
-30 37 -59 -149 0
-30 -37 59 -149 0
-30 -37 -59 149 0
87 113 135 -150 0
87 113 -135 150 0
87 -113 135 150 0
87 -113 -135 -150 0
-87 113 135 150 0
-87 113 -135 -150 0
-87 -113 135 -150 0
-87 -113 -135 150 0
63 119 151 -152 0
63 119 -151 152 0
63 -119 151 152 0
63 -119 -151 -152 0
-63 119 151 152 0
-63 119 -151 -152 0
-63 -119 151 -152 0
-63 -119 -151 152 0
14 31 153 -154 0
14 31 -153 154 0
14 -31 153 154 0
14 -31 -153 -154 0
-14 31 153 154 0
-14 31 -153 -154 0
-14 -31 153 -154 0
-14 -31 -153 154 0
139 144 155 -156 0
139 144 -155 156 0
139 -144 155 156 0
139 -144 -155 -156 0
-139 144 155 156 0
-139 144 -155 -156 0
-139 -144 155 -156 0
-139 -144 -155 156 0
120 132 157 -158 0
120 132 -157 158 0
120 -132 157 158 0
120 -132 -157 -158 0
-120 132 157 158 0
-120 132 -157 -158 0
-120 -132 157 -158 0
-120 -132 -157 158 0
2 56 159 -160 0
2 56 -159 160 0
2 -56 159 160 0
2 -56 -159 -160 0
-2 56 159 160 0
-2 56 -159 -160 0
-2 -56 159 -160 0
-2 -56 -159 160 0
3 28 161 -162 0
3 28 -161 162 0
3 -28 161 162 0
3 -28 -161 -162 0
-3 28 161 162 0
-3 28 -161 -162 0
-3 -28 161 -162 0
-3 -28 -161 162 0
38 78 147 -161 0
38 78 -147 161 0
38 -78 147 161 0
38 -78 -147 -161 0
-38 78 147 161 0
-38 78 -147 -161 0
-38 -78 147 -161 0
-38 -78 -147 161 0
41 151 155 -163 0
41 151 -155 163 0
41 -151 155 163 0
41 -151 -155 -163 0
-41 151 155 163 0
-41 151 -155 -163 0
-41 -151 155 -163 0
-41 -151 -155 163 0
15 88 164 -165 0
15 88 -164 165 0
15 -88 164 165 0
15 -88 -164 -165 0
-15 88 164 165 0
-15 88 -164 -165 0
-15 -88 164 -165 0
-15 -88 -164 165 0
103 125 133 -166 0
103 125 -133 166 0
103 -125 133 166 0
103 -125 -133 -166 0
-103 125 133 166 0
-103 125 -133 -166 0
-103 -125 133 -166 0
-103 -125 -133 166 0
34 114 152 -167 0
34 114 -152 167 0
34 -114 152 167 0
34 -114 -152 -167 0
-34 114 152 167 0
-34 114 -152 -167 0
-34 -114 152 -167 0
-34 -114 -152 167 0
110 145 153 -168 0
110 145 -153 168 0
110 -145 153 168 0
110 -145 -153 -168 0
-110 145 153 168 0
-110 145 -153 -168 0
-110 -145 153 -168 0
-110 -145 -153 168 0
48 64 169 -170 0
48 64 -169 170 0
48 -64 169 170 0
48 -64 -169 -170 0
-48 64 169 170 0
-48 64 -169 -170 0
-48 -64 169 -170 0
-48 -64 -169 170 0
79 171 172 -173 0
79 171 -172 173 0
79 -171 172 173 0
79 -171 -172 -173 0
-79 171 172 173 0
-79 171 -172 -173 0
-79 -171 172 -173 0
-79 -171 -172 173 0
174 175 176 -177 0
174 175 -176 177 0
174 -175 176 177 0
174 -175 -176 -177 0
-174 175 176 177 0
-174 175 -176 -177 0
-174 -175 176 -177 0
-174 -175 -176 177 0
96 141 148 -178 0
96 141 -148 178 0
96 -141 148 178 0
96 -141 -148 -178 0
-96 141 148 178 0
-96 141 -148 -178 0
-96 -141 148 -178 0
-96 -141 -148 178 0
80 92 111 -179 0
80 92 -111 179 0
80 -92 111 179 0
80 -92 -111 -179 0
-80 92 111 179 0
-80 92 -111 -179 0
-80 -92 111 -179 0
-80 -92 -111 179 0
159 180 181 -182 0
159 180 -181 182 0
159 -180 181 182 0
159 -180 -181 -182 0
-159 180 181 182 0
-159 180 -181 -182 0
-159 -180 181 -182 0
-159 -180 -181 182 0
35 154 183 -184 0
35 154 -183 184 0
35 -154 183 184 0
35 -154 -183 -184 0
-35 154 183 184 0
-35 154 -183 -184 0
-35 -154 183 -184 0
-35 -154 -183 184 0
150 160 185 -186 0
150 160 -185 186 0
150 -160 185 186 0
150 -160 -185 -186 0
-150 160 185 186 0
-150 160 -185 -186 0
-150 -160 185 -186 0
-150 -160 -185 186 0
12 164 187 -188 0
12 164 -187 188 0
12 -164 187 188 0
12 -164 -187 -188 0
-12 164 187 188 0
-12 164 -187 -188 0
-12 -164 187 -188 0
-12 -164 -187 188 0
68 174 187 -189 0
68 174 -187 189 0
68 -174 187 189 0
68 -174 -187 -189 0
-68 174 187 189 0
-68 174 -187 -189 0
-68 -174 187 -189 0
-68 -174 -187 189 0
93 115 156 -183 0
93 115 -156 183 0
93 -115 156 183 0
93 -115 -156 -183 0
-93 115 156 183 0
-93 115 -156 -183 0
-93 -115 156 -183 0
-93 -115 -156 183 0
85 97 134 -185 0
85 97 -134 185 0
85 -97 134 185 0
85 -97 -134 -185 0
-85 97 134 185 0
-85 97 -134 -185 0
-85 -97 134 -185 0
-85 -97 -134 185 0
49 75 121 -178 0
49 75 -121 178 0
49 -75 121 178 0
49 -75 -121 -178 0
-49 75 121 178 0
-49 75 -121 -178 0
-49 -75 121 -178 0
-49 -75 -121 178 0
32 65 98 -169 0
32 65 -98 169 0
32 -65 98 169 0
32 -65 -98 -169 0
-32 65 98 169 0
-32 65 -98 -169 0
-32 -65 98 -169 0
-32 -65 -98 169 0
4 52 69 -163 0
4 52 -69 163 0
4 -52 69 163 0
4 -52 -69 -163 0
-4 52 69 163 0
-4 52 -69 -163 0
-4 -52 69 -163 0
-4 -52 -69 163 0
81 157 190 -191 0
81 157 -190 191 0
81 -157 190 191 0
81 -157 -190 -191 0
-81 157 190 191 0
-81 157 -190 -191 0
-81 -157 190 -191 0
-81 -157 -190 191 0
20 60 180 -192 0
20 60 -180 192 0
20 -60 180 192 0
20 -60 -180 -192 0
-20 60 180 192 0
-20 60 -180 -192 0
-20 -60 180 -192 0
-20 -60 -180 192 0
53 146 171 -192 0
53 146 -171 192 0
53 -146 171 192 0
53 -146 -171 -192 0
-53 146 171 192 0
-53 146 -171 -192 0
-53 -146 171 -192 0
-53 -146 -171 192 0
106 136 184 -189 0
106 136 -184 189 0
106 -136 184 189 0
106 -136 -184 -189 0
-106 136 184 189 0
-106 136 -184 -189 0
-106 -136 184 -189 0
-106 -136 -184 189 0
45 104 116 -168 0
45 104 -116 168 0
45 -104 116 168 0
45 -104 -116 -168 0
-45 104 116 168 0
-45 104 -116 -168 0
-45 -104 116 -168 0
-45 -104 -116 168 0
36 72 175 -193 0
36 72 -175 193 0
36 -72 175 193 0
36 -72 -175 -193 0
-36 72 175 193 0
-36 72 -175 -193 0
-36 -72 175 -193 0
-36 -72 -175 193 0
39 102 188 -194 0
39 102 -188 194 0
39 -102 188 194 0
39 -102 -188 -194 0
-39 102 188 194 0
-39 102 -188 -194 0
-39 -102 188 -194 0
-39 -102 -188 194 0
142 149 194 -195 0
142 149 -194 195 0
142 -149 194 195 0
142 -149 -194 -195 0
-142 149 194 195 0
-142 149 -194 -195 0
-142 -149 194 -195 0
-142 -149 -194 195 0
57 195 196 -197 0
57 195 -196 197 0
57 -195 196 197 0
57 -195 -196 -197 0
-57 195 196 197 0
-57 195 -196 -197 0
-57 -195 196 -197 0
-57 -195 -196 197 0
82 128 162 -170 0
82 128 -162 170 0
82 -128 162 170 0
82 -128 -162 -170 0
-82 128 162 170 0
-82 128 -162 -170 0
-82 -128 162 -170 0
-82 -128 -162 170 0
50 172 179 -198 0
50 172 -179 198 0
50 -172 179 198 0
50 -172 -179 -198 0
-50 172 179 198 0
-50 172 -179 -198 0
-50 -172 179 -198 0
-50 -172 -179 198 0
66 129 166 -181 0
66 129 -166 181 0
66 -129 166 181 0
66 -129 -166 -181 0
-66 129 166 181 0
-66 129 -166 -181 0
-66 -129 166 -181 0
-66 -129 -166 181 0
86 112 186 -196 0
86 112 -186 196 0
86 -112 186 196 0
86 -112 -186 -196 0
-86 112 186 196 0
-86 112 -186 -196 0
-86 -112 186 -196 0
-86 -112 -186 196 0
158 173 193 -199 0
158 173 -193 199 0
158 -173 193 199 0
158 -173 -193 -199 0
-158 173 193 199 0
-158 173 -193 -199 0
-158 -173 193 -199 0
-158 -173 -193 199 0
16 126 137 -143 0
16 126 -137 143 0
16 -126 137 143 0
16 -126 -137 -143 0
-16 126 137 143 0
-16 126 -137 -143 0
-16 -126 137 -143 0
-16 -126 -137 143 0
8 54 190 -200 0
8 54 -190 200 0
8 -54 190 200 0
8 -54 -190 -200 0
-8 54 190 200 0
-8 54 -190 -200 0
-8 -54 190 -200 0
-8 -54 -190 200 0
83 107 140 -182 0
83 107 -140 182 0
83 -107 140 182 0
83 -107 -140 -182 0
-83 107 140 182 0
-83 107 -140 -182 0
-83 -107 140 -182 0
-83 -107 -140 182 0
42 122 165 -176 0
42 122 -165 176 0
42 -122 165 176 0
42 -122 -165 -176 0
-42 122 165 176 0
-42 122 -165 -176 0
-42 -122 165 -176 0
-42 -122 -165 176 0
46 89 130 -177 0
46 89 -130 177 0
46 -89 130 177 0
46 -89 -130 -177 0
-46 89 130 177 0
-46 89 -130 -177 0
-46 -89 130 -177 0
-46 -89 -130 177 0
43 191 197 -198 0
43 191 -197 198 0
43 -191 197 198 0
43 -191 -197 -198 0
-43 191 197 198 0
-43 191 -197 -198 0
-43 -191 197 -198 0
-43 -191 -197 198 0
105 117 167 -200 0
105 117 -167 200 0
105 -117 167 200 0
105 -117 -167 -200 0
-105 117 167 200 0
-105 117 -167 -200 0
-105 -117 167 -200 0
-105 -117 -167 200 0
76 94 108 -199 0
76 94 -108 199 0
76 -94 108 199 0
76 -94 -108 -199 0
-76 94 108 199 0
-76 94 -108 -199 0
-76 -94 108 -199 0
-76 -94 -108 199 0
