c description: Tseitin formula on Random 4-regular graph of 64 vertices, with even charge
c generator: CNFgen (0.9.5)
c copyright: (C) 2012-2026 Massimo Lauria <massimo.lauria@uniroma1.it>
c url: https://massimolauria.net/cnfgen
c random seed: 31167
c command line: cnfgen -S 31167 -o cnfgen_regression_pack/cnfgen_cases/tseitin_zero_v64_d4_sat.cnf tseitin zero gnd 64 4
c
c known_status: SAT
c pack_family: tseitin
c pack_level: moderate
c pack_notes: Tseitin formula on random regular graph
p cnf 128 512
1 2 3 -4 0
1 2 -3 4 0
1 -2 3 4 0
1 -2 -3 -4 0
-1 2 3 4 0
-1 2 -3 -4 0
-1 -2 3 -4 0
-1 -2 -3 4 0
1 5 6 -7 0
1 5 -6 7 0
1 -5 6 7 0
1 -5 -6 -7 0
-1 5 6 7 0
-1 5 -6 -7 0
-1 -5 6 -7 0
-1 -5 -6 7 0
8 9 10 -11 0
8 9 -10 11 0
8 -9 10 11 0
8 -9 -10 -11 0
-8 9 10 11 0
-8 9 -10 -11 0
-8 -9 10 -11 0
-8 -9 -10 11 0
12 13 14 -15 0
12 13 -14 15 0
12 -13 14 15 0
12 -13 -14 -15 0
-12 13 14 15 0
-12 13 -14 -15 0
-12 -13 14 -15 0
-12 -13 -14 15 0
16 17 18 -19 0
16 17 -18 19 0
16 -17 18 19 0
16 -17 -18 -19 0
-16 17 18 19 0
-16 17 -18 -19 0
-16 -17 18 -19 0
-16 -17 -18 19 0
8 20 21 -22 0
8 20 -21 22 0
8 -20 21 22 0
8 -20 -21 -22 0
-8 20 21 22 0
-8 20 -21 -22 0
-8 -20 21 -22 0
-8 -20 -21 22 0
23 24 25 -26 0
23 24 -25 26 0
23 -24 25 26 0
23 -24 -25 -26 0
-23 24 25 26 0
-23 24 -25 -26 0
-23 -24 25 -26 0
-23 -24 -25 26 0
12 27 28 -29 0
12 27 -28 29 0
12 -27 28 29 0
12 -27 -28 -29 0
-12 27 28 29 0
-12 27 -28 -29 0
-12 -27 28 -29 0
-12 -27 -28 29 0
30 31 32 -33 0
30 31 -32 33 0
30 -31 32 33 0
30 -31 -32 -33 0
-30 31 32 33 0
-30 31 -32 -33 0
-30 -31 32 -33 0
-30 -31 -32 33 0
34 35 36 -37 0
34 35 -36 37 0
34 -35 36 37 0
34 -35 -36 -37 0
-34 35 36 37 0
-34 35 -36 -37 0
-34 -35 36 -37 0
-34 -35 -36 37 0
38 39 40 -41 0
38 39 -40 41 0
38 -39 40 41 0
38 -39 -40 -41 0
-38 39 40 41 0
-38 39 -40 -41 0
-38 -39 40 -41 0
-38 -39 -40 41 0
2 42 43 -44 0
2 42 -43 44 0
2 -42 43 44 0
2 -42 -43 -44 0
-2 42 43 44 0
-2 42 -43 -44 0
-2 -42 43 -44 0
-2 -42 -43 44 0
45 46 47 -48 0
45 46 -47 48 0
45 -46 47 48 0
45 -46 -47 -48 0
-45 46 47 48 0
-45 46 -47 -48 0
-45 -46 47 -48 0
-45 -46 -47 48 0
34 49 50 -51 0
34 49 -50 51 0
34 -49 50 51 0
34 -49 -50 -51 0
-34 49 50 51 0
-34 49 -50 -51 0
-34 -49 50 -51 0
-34 -49 -50 51 0
5 52 53 -54 0
5 52 -53 54 0
5 -52 53 54 0
5 -52 -53 -54 0
-5 52 53 54 0
-5 52 -53 -54 0
-5 -52 53 -54 0
-5 -52 -53 54 0
27 55 56 -57 0
27 55 -56 57 0
27 -55 56 57 0
27 -55 -56 -57 0
-27 55 56 57 0
-27 55 -56 -57 0
-27 -55 56 -57 0
-27 -55 -56 57 0
58 59 60 -61 0
58 59 -60 61 0
58 -59 60 61 0
58 -59 -60 -61 0
-58 59 60 61 0
-58 59 -60 -61 0
-58 -59 60 -61 0
-58 -59 -60 61 0
6 62 63 -64 0
6 62 -63 64 0
6 -62 63 64 0
6 -62 -63 -64 0
-6 62 63 64 0
-6 62 -63 -64 0
-6 -62 63 -64 0
-6 -62 -63 64 0
38 65 66 -67 0
38 65 -66 67 0
38 -65 66 67 0
38 -65 -66 -67 0
-38 65 66 67 0
-38 65 -66 -67 0
-38 -65 66 -67 0
-38 -65 -66 67 0
20 23 68 -69 0
20 23 -68 69 0
20 -23 68 69 0
20 -23 -68 -69 0
-20 23 68 69 0
-20 23 -68 -69 0
-20 -23 68 -69 0
-20 -23 -68 69 0
30 39 70 -71 0
30 39 -70 71 0
30 -39 70 71 0
30 -39 -70 -71 0
-30 39 70 71 0
-30 39 -70 -71 0
-30 -39 70 -71 0
-30 -39 -70 71 0
3 62 72 -73 0
3 62 -72 73 0
3 -62 72 73 0
3 -62 -72 -73 0
-3 62 72 73 0
-3 62 -72 -73 0
-3 -62 72 -73 0
-3 -62 -72 73 0
58 65 74 -75 0
58 65 -74 75 0
58 -65 74 75 0
58 -65 -74 -75 0
-58 65 74 75 0
-58 65 -74 -75 0
-58 -65 74 -75 0
-58 -65 -74 75 0
28 31 76 -77 0
28 31 -76 77 0
28 -31 76 77 0
28 -31 -76 -77 0
-28 31 76 77 0
-28 31 -76 -77 0
-28 -31 76 -77 0
-28 -31 -76 77 0
13 49 55 -78 0
13 49 -55 78 0
13 -49 55 78 0
13 -49 -55 -78 0
-13 49 55 78 0
-13 49 -55 -78 0
-13 -49 55 -78 0
-13 -49 -55 78 0
79 80 81 -82 0
79 80 -81 82 0
79 -80 81 82 0
79 -80 -81 -82 0
-79 80 81 82 0
-79 80 -81 -82 0
-79 -80 81 -82 0
-79 -80 -81 82 0
24 40 78 -83 0
24 40 -78 83 0
24 -40 78 83 0
24 -40 -78 -83 0
-24 40 78 83 0
-24 40 -78 -83 0
-24 -40 78 -83 0
-24 -40 -78 83 0
41 70 84 -85 0
41 70 -84 85 0
41 -70 84 85 0
41 -70 -84 -85 0
-41 70 84 85 0
-41 70 -84 -85 0
-41 -70 84 -85 0
-41 -70 -84 85 0
83 86 87 -88 0
83 86 -87 88 0
83 -86 87 88 0
83 -86 -87 -88 0
-83 86 87 88 0
-83 86 -87 -88 0
-83 -86 87 -88 0
-83 -86 -87 88 0
21 68 84 -89 0
21 68 -84 89 0
21 -68 84 89 0
21 -68 -84 -89 0
-21 68 84 89 0
-21 68 -84 -89 0
-21 -68 84 -89 0
-21 -68 -84 89 0
25 45 90 -91 0
25 45 -90 91 0
25 -45 90 91 0
25 -45 -90 -91 0
-25 45 90 91 0
-25 45 -90 -91 0
-25 -45 90 -91 0
-25 -45 -90 91 0
7 46 76 -90 0
7 46 -76 90 0
7 -46 76 90 0
7 -46 -76 -90 0
-7 46 76 90 0
-7 46 -76 -90 0
-7 -46 76 -90 0
-7 -46 -76 90 0
22 29 52 -92 0
22 29 -52 92 0
22 -29 52 92 0
22 -29 -52 -92 0
-22 29 52 92 0
-22 29 -52 -92 0
-22 -29 52 -92 0
-22 -29 -52 92 0
63 93 94 -95 0
63 93 -94 95 0
63 -93 94 95 0
63 -93 -94 -95 0
-63 93 94 95 0
-63 93 -94 -95 0
-63 -93 94 -95 0
-63 -93 -94 95 0
26 93 96 -97 0
26 93 -96 97 0
26 -93 96 97 0
26 -93 -96 -97 0
-26 93 96 97 0
-26 93 -96 -97 0
-26 -93 96 -97 0
-26 -93 -96 97 0
4 42 77 -98 0
4 42 -77 98 0
4 -42 77 98 0
4 -42 -77 -98 0
-4 42 77 98 0
-4 42 -77 -98 0
-4 -42 77 -98 0
-4 -42 -77 98 0
16 89 99 -100 0
16 89 -99 100 0
16 -89 99 100 0
16 -89 -99 -100 0
-16 89 99 100 0
-16 89 -99 -100 0
-16 -89 99 -100 0
-16 -89 -99 100 0
50 101 102 -103 0
50 101 -102 103 0
50 -101 102 103 0
50 -101 -102 -103 0
-50 101 102 103 0
-50 101 -102 -103 0
-50 -101 102 -103 0
-50 -101 -102 103 0
43 69 104 -105 0
43 69 -104 105 0
43 -69 104 105 0
43 -69 -104 -105 0
-43 69 104 105 0
-43 69 -104 -105 0
-43 -69 104 -105 0
-43 -69 -104 105 0
101 106 107 -108 0
101 106 -107 108 0
101 -106 107 108 0
101 -106 -107 -108 0
-101 106 107 108 0
-101 106 -107 -108 0
-101 -106 107 -108 0
-101 -106 -107 108 0
14 17 64 -109 0
14 17 -64 109 0
14 -17 64 109 0
14 -17 -64 -109 0
-14 17 64 109 0
-14 17 -64 -109 0
-14 -17 64 -109 0
-14 -17 -64 109 0
47 53 74 -110 0
47 53 -74 110 0
47 -53 74 110 0
47 -53 -74 -110 0
-47 53 74 110 0
-47 53 -74 -110 0
-47 -53 74 -110 0
-47 -53 -74 110 0
72 96 106 -111 0
72 96 -106 111 0
72 -96 106 111 0
72 -96 -106 -111 0
-72 96 106 111 0
-72 96 -106 -111 0
-72 -96 106 -111 0
-72 -96 -106 111 0
59 71 112 -113 0
59 71 -112 113 0
59 -71 112 113 0
59 -71 -112 -113 0
-59 71 112 113 0
-59 71 -112 -113 0
-59 -71 112 -113 0
-59 -71 -112 113 0
9 86 109 -112 0
9 86 -109 112 0
9 -86 109 112 0
9 -86 -109 -112 0
-9 86 109 112 0
-9 86 -109 -112 0
-9 -86 109 -112 0
-9 -86 -109 112 0
99 107 114 -115 0
99 107 -114 115 0
99 -107 114 115 0
99 -107 -114 -115 0
-99 107 114 115 0
-99 107 -114 -115 0
-99 -107 114 -115 0
-99 -107 -114 115 0
91 98 114 -116 0
91 98 -114 116 0
91 -98 114 116 0
91 -98 -114 -116 0
-91 98 114 116 0
-91 98 -114 -116 0
-91 -98 114 -116 0
-91 -98 -114 116 0
18 60 87 -117 0
18 60 -87 117 0
18 -60 87 117 0
18 -60 -87 -117 0
-18 60 87 117 0
-18 60 -87 -117 0
-18 -60 87 -117 0
-18 -60 -87 117 0
51 100 118 -119 0
51 100 -118 119 0
51 -100 118 119 0
51 -100 -118 -119 0
-51 100 118 119 0
-51 100 -118 -119 0
-51 -100 118 -119 0
-51 -100 -118 119 0
15 61 110 -120 0
15 61 -110 120 0
15 -61 110 120 0
15 -61 -110 -120 0
-15 61 110 120 0
-15 61 -110 -120 0
-15 -61 110 -120 0
-15 -61 -110 120 0
10 79 102 -121 0
10 79 -102 121 0
10 -79 102 121 0
10 -79 -102 -121 0
-10 79 102 121 0
-10 79 -102 -121 0
-10 -79 102 -121 0
-10 -79 -102 121 0
32 66 80 -113 0
32 66 -80 113 0
32 -66 80 113 0
32 -66 -80 -113 0
-32 66 80 113 0
-32 66 -80 -113 0
-32 -66 80 -113 0
-32 -66 -80 113 0
35 108 111 -115 0
35 108 -111 115 0
35 -108 111 115 0
35 -108 -111 -115 0
-35 108 111 115 0
-35 108 -111 -115 0
-35 -108 111 -115 0
-35 -108 -111 115 0
11 104 122 -123 0
11 104 -122 123 0
11 -104 122 123 0
11 -104 -122 -123 0
-11 104 122 123 0
-11 104 -122 -123 0
-11 -104 122 -123 0
-11 -104 -122 123 0
81 124 125 -126 0
81 124 -125 126 0
81 -124 125 126 0
81 -124 -125 -126 0
-81 124 125 126 0
-81 124 -125 -126 0
-81 -124 125 -126 0
-81 -124 -125 126 0
36 73 94 -124 0
36 73 -94 124 0
36 -73 94 124 0
36 -73 -94 -124 0
-36 73 94 124 0
-36 73 -94 -124 0
-36 -73 94 -124 0
-36 -73 -94 124 0
56 82 88 -105 0
56 82 -88 105 0
56 -82 88 105 0
56 -82 -88 -105 0
-56 82 88 105 0
-56 82 -88 -105 0
-56 -82 88 -105 0
-56 -82 -88 105 0
33 116 118 -127 0
33 116 -118 127 0
33 -116 118 127 0
33 -116 -118 -127 0
-33 116 118 127 0
-33 116 -118 -127 0
-33 -116 118 -127 0
-33 -116 -118 127 0
95 122 125 -127 0
95 122 -125 127 0
95 -122 125 127 0
95 -122 -125 -127 0
-95 122 125 127 0
-95 122 -125 -127 0
-95 -122 125 -127 0
-95 -122 -125 127 0
67 97 103 -121 0
67 97 -103 121 0
67 -97 103 121 0
67 -97 -103 -121 0
-67 97 103 121 0
-67 97 -103 -121 0
-67 -97 103 -121 0
-67 -97 -103 121 0
57 75 123 -128 0
57 75 -123 128 0
57 -75 123 128 0
57 -75 -123 -128 0
-57 75 123 128 0
-57 75 -123 -128 0
-57 -75 123 -128 0
-57 -75 -123 128 0
19 37 85 -120 0
19 37 -85 120 0
19 -37 85 120 0
19 -37 -85 -120 0
-19 37 85 120 0
-19 37 -85 -120 0
-19 -37 85 -120 0
-19 -37 -85 120 0
117 119 126 -128 0
117 119 -126 128 0
117 -119 126 128 0
117 -119 -126 -128 0
-117 119 126 128 0
-117 119 -126 -128 0
-117 -119 126 -128 0
-117 -119 -126 128 0
44 48 54 -92 0
44 48 -54 92 0
44 -48 54 92 0
44 -48 -54 -92 0
-44 48 54 92 0
-44 48 -54 -92 0
-44 -48 54 -92 0
-44 -48 -54 92 0
