c description: is van der Waerden number vdw(3, 3) > 16 ?
c generator: CNFgen (0.9.5)
c copyright: (C) 2012-2026 Massimo Lauria <massimo.lauria@uniroma1.it>
c url: https://massimolauria.net/cnfgen
c random seed: 31186
c command line: cnfgen -S 31186 -o cnfgen_regression_pack/cnfgen_cases/vdw_2color_k3_n16_unsat.cnf vdw 16 3 3
c
c known_status: UNSAT
c pack_family: van_der_waerden
c pack_level: moderate
c pack_notes: Van der Waerden principle
p cnf 16 112
1 2 3 0
2 3 4 0
3 4 5 0
4 5 6 0
5 6 7 0
6 7 8 0
7 8 9 0
8 9 10 0
9 10 11 0
10 11 12 0
11 12 13 0
12 13 14 0
13 14 15 0
14 15 16 0
1 3 5 0
2 4 6 0
3 5 7 0
4 6 8 0
5 7 9 0
6 8 10 0
7 9 11 0
8 10 12 0
9 11 13 0
10 12 14 0
11 13 15 0
12 14 16 0
1 4 7 0
2 5 8 0
3 6 9 0
4 7 10 0
5 8 11 0
6 9 12 0
7 10 13 0
8 11 14 0
9 12 15 0
10 13 16 0
1 5 9 0
2 6 10 0
3 7 11 0
4 8 12 0
5 9 13 0
6 10 14 0
7 11 15 0
8 12 16 0
1 6 11 0
2 7 12 0
3 8 13 0
4 9 14 0
5 10 15 0
6 11 16 0
1 7 13 0
2 8 14 0
3 9 15 0
4 10 16 0
1 8 15 0
2 9 16 0
-1 -2 -3 0
-2 -3 -4 0
-3 -4 -5 0
-4 -5 -6 0
-5 -6 -7 0
-6 -7 -8 0
-7 -8 -9 0
-8 -9 -10 0
-9 -10 -11 0
-10 -11 -12 0
-11 -12 -13 0
-12 -13 -14 0
-13 -14 -15 0
-14 -15 -16 0
-1 -3 -5 0
-2 -4 -6 0
-3 -5 -7 0
-4 -6 -8 0
-5 -7 -9 0
-6 -8 -10 0
-7 -9 -11 0
-8 -10 -12 0
-9 -11 -13 0
-10 -12 -14 0
-11 -13 -15 0
-12 -14 -16 0
-1 -4 -7 0
-2 -5 -8 0
-3 -6 -9 0
-4 -7 -10 0
-5 -8 -11 0
-6 -9 -12 0
-7 -10 -13 0
-8 -11 -14 0
-9 -12 -15 0
-10 -13 -16 0
-1 -5 -9 0
-2 -6 -10 0
-3 -7 -11 0
-4 -8 -12 0
-5 -9 -13 0
-6 -10 -14 0
-7 -11 -15 0
-8 -12 -16 0
-1 -6 -11 0
-2 -7 -12 0
-3 -8 -13 0
-4 -9 -14 0
-5 -10 -15 0
-6 -11 -16 0
-1 -7 -13 0
-2 -8 -14 0
-3 -9 -15 0
-4 -10 -16 0
-1 -8 -15 0
-2 -9 -16 0
