c description: Random 3-CNF over 12 variables and 42 clauses
c generator: CNFgen (0.9.5)
c copyright: (C) 2012-2026 Massimo Lauria <massimo.lauria@uniroma1.it>
c url: https://massimolauria.net/cnfgen
c transformation 1: Substitution with XOR of arity 2
c random seed: 31225
c command line: cnfgen -S 31225 -o cnfgen_regression_pack/cnfgen_cases/xor2_rand3cnf_v12_m42_planted_sat.cnf randkcnf -p 3 12 42 -T xor 2
c
c known_status: SAT
c pack_family: planted_randkcnf_transform
c pack_level: moderate
c pack_notes: satisfiability-preserving CNFgen transformation
p cnf 24 336
13 -14 15 -16 19 20 0
13 -14 15 -16 -19 -20 0
13 -14 -15 16 19 20 0
13 -14 -15 16 -19 -20 0
-13 14 15 -16 19 20 0
-13 14 15 -16 -19 -20 0
-13 14 -15 16 19 20 0
-13 14 -15 16 -19 -20 0
1 -2 3 4 9 -10 0
1 -2 3 4 -9 10 0
1 -2 -3 -4 9 -10 0
1 -2 -3 -4 -9 10 0
-1 2 3 4 9 -10 0
-1 2 3 4 -9 10 0
-1 2 -3 -4 9 -10 0
-1 2 -3 -4 -9 10 0
7 8 17 18 21 -22 0
7 8 17 18 -21 22 0
7 8 -17 -18 21 -22 0
7 8 -17 -18 -21 22 0
-7 -8 17 18 21 -22 0
-7 -8 17 18 -21 22 0
-7 -8 -17 -18 21 -22 0
-7 -8 -17 -18 -21 22 0
1 -2 15 16 19 20 0
1 -2 15 16 -19 -20 0
1 -2 -15 -16 19 20 0
1 -2 -15 -16 -19 -20 0
-1 2 15 16 19 20 0
-1 2 15 16 -19 -20 0
-1 2 -15 -16 19 20 0
-1 2 -15 -16 -19 -20 0
9 -10 11 12 19 -20 0
9 -10 11 12 -19 20 0
9 -10 -11 -12 19 -20 0
9 -10 -11 -12 -19 20 0
-9 10 11 12 19 -20 0
-9 10 11 12 -19 20 0
-9 10 -11 -12 19 -20 0
-9 10 -11 -12 -19 20 0
9 10 11 -12 17 18 0
9 10 11 -12 -17 -18 0
9 10 -11 12 17 18 0
9 10 -11 12 -17 -18 0
-9 -10 11 -12 17 18 0
-9 -10 11 -12 -17 -18 0
-9 -10 -11 12 17 18 0
-9 -10 -11 12 -17 -18 0
1 -2 17 18 23 24 0
1 -2 17 18 -23 -24 0
1 -2 -17 -18 23 24 0
1 -2 -17 -18 -23 -24 0
-1 2 17 18 23 24 0
-1 2 17 18 -23 -24 0
-1 2 -17 -18 23 24 0
-1 2 -17 -18 -23 -24 0
7 8 21 -22 23 -24 0
7 8 21 -22 -23 24 0
7 8 -21 22 23 -24 0
7 8 -21 22 -23 24 0
-7 -8 21 -22 23 -24 0
-7 -8 21 -22 -23 24 0
-7 -8 -21 22 23 -24 0
-7 -8 -21 22 -23 24 0
7 8 15 16 19 20 0
7 8 15 16 -19 -20 0
7 8 -15 -16 19 20 0
7 8 -15 -16 -19 -20 0
-7 -8 15 16 19 20 0
-7 -8 15 16 -19 -20 0
-7 -8 -15 -16 19 20 0
-7 -8 -15 -16 -19 -20 0
5 -6 7 -8 15 16 0
5 -6 7 -8 -15 -16 0
5 -6 -7 8 15 16 0
5 -6 -7 8 -15 -16 0
-5 6 7 -8 15 16 0
-5 6 7 -8 -15 -16 0
-5 6 -7 8 15 16 0
-5 6 -7 8 -15 -16 0
3 4 11 12 19 -20 0
3 4 11 12 -19 20 0
3 4 -11 -12 19 -20 0
3 4 -11 -12 -19 20 0
-3 -4 11 12 19 -20 0
-3 -4 11 12 -19 20 0
-3 -4 -11 -12 19 -20 0
-3 -4 -11 -12 -19 20 0
3 4 17 -18 21 -22 0
3 4 17 -18 -21 22 0
3 4 -17 18 21 -22 0
3 4 -17 18 -21 22 0
-3 -4 17 -18 21 -22 0
-3 -4 17 -18 -21 22 0
-3 -4 -17 18 21 -22 0
-3 -4 -17 18 -21 22 0
3 4 13 -14 23 24 0
3 4 13 -14 -23 -24 0
3 4 -13 14 23 24 0
3 4 -13 14 -23 -24 0
-3 -4 13 -14 23 24 0
-3 -4 13 -14 -23 -24 0
-3 -4 -13 14 23 24 0
-3 -4 -13 14 -23 -24 0
1 -2 17 18 21 22 0
1 -2 17 18 -21 -22 0
1 -2 -17 -18 21 22 0
1 -2 -17 -18 -21 -22 0
-1 2 17 18 21 22 0
-1 2 17 18 -21 -22 0
-1 2 -17 -18 21 22 0
-1 2 -17 -18 -21 -22 0
9 -10 19 -20 23 24 0
9 -10 19 -20 -23 -24 0
9 -10 -19 20 23 24 0
9 -10 -19 20 -23 -24 0
-9 10 19 -20 23 24 0
-9 10 19 -20 -23 -24 0
-9 10 -19 20 23 24 0
-9 10 -19 20 -23 -24 0
7 -8 11 12 15 16 0
7 -8 11 12 -15 -16 0
7 -8 -11 -12 15 16 0
7 -8 -11 -12 -15 -16 0
-7 8 11 12 15 16 0
-7 8 11 12 -15 -16 0
-7 8 -11 -12 15 16 0
-7 8 -11 -12 -15 -16 0
15 16 17 18 19 -20 0
15 16 17 18 -19 20 0
15 16 -17 -18 19 -20 0
15 16 -17 -18 -19 20 0
-15 -16 17 18 19 -20 0
-15 -16 17 18 -19 20 0
-15 -16 -17 -18 19 -20 0
-15 -16 -17 -18 -19 20 0
3 -4 9 -10 11 -12 0
3 -4 9 -10 -11 12 0
3 -4 -9 10 11 -12 0
3 -4 -9 10 -11 12 0
-3 4 9 -10 11 -12 0
-3 4 9 -10 -11 12 0
-3 4 -9 10 11 -12 0
-3 4 -9 10 -11 12 0
9 10 11 -12 19 -20 0
9 10 11 -12 -19 20 0
9 10 -11 12 19 -20 0
9 10 -11 12 -19 20 0
-9 -10 11 -12 19 -20 0
-9 -10 11 -12 -19 20 0
-9 -10 -11 12 19 -20 0
-9 -10 -11 12 -19 20 0
9 -10 11 -12 23 -24 0
9 -10 11 -12 -23 24 0
9 -10 -11 12 23 -24 0
9 -10 -11 12 -23 24 0
-9 10 11 -12 23 -24 0
-9 10 11 -12 -23 24 0
-9 10 -11 12 23 -24 0
-9 10 -11 12 -23 24 0
5 -6 13 -14 19 20 0
5 -6 13 -14 -19 -20 0
5 -6 -13 14 19 20 0
5 -6 -13 14 -19 -20 0
-5 6 13 -14 19 20 0
-5 6 13 -14 -19 -20 0
-5 6 -13 14 19 20 0
-5 6 -13 14 -19 -20 0
1 -2 5 6 13 -14 0
1 -2 5 6 -13 14 0
1 -2 -5 -6 13 -14 0
1 -2 -5 -6 -13 14 0
-1 2 5 6 13 -14 0
-1 2 5 6 -13 14 0
-1 2 -5 -6 13 -14 0
-1 2 -5 -6 -13 14 0
5 6 19 20 23 -24 0
5 6 19 20 -23 24 0
5 6 -19 -20 23 -24 0
5 6 -19 -20 -23 24 0
-5 -6 19 20 23 -24 0
-5 -6 19 20 -23 24 0
-5 -6 -19 -20 23 -24 0
-5 -6 -19 -20 -23 24 0
15 -16 19 -20 23 -24 0
15 -16 19 -20 -23 24 0
15 -16 -19 20 23 -24 0
15 -16 -19 20 -23 24 0
-15 16 19 -20 23 -24 0
-15 16 19 -20 -23 24 0
-15 16 -19 20 23 -24 0
-15 16 -19 20 -23 24 0
1 -2 9 10 15 16 0
1 -2 9 10 -15 -16 0
1 -2 -9 -10 15 16 0
1 -2 -9 -10 -15 -16 0
-1 2 9 10 15 16 0
-1 2 9 10 -15 -16 0
-1 2 -9 -10 15 16 0
-1 2 -9 -10 -15 -16 0
3 4 5 -6 15 -16 0
3 4 5 -6 -15 16 0
3 4 -5 6 15 -16 0
3 4 -5 6 -15 16 0
-3 -4 5 -6 15 -16 0
-3 -4 5 -6 -15 16 0
-3 -4 -5 6 15 -16 0
-3 -4 -5 6 -15 16 0
11 -12 15 16 19 20 0
11 -12 15 16 -19 -20 0
11 -12 -15 -16 19 20 0
11 -12 -15 -16 -19 -20 0
-11 12 15 16 19 20 0
-11 12 15 16 -19 -20 0
-11 12 -15 -16 19 20 0
-11 12 -15 -16 -19 -20 0
1 2 15 -16 23 -24 0
1 2 15 -16 -23 24 0
1 2 -15 16 23 -24 0
1 2 -15 16 -23 24 0
-1 -2 15 -16 23 -24 0
-1 -2 15 -16 -23 24 0
-1 -2 -15 16 23 -24 0
-1 -2 -15 16 -23 24 0
1 -2 7 -8 15 16 0
1 -2 7 -8 -15 -16 0
1 -2 -7 8 15 16 0
1 -2 -7 8 -15 -16 0
-1 2 7 -8 15 16 0
-1 2 7 -8 -15 -16 0
-1 2 -7 8 15 16 0
-1 2 -7 8 -15 -16 0
11 12 19 -20 21 -22 0
11 12 19 -20 -21 22 0
11 12 -19 20 21 -22 0
11 12 -19 20 -21 22 0
-11 -12 19 -20 21 -22 0
-11 -12 19 -20 -21 22 0
-11 -12 -19 20 21 -22 0
-11 -12 -19 20 -21 22 0
3 -4 19 -20 21 22 0
3 -4 19 -20 -21 -22 0
3 -4 -19 20 21 22 0
3 -4 -19 20 -21 -22 0
-3 4 19 -20 21 22 0
-3 4 19 -20 -21 -22 0
-3 4 -19 20 21 22 0
-3 4 -19 20 -21 -22 0
5 6 13 14 21 -22 0
5 6 13 14 -21 22 0
5 6 -13 -14 21 -22 0
5 6 -13 -14 -21 22 0
-5 -6 13 14 21 -22 0
-5 -6 13 14 -21 22 0
-5 -6 -13 -14 21 -22 0
-5 -6 -13 -14 -21 22 0
3 4 11 -12 17 18 0
3 4 11 -12 -17 -18 0
3 4 -11 12 17 18 0
3 4 -11 12 -17 -18 0
-3 -4 11 -12 17 18 0
-3 -4 11 -12 -17 -18 0
-3 -4 -11 12 17 18 0
-3 -4 -11 12 -17 -18 0
1 2 11 12 17 -18 0
1 2 11 12 -17 18 0
1 2 -11 -12 17 -18 0
1 2 -11 -12 -17 18 0
-1 -2 11 12 17 -18 0
-1 -2 11 12 -17 18 0
-1 -2 -11 -12 17 -18 0
-1 -2 -11 -12 -17 18 0
3 -4 11 -12 23 -24 0
3 -4 11 -12 -23 24 0
3 -4 -11 12 23 -24 0
3 -4 -11 12 -23 24 0
-3 4 11 -12 23 -24 0
-3 4 11 -12 -23 24 0
-3 4 -11 12 23 -24 0
-3 4 -11 12 -23 24 0
7 -8 9 10 19 -20 0
7 -8 9 10 -19 20 0
7 -8 -9 -10 19 -20 0
7 -8 -9 -10 -19 20 0
-7 8 9 10 19 -20 0
-7 8 9 10 -19 20 0
-7 8 -9 -10 19 -20 0
-7 8 -9 -10 -19 20 0
5 6 9 -10 15 -16 0
5 6 9 -10 -15 16 0
5 6 -9 10 15 -16 0
5 6 -9 10 -15 16 0
-5 -6 9 -10 15 -16 0
-5 -6 9 -10 -15 16 0
-5 -6 -9 10 15 -16 0
-5 -6 -9 10 -15 16 0
3 -4 5 6 11 -12 0
3 -4 5 6 -11 12 0
3 -4 -5 -6 11 -12 0
3 -4 -5 -6 -11 12 0
-3 4 5 6 11 -12 0
-3 4 5 6 -11 12 0
-3 4 -5 -6 11 -12 0
-3 4 -5 -6 -11 12 0
11 -12 13 -14 15 -16 0
11 -12 13 -14 -15 16 0
11 -12 -13 14 15 -16 0
11 -12 -13 14 -15 16 0
-11 12 13 -14 15 -16 0
-11 12 13 -14 -15 16 0
-11 12 -13 14 15 -16 0
-11 12 -13 14 -15 16 0
3 4 19 -20 23 -24 0
3 4 19 -20 -23 24 0
3 4 -19 20 23 -24 0
3 4 -19 20 -23 24 0
-3 -4 19 -20 23 -24 0
-3 -4 19 -20 -23 24 0
-3 -4 -19 20 23 -24 0
-3 -4 -19 20 -23 24 0
3 -4 11 -12 21 -22 0
3 -4 11 -12 -21 22 0
3 -4 -11 12 21 -22 0
3 -4 -11 12 -21 22 0
-3 4 11 -12 21 -22 0
-3 4 11 -12 -21 22 0
-3 4 -11 12 21 -22 0
-3 4 -11 12 -21 22 0
7 8 13 14 19 -20 0
7 8 13 14 -19 20 0
7 8 -13 -14 19 -20 0
7 8 -13 -14 -19 20 0
-7 -8 13 14 19 -20 0
-7 -8 13 14 -19 20 0
-7 -8 -13 -14 19 -20 0
-7 -8 -13 -14 -19 20 0
