c description: Counting Principle: 5 divided in parts of size 2.
c generator: CNFgen (0.9.5)
c copyright: (C) 2012-2026 Massimo Lauria <massimo.lauria@uniroma1.it>
c url: https://massimolauria.net/cnfgen
c transformation 1: Substitution with XOR of arity 2
c random seed: 31222
c command line: cnfgen -S 31222 -o cnfgen_regression_pack/cnfgen_cases/xor2_parity_n5_unsat.cnf parity 5 -T xor 2
c
c known_status: UNSAT
c pack_family: parity_transform
c pack_level: moderate
c pack_notes: satisfiability-preserving CNFgen transformation
p cnf 20 200
1 -2 3 -4 0
1 -2 -3 4 0
-1 2 3 -4 0
-1 2 -3 4 0
1 -2 5 -6 0
1 -2 -5 6 0
-1 2 5 -6 0
-1 2 -5 6 0
1 -2 7 -8 0
1 -2 -7 8 0
-1 2 7 -8 0
-1 2 -7 8 0
3 -4 5 -6 0
3 -4 -5 6 0
-3 4 5 -6 0
-3 4 -5 6 0
3 -4 7 -8 0
3 -4 -7 8 0
-3 4 7 -8 0
-3 4 -7 8 0
5 -6 7 -8 0
5 -6 -7 8 0
-5 6 7 -8 0
-5 6 -7 8 0
1 2 3 4 5 6 7 8 0
1 2 3 4 5 6 -7 -8 0
1 2 3 4 -5 -6 7 8 0
1 2 3 4 -5 -6 -7 -8 0
1 2 -3 -4 5 6 7 8 0
1 2 -3 -4 5 6 -7 -8 0
1 2 -3 -4 -5 -6 7 8 0
1 2 -3 -4 -5 -6 -7 -8 0
-1 -2 3 4 5 6 7 8 0
-1 -2 3 4 5 6 -7 -8 0
-1 -2 3 4 -5 -6 7 8 0
-1 -2 3 4 -5 -6 -7 -8 0
-1 -2 -3 -4 5 6 7 8 0
-1 -2 -3 -4 5 6 -7 -8 0
-1 -2 -3 -4 -5 -6 7 8 0
-1 -2 -3 -4 -5 -6 -7 -8 0
1 -2 9 -10 0
1 -2 -9 10 0
-1 2 9 -10 0
-1 2 -9 10 0
1 -2 11 -12 0
1 -2 -11 12 0
-1 2 11 -12 0
-1 2 -11 12 0
1 -2 13 -14 0
1 -2 -13 14 0
-1 2 13 -14 0
-1 2 -13 14 0
9 -10 11 -12 0
9 -10 -11 12 0
-9 10 11 -12 0
-9 10 -11 12 0
9 -10 13 -14 0
9 -10 -13 14 0
-9 10 13 -14 0
-9 10 -13 14 0
11 -12 13 -14 0
11 -12 -13 14 0
-11 12 13 -14 0
-11 12 -13 14 0
1 2 9 10 11 12 13 14 0
1 2 9 10 11 12 -13 -14 0
1 2 9 10 -11 -12 13 14 0
1 2 9 10 -11 -12 -13 -14 0
1 2 -9 -10 11 12 13 14 0
1 2 -9 -10 11 12 -13 -14 0
1 2 -9 -10 -11 -12 13 14 0
1 2 -9 -10 -11 -12 -13 -14 0
-1 -2 9 10 11 12 13 14 0
-1 -2 9 10 11 12 -13 -14 0
-1 -2 9 10 -11 -12 13 14 0
-1 -2 9 10 -11 -12 -13 -14 0
-1 -2 -9 -10 11 12 13 14 0
-1 -2 -9 -10 11 12 -13 -14 0
-1 -2 -9 -10 -11 -12 13 14 0
-1 -2 -9 -10 -11 -12 -13 -14 0
3 -4 9 -10 0
3 -4 -9 10 0
-3 4 9 -10 0
-3 4 -9 10 0
3 -4 15 -16 0
3 -4 -15 16 0
-3 4 15 -16 0
-3 4 -15 16 0
3 -4 17 -18 0
3 -4 -17 18 0
-3 4 17 -18 0
-3 4 -17 18 0
9 -10 15 -16 0
9 -10 -15 16 0
-9 10 15 -16 0
-9 10 -15 16 0
9 -10 17 -18 0
9 -10 -17 18 0
-9 10 17 -18 0
-9 10 -17 18 0
15 -16 17 -18 0
15 -16 -17 18 0
-15 16 17 -18 0
-15 16 -17 18 0
3 4 9 10 15 16 17 18 0
3 4 9 10 15 16 -17 -18 0
3 4 9 10 -15 -16 17 18 0
3 4 9 10 -15 -16 -17 -18 0
3 4 -9 -10 15 16 17 18 0
3 4 -9 -10 15 16 -17 -18 0
3 4 -9 -10 -15 -16 17 18 0
3 4 -9 -10 -15 -16 -17 -18 0
-3 -4 9 10 15 16 17 18 0
-3 -4 9 10 15 16 -17 -18 0
-3 -4 9 10 -15 -16 17 18 0
-3 -4 9 10 -15 -16 -17 -18 0
-3 -4 -9 -10 15 16 17 18 0
-3 -4 -9 -10 15 16 -17 -18 0
-3 -4 -9 -10 -15 -16 17 18 0
-3 -4 -9 -10 -15 -16 -17 -18 0
5 -6 11 -12 0
5 -6 -11 12 0
-5 6 11 -12 0
-5 6 -11 12 0
5 -6 15 -16 0
5 -6 -15 16 0
-5 6 15 -16 0
-5 6 -15 16 0
5 -6 19 -20 0
5 -6 -19 20 0
-5 6 19 -20 0
-5 6 -19 20 0
11 -12 15 -16 0
11 -12 -15 16 0
-11 12 15 -16 0
-11 12 -15 16 0
11 -12 19 -20 0
11 -12 -19 20 0
-11 12 19 -20 0
-11 12 -19 20 0
15 -16 19 -20 0
15 -16 -19 20 0
-15 16 19 -20 0
-15 16 -19 20 0
5 6 11 12 15 16 19 20 0
5 6 11 12 15 16 -19 -20 0
5 6 11 12 -15 -16 19 20 0
5 6 11 12 -15 -16 -19 -20 0
5 6 -11 -12 15 16 19 20 0
5 6 -11 -12 15 16 -19 -20 0
5 6 -11 -12 -15 -16 19 20 0
5 6 -11 -12 -15 -16 -19 -20 0
-5 -6 11 12 15 16 19 20 0
-5 -6 11 12 15 16 -19 -20 0
-5 -6 11 12 -15 -16 19 20 0
-5 -6 11 12 -15 -16 -19 -20 0
-5 -6 -11 -12 15 16 19 20 0
-5 -6 -11 -12 15 16 -19 -20 0
-5 -6 -11 -12 -15 -16 19 20 0
-5 -6 -11 -12 -15 -16 -19 -20 0
7 -8 13 -14 0
7 -8 -13 14 0
-7 8 13 -14 0
-7 8 -13 14 0
7 -8 17 -18 0
7 -8 -17 18 0
-7 8 17 -18 0
-7 8 -17 18 0
7 -8 19 -20 0
7 -8 -19 20 0
-7 8 19 -20 0
-7 8 -19 20 0
13 -14 17 -18 0
13 -14 -17 18 0
-13 14 17 -18 0
-13 14 -17 18 0
13 -14 19 -20 0
13 -14 -19 20 0
-13 14 19 -20 0
-13 14 -19 20 0
17 -18 19 -20 0
17 -18 -19 20 0
-17 18 19 -20 0
-17 18 -19 20 0
7 8 13 14 17 18 19 20 0
7 8 13 14 17 18 -19 -20 0
7 8 13 14 -17 -18 19 20 0
7 8 13 14 -17 -18 -19 -20 0
7 8 -13 -14 17 18 19 20 0
7 8 -13 -14 17 18 -19 -20 0
7 8 -13 -14 -17 -18 19 20 0
7 8 -13 -14 -17 -18 -19 -20 0
-7 -8 13 14 17 18 19 20 0
-7 -8 13 14 17 18 -19 -20 0
-7 -8 13 14 -17 -18 19 20 0
-7 -8 13 14 -17 -18 -19 -20 0
-7 -8 -13 -14 17 18 19 20 0
-7 -8 -13 -14 17 18 -19 -20 0
-7 -8 -13 -14 -17 -18 19 20 0
-7 -8 -13 -14 -17 -18 -19 -20 0
