c generated_for formulae_like_variant benchmark
c dataset formulae_like_03
c variant 3
c seed_base 20290601
c family graph_coloring
c expected_status SAT
c notes 500-variable planted 4-coloring
p cnf 500 1995
1 2 3 4 0
-1 -2 0
-1 -3 0
-1 -4 0
-2 -3 0
-2 -4 0
-3 -4 0
5 6 7 8 0
-5 -6 0
-5 -7 0
-5 -8 0
-6 -7 0
-6 -8 0
-7 -8 0
9 10 11 12 0
-9 -10 0
-9 -11 0
-9 -12 0
-10 -11 0
-10 -12 0
-11 -12 0
13 14 15 16 0
-13 -14 0
-13 -15 0
-13 -16 0
-14 -15 0
-14 -16 0
-15 -16 0
17 18 19 20 0
-17 -18 0
-17 -19 0
-17 -20 0
-18 -19 0
-18 -20 0
-19 -20 0
21 22 23 24 0
-21 -22 0
-21 -23 0
-21 -24 0
-22 -23 0
-22 -24 0
-23 -24 0
25 26 27 28 0
-25 -26 0
-25 -27 0
-25 -28 0
-26 -27 0
-26 -28 0
-27 -28 0
29 30 31 32 0
-29 -30 0
-29 -31 0
-29 -32 0
-30 -31 0
-30 -32 0
-31 -32 0
33 34 35 36 0
-33 -34 0
-33 -35 0
-33 -36 0
-34 -35 0
-34 -36 0
-35 -36 0
37 38 39 40 0
-37 -38 0
-37 -39 0
-37 -40 0
-38 -39 0
-38 -40 0
-39 -40 0
41 42 43 44 0
-41 -42 0
-41 -43 0
-41 -44 0
-42 -43 0
-42 -44 0
-43 -44 0
45 46 47 48 0
-45 -46 0
-45 -47 0
-45 -48 0
-46 -47 0
-46 -48 0
-47 -48 0
49 50 51 52 0
-49 -50 0
-49 -51 0
-49 -52 0
-50 -51 0
-50 -52 0
-51 -52 0
53 54 55 56 0
-53 -54 0
-53 -55 0
-53 -56 0
-54 -55 0
-54 -56 0
-55 -56 0
57 58 59 60 0
-57 -58 0
-57 -59 0
-57 -60 0
-58 -59 0
-58 -60 0
-59 -60 0
61 62 63 64 0
-61 -62 0
-61 -63 0
-61 -64 0
-62 -63 0
-62 -64 0
-63 -64 0
65 66 67 68 0
-65 -66 0
-65 -67 0
-65 -68 0
-66 -67 0
-66 -68 0
-67 -68 0
69 70 71 72 0
-69 -70 0
-69 -71 0
-69 -72 0
-70 -71 0
-70 -72 0
-71 -72 0
73 74 75 76 0
-73 -74 0
-73 -75 0
-73 -76 0
-74 -75 0
-74 -76 0
-75 -76 0
77 78 79 80 0
-77 -78 0
-77 -79 0
-77 -80 0
-78 -79 0
-78 -80 0
-79 -80 0
81 82 83 84 0
-81 -82 0
-81 -83 0
-81 -84 0
-82 -83 0
-82 -84 0
-83 -84 0
85 86 87 88 0
-85 -86 0
-85 -87 0
-85 -88 0
-86 -87 0
-86 -88 0
-87 -88 0
89 90 91 92 0
-89 -90 0
-89 -91 0
-89 -92 0
-90 -91 0
-90 -92 0
-91 -92 0
93 94 95 96 0
-93 -94 0
-93 -95 0
-93 -96 0
-94 -95 0
-94 -96 0
-95 -96 0
97 98 99 100 0
-97 -98 0
-97 -99 0
-97 -100 0
-98 -99 0
-98 -100 0
-99 -100 0
101 102 103 104 0
-101 -102 0
-101 -103 0
-101 -104 0
-102 -103 0
-102 -104 0
-103 -104 0
105 106 107 108 0
-105 -106 0
-105 -107 0
-105 -108 0
-106 -107 0
-106 -108 0
-107 -108 0
109 110 111 112 0
-109 -110 0
-109 -111 0
-109 -112 0
-110 -111 0
-110 -112 0
-111 -112 0
113 114 115 116 0
-113 -114 0
-113 -115 0
-113 -116 0
-114 -115 0
-114 -116 0
-115 -116 0
117 118 119 120 0
-117 -118 0
-117 -119 0
-117 -120 0
-118 -119 0
-118 -120 0
-119 -120 0
121 122 123 124 0
-121 -122 0
-121 -123 0
-121 -124 0
-122 -123 0
-122 -124 0
-123 -124 0
125 126 127 128 0
-125 -126 0
-125 -127 0
-125 -128 0
-126 -127 0
-126 -128 0
-127 -128 0
129 130 131 132 0
-129 -130 0
-129 -131 0
-129 -132 0
-130 -131 0
-130 -132 0
-131 -132 0
133 134 135 136 0
-133 -134 0
-133 -135 0
-133 -136 0
-134 -135 0
-134 -136 0
-135 -136 0
137 138 139 140 0
-137 -138 0
-137 -139 0
-137 -140 0
-138 -139 0
-138 -140 0
-139 -140 0
141 142 143 144 0
-141 -142 0
-141 -143 0
-141 -144 0
-142 -143 0
-142 -144 0
-143 -144 0
145 146 147 148 0
-145 -146 0
-145 -147 0
-145 -148 0
-146 -147 0
-146 -148 0
-147 -148 0
149 150 151 152 0
-149 -150 0
-149 -151 0
-149 -152 0
-150 -151 0
-150 -152 0
-151 -152 0
153 154 155 156 0
-153 -154 0
-153 -155 0
-153 -156 0
-154 -155 0
-154 -156 0
-155 -156 0
157 158 159 160 0
-157 -158 0
-157 -159 0
-157 -160 0
-158 -159 0
-158 -160 0
-159 -160 0
161 162 163 164 0
-161 -162 0
-161 -163 0
-161 -164 0
-162 -163 0
-162 -164 0
-163 -164 0
165 166 167 168 0
-165 -166 0
-165 -167 0
-165 -168 0
-166 -167 0
-166 -168 0
-167 -168 0
169 170 171 172 0
-169 -170 0
-169 -171 0
-169 -172 0
-170 -171 0
-170 -172 0
-171 -172 0
173 174 175 176 0
-173 -174 0
-173 -175 0
-173 -176 0
-174 -175 0
-174 -176 0
-175 -176 0
177 178 179 180 0
-177 -178 0
-177 -179 0
-177 -180 0
-178 -179 0
-178 -180 0
-179 -180 0
181 182 183 184 0
-181 -182 0
-181 -183 0
-181 -184 0
-182 -183 0
-182 -184 0
-183 -184 0
185 186 187 188 0
-185 -186 0
-185 -187 0
-185 -188 0
-186 -187 0
-186 -188 0
-187 -188 0
189 190 191 192 0
-189 -190 0
-189 -191 0
-189 -192 0
-190 -191 0
-190 -192 0
-191 -192 0
193 194 195 196 0
-193 -194 0
-193 -195 0
-193 -196 0
-194 -195 0
-194 -196 0
-195 -196 0
197 198 199 200 0
-197 -198 0
-197 -199 0
-197 -200 0
-198 -199 0
-198 -200 0
-199 -200 0
201 202 203 204 0
-201 -202 0
-201 -203 0
-201 -204 0
-202 -203 0
-202 -204 0
-203 -204 0
205 206 207 208 0
-205 -206 0
-205 -207 0
-205 -208 0
-206 -207 0
-206 -208 0
-207 -208 0
209 210 211 212 0
-209 -210 0
-209 -211 0
-209 -212 0
-210 -211 0
-210 -212 0
-211 -212 0
213 214 215 216 0
-213 -214 0
-213 -215 0
-213 -216 0
-214 -215 0
-214 -216 0
-215 -216 0
217 218 219 220 0
-217 -218 0
-217 -219 0
-217 -220 0
-218 -219 0
-218 -220 0
-219 -220 0
221 222 223 224 0
-221 -222 0
-221 -223 0
-221 -224 0
-222 -223 0
-222 -224 0
-223 -224 0
225 226 227 228 0
-225 -226 0
-225 -227 0
-225 -228 0
-226 -227 0
-226 -228 0
-227 -228 0
229 230 231 232 0
-229 -230 0
-229 -231 0
-229 -232 0
-230 -231 0
-230 -232 0
-231 -232 0
233 234 235 236 0
-233 -234 0
-233 -235 0
-233 -236 0
-234 -235 0
-234 -236 0
-235 -236 0
237 238 239 240 0
-237 -238 0
-237 -239 0
-237 -240 0
-238 -239 0
-238 -240 0
-239 -240 0
241 242 243 244 0
-241 -242 0
-241 -243 0
-241 -244 0
-242 -243 0
-242 -244 0
-243 -244 0
245 246 247 248 0
-245 -246 0
-245 -247 0
-245 -248 0
-246 -247 0
-246 -248 0
-247 -248 0
249 250 251 252 0
-249 -250 0
-249 -251 0
-249 -252 0
-250 -251 0
-250 -252 0
-251 -252 0
253 254 255 256 0
-253 -254 0
-253 -255 0
-253 -256 0
-254 -255 0
-254 -256 0
-255 -256 0
257 258 259 260 0
-257 -258 0
-257 -259 0
-257 -260 0
-258 -259 0
-258 -260 0
-259 -260 0
261 262 263 264 0
-261 -262 0
-261 -263 0
-261 -264 0
-262 -263 0
-262 -264 0
-263 -264 0
265 266 267 268 0
-265 -266 0
-265 -267 0
-265 -268 0
-266 -267 0
-266 -268 0
-267 -268 0
269 270 271 272 0
-269 -270 0
-269 -271 0
-269 -272 0
-270 -271 0
-270 -272 0
-271 -272 0
273 274 275 276 0
-273 -274 0
-273 -275 0
-273 -276 0
-274 -275 0
-274 -276 0
-275 -276 0
277 278 279 280 0
-277 -278 0
-277 -279 0
-277 -280 0
-278 -279 0
-278 -280 0
-279 -280 0
281 282 283 284 0
-281 -282 0
-281 -283 0
-281 -284 0
-282 -283 0
-282 -284 0
-283 -284 0
285 286 287 288 0
-285 -286 0
-285 -287 0
-285 -288 0
-286 -287 0
-286 -288 0
-287 -288 0
289 290 291 292 0
-289 -290 0
-289 -291 0
-289 -292 0
-290 -291 0
-290 -292 0
-291 -292 0
293 294 295 296 0
-293 -294 0
-293 -295 0
-293 -296 0
-294 -295 0
-294 -296 0
-295 -296 0
297 298 299 300 0
-297 -298 0
-297 -299 0
-297 -300 0
-298 -299 0
-298 -300 0
-299 -300 0
301 302 303 304 0
-301 -302 0
-301 -303 0
-301 -304 0
-302 -303 0
-302 -304 0
-303 -304 0
305 306 307 308 0
-305 -306 0
-305 -307 0
-305 -308 0
-306 -307 0
-306 -308 0
-307 -308 0
309 310 311 312 0
-309 -310 0
-309 -311 0
-309 -312 0
-310 -311 0
-310 -312 0
-311 -312 0
313 314 315 316 0
-313 -314 0
-313 -315 0
-313 -316 0
-314 -315 0
-314 -316 0
-315 -316 0
317 318 319 320 0
-317 -318 0
-317 -319 0
-317 -320 0
-318 -319 0
-318 -320 0
-319 -320 0
321 322 323 324 0
-321 -322 0
-321 -323 0
-321 -324 0
-322 -323 0
-322 -324 0
-323 -324 0
325 326 327 328 0
-325 -326 0
-325 -327 0
-325 -328 0
-326 -327 0
-326 -328 0
-327 -328 0
329 330 331 332 0
-329 -330 0
-329 -331 0
-329 -332 0
-330 -331 0
-330 -332 0
-331 -332 0
333 334 335 336 0
-333 -334 0
-333 -335 0
-333 -336 0
-334 -335 0
-334 -336 0
-335 -336 0
337 338 339 340 0
-337 -338 0
-337 -339 0
-337 -340 0
-338 -339 0
-338 -340 0
-339 -340 0
341 342 343 344 0
-341 -342 0
-341 -343 0
-341 -344 0
-342 -343 0
-342 -344 0
-343 -344 0
345 346 347 348 0
-345 -346 0
-345 -347 0
-345 -348 0
-346 -347 0
-346 -348 0
-347 -348 0
349 350 351 352 0
-349 -350 0
-349 -351 0
-349 -352 0
-350 -351 0
-350 -352 0
-351 -352 0
353 354 355 356 0
-353 -354 0
-353 -355 0
-353 -356 0
-354 -355 0
-354 -356 0
-355 -356 0
357 358 359 360 0
-357 -358 0
-357 -359 0
-357 -360 0
-358 -359 0
-358 -360 0
-359 -360 0
361 362 363 364 0
-361 -362 0
-361 -363 0
-361 -364 0
-362 -363 0
-362 -364 0
-363 -364 0
365 366 367 368 0
-365 -366 0
-365 -367 0
-365 -368 0
-366 -367 0
-366 -368 0
-367 -368 0
369 370 371 372 0
-369 -370 0
-369 -371 0
-369 -372 0
-370 -371 0
-370 -372 0
-371 -372 0
373 374 375 376 0
-373 -374 0
-373 -375 0
-373 -376 0
-374 -375 0
-374 -376 0
-375 -376 0
377 378 379 380 0
-377 -378 0
-377 -379 0
-377 -380 0
-378 -379 0
-378 -380 0
-379 -380 0
381 382 383 384 0
-381 -382 0
-381 -383 0
-381 -384 0
-382 -383 0
-382 -384 0
-383 -384 0
385 386 387 388 0
-385 -386 0
-385 -387 0
-385 -388 0
-386 -387 0
-386 -388 0
-387 -388 0
389 390 391 392 0
-389 -390 0
-389 -391 0
-389 -392 0
-390 -391 0
-390 -392 0
-391 -392 0
393 394 395 396 0
-393 -394 0
-393 -395 0
-393 -396 0
-394 -395 0
-394 -396 0
-395 -396 0
397 398 399 400 0
-397 -398 0
-397 -399 0
-397 -400 0
-398 -399 0
-398 -400 0
-399 -400 0
401 402 403 404 0
-401 -402 0
-401 -403 0
-401 -404 0
-402 -403 0
-402 -404 0
-403 -404 0
405 406 407 408 0
-405 -406 0
-405 -407 0
-405 -408 0
-406 -407 0
-406 -408 0
-407 -408 0
409 410 411 412 0
-409 -410 0
-409 -411 0
-409 -412 0
-410 -411 0
-410 -412 0
-411 -412 0
413 414 415 416 0
-413 -414 0
-413 -415 0
-413 -416 0
-414 -415 0
-414 -416 0
-415 -416 0
417 418 419 420 0
-417 -418 0
-417 -419 0
-417 -420 0
-418 -419 0
-418 -420 0
-419 -420 0
421 422 423 424 0
-421 -422 0
-421 -423 0
-421 -424 0
-422 -423 0
-422 -424 0
-423 -424 0
425 426 427 428 0
-425 -426 0
-425 -427 0
-425 -428 0
-426 -427 0
-426 -428 0
-427 -428 0
429 430 431 432 0
-429 -430 0
-429 -431 0
-429 -432 0
-430 -431 0
-430 -432 0
-431 -432 0
433 434 435 436 0
-433 -434 0
-433 -435 0
-433 -436 0
-434 -435 0
-434 -436 0
-435 -436 0
437 438 439 440 0
-437 -438 0
-437 -439 0
-437 -440 0
-438 -439 0
-438 -440 0
-439 -440 0
441 442 443 444 0
-441 -442 0
-441 -443 0
-441 -444 0
-442 -443 0
-442 -444 0
-443 -444 0
445 446 447 448 0
-445 -446 0
-445 -447 0
-445 -448 0
-446 -447 0
-446 -448 0
-447 -448 0
449 450 451 452 0
-449 -450 0
-449 -451 0
-449 -452 0
-450 -451 0
-450 -452 0
-451 -452 0
453 454 455 456 0
-453 -454 0
-453 -455 0
-453 -456 0
-454 -455 0
-454 -456 0
-455 -456 0
457 458 459 460 0
-457 -458 0
-457 -459 0
-457 -460 0
-458 -459 0
-458 -460 0
-459 -460 0
461 462 463 464 0
-461 -462 0
-461 -463 0
-461 -464 0
-462 -463 0
-462 -464 0
-463 -464 0
465 466 467 468 0
-465 -466 0
-465 -467 0
-465 -468 0
-466 -467 0
-466 -468 0
-467 -468 0
469 470 471 472 0
-469 -470 0
-469 -471 0
-469 -472 0
-470 -471 0
-470 -472 0
-471 -472 0
473 474 475 476 0
-473 -474 0
-473 -475 0
-473 -476 0
-474 -475 0
-474 -476 0
-475 -476 0
477 478 479 480 0
-477 -478 0
-477 -479 0
-477 -480 0
-478 -479 0
-478 -480 0
-479 -480 0
481 482 483 484 0
-481 -482 0
-481 -483 0
-481 -484 0
-482 -483 0
-482 -484 0
-483 -484 0
485 486 487 488 0
-485 -486 0
-485 -487 0
-485 -488 0
-486 -487 0
-486 -488 0
-487 -488 0
489 490 491 492 0
-489 -490 0
-489 -491 0
-489 -492 0
-490 -491 0
-490 -492 0
-491 -492 0
493 494 495 496 0
-493 -494 0
-493 -495 0
-493 -496 0
-494 -495 0
-494 -496 0
-495 -496 0
497 498 499 500 0
-497 -498 0
-497 -499 0
-497 -500 0
-498 -499 0
-498 -500 0
-499 -500 0
-69 -477 0
-70 -478 0
-71 -479 0
-72 -480 0
-397 -465 0
-398 -466 0
-399 -467 0
-400 -468 0
-9 -253 0
-10 -254 0
-11 -255 0
-12 -256 0
-205 -393 0
-206 -394 0
-207 -395 0
-208 -396 0
-49 -477 0
-50 -478 0
-51 -479 0
-52 -480 0
-109 -133 0
-110 -134 0
-111 -135 0
-112 -136 0
-121 -285 0
-122 -286 0
-123 -287 0
-124 -288 0
-93 -313 0
-94 -314 0
-95 -315 0
-96 -316 0
-301 -389 0
-302 -390 0
-303 -391 0
-304 -392 0
-133 -445 0
-134 -446 0
-135 -447 0
-136 -448 0
-405 -493 0
-406 -494 0
-407 -495 0
-408 -496 0
-421 -425 0
-422 -426 0
-423 -427 0
-424 -428 0
-81 -265 0
-82 -266 0
-83 -267 0
-84 -268 0
-57 -229 0
-58 -230 0
-59 -231 0
-60 -232 0
-105 -245 0
-106 -246 0
-107 -247 0
-108 -248 0
-81 -117 0
-82 -118 0
-83 -119 0
-84 -120 0
-149 -345 0
-150 -346 0
-151 -347 0
-152 -348 0
-101 -461 0
-102 -462 0
-103 -463 0
-104 -464 0
-229 -365 0
-230 -366 0
-231 -367 0
-232 -368 0
-209 -221 0
-210 -222 0
-211 -223 0
-212 -224 0
-101 -129 0
-102 -130 0
-103 -131 0
-104 -132 0
-209 -329 0
-210 -330 0
-211 -331 0
-212 -332 0
-25 -37 0
-26 -38 0
-27 -39 0
-28 -40 0
-129 -269 0
-130 -270 0
-131 -271 0
-132 -272 0
-49 -185 0
-50 -186 0
-51 -187 0
-52 -188 0
-133 -329 0
-134 -330 0
-135 -331 0
-136 -332 0
-317 -485 0
-318 -486 0
-319 -487 0
-320 -488 0
-5 -129 0
-6 -130 0
-7 -131 0
-8 -132 0
-125 -361 0
-126 -362 0
-127 -363 0
-128 -364 0
-405 -449 0
-406 -450 0
-407 -451 0
-408 -452 0
-29 -197 0
-30 -198 0
-31 -199 0
-32 -200 0
-229 -429 0
-230 -430 0
-231 -431 0
-232 -432 0
-365 -441 0
-366 -442 0
-367 -443 0
-368 -444 0
-41 -469 0
-42 -470 0
-43 -471 0
-44 -472 0
-9 -197 0
-10 -198 0
-11 -199 0
-12 -200 0
-161 -269 0
-162 -270 0
-163 -271 0
-164 -272 0
-189 -353 0
-190 -354 0
-191 -355 0
-192 -356 0
-125 -165 0
-126 -166 0
-127 -167 0
-128 -168 0
-285 -341 0
-286 -342 0
-287 -343 0
-288 -344 0
-125 -473 0
-126 -474 0
-127 -475 0
-128 -476 0
-217 -433 0
-218 -434 0
-219 -435 0
-220 -436 0
-185 -305 0
-186 -306 0
-187 -307 0
-188 -308 0
-301 -409 0
-302 -410 0
-303 -411 0
-304 -412 0
-121 -497 0
-122 -498 0
-123 -499 0
-124 -500 0
-109 -369 0
-110 -370 0
-111 -371 0
-112 -372 0
-169 -485 0
-170 -486 0
-171 -487 0
-172 -488 0
-345 -485 0
-346 -486 0
-347 -487 0
-348 -488 0
-193 -425 0
-194 -426 0
-195 -427 0
-196 -428 0
-13 -245 0
-14 -246 0
-15 -247 0
-16 -248 0
-325 -353 0
-326 -354 0
-327 -355 0
-328 -356 0
-29 -161 0
-30 -162 0
-31 -163 0
-32 -164 0
-69 -465 0
-70 -466 0
-71 -467 0
-72 -468 0
-21 -81 0
-22 -82 0
-23 -83 0
-24 -84 0
-205 -273 0
-206 -274 0
-207 -275 0
-208 -276 0
-77 -341 0
-78 -342 0
-79 -343 0
-80 -344 0
-201 -241 0
-202 -242 0
-203 -243 0
-204 -244 0
-185 -461 0
-186 -462 0
-187 -463 0
-188 -464 0
-45 -297 0
-46 -298 0
-47 -299 0
-48 -300 0
-117 -313 0
-118 -314 0
-119 -315 0
-120 -316 0
-221 -377 0
-222 -378 0
-223 -379 0
-224 -380 0
-121 -269 0
-122 -270 0
-123 -271 0
-124 -272 0
-161 -197 0
-162 -198 0
-163 -199 0
-164 -200 0
-113 -133 0
-114 -134 0
-115 -135 0
-116 -136 0
-117 -141 0
-118 -142 0
-119 -143 0
-120 -144 0
-141 -145 0
-142 -146 0
-143 -147 0
-144 -148 0
-117 -429 0
-118 -430 0
-119 -431 0
-120 -432 0
-189 -433 0
-190 -434 0
-191 -435 0
-192 -436 0
-421 -477 0
-422 -478 0
-423 -479 0
-424 -480 0
-125 -129 0
-126 -130 0
-127 -131 0
-128 -132 0
-21 -377 0
-22 -378 0
-23 -379 0
-24 -380 0
-9 -157 0
-10 -158 0
-11 -159 0
-12 -160 0
-269 -401 0
-270 -402 0
-271 -403 0
-272 -404 0
-165 -205 0
-166 -206 0
-167 -207 0
-168 -208 0
-89 -133 0
-90 -134 0
-91 -135 0
-92 -136 0
-185 -277 0
-186 -278 0
-187 -279 0
-188 -280 0
-185 -385 0
-186 -386 0
-187 -387 0
-188 -388 0
-265 -373 0
-266 -374 0
-267 -375 0
-268 -376 0
-169 -417 0
-170 -418 0
-171 -419 0
-172 -420 0
-333 -437 0
-334 -438 0
-335 -439 0
-336 -440 0
-105 -401 0
-106 -402 0
-107 -403 0
-108 -404 0
-57 -109 0
-58 -110 0
-59 -111 0
-60 -112 0
-77 -197 0
-78 -198 0
-79 -199 0
-80 -200 0
-313 -349 0
-314 -350 0
-315 -351 0
-316 -352 0
-133 -225 0
-134 -226 0
-135 -227 0
-136 -228 0
-45 -185 0
-46 -186 0
-47 -187 0
-48 -188 0
-5 -17 0
-6 -18 0
-7 -19 0
-8 -20 0
-153 -421 0
-154 -422 0
-155 -423 0
-156 -424 0
-257 -325 0
-258 -326 0
-259 -327 0
-260 -328 0
-301 -377 0
-302 -378 0
-303 -379 0
-304 -380 0
-257 -349 0
-258 -350 0
-259 -351 0
-260 -352 0
-117 -221 0
-118 -222 0
-119 -223 0
-120 -224 0
-121 -133 0
-122 -134 0
-123 -135 0
-124 -136 0
-233 -477 0
-234 -478 0
-235 -479 0
-236 -480 0
-13 -345 0
-14 -346 0
-15 -347 0
-16 -348 0
-177 -377 0
-178 -378 0
-179 -379 0
-180 -380 0
-121 -301 0
-122 -302 0
-123 -303 0
-124 -304 0
-65 -205 0
-66 -206 0
-67 -207 0
-68 -208 0
-249 -349 0
-250 -350 0
-251 -351 0
-252 -352 0
-77 -81 0
-78 -82 0
-79 -83 0
-80 -84 0
-53 -497 0
-54 -498 0
-55 -499 0
-56 -500 0
-305 -389 0
-306 -390 0
-307 -391 0
-308 -392 0
-241 -373 0
-242 -374 0
-243 -375 0
-244 -376 0
-217 -293 0
-218 -294 0
-219 -295 0
-220 -296 0
-41 -141 0
-42 -142 0
-43 -143 0
-44 -144 0
-293 -365 0
-294 -366 0
-295 -367 0
-296 -368 0
-45 -117 0
-46 -118 0
-47 -119 0
-48 -120 0
-69 -301 0
-70 -302 0
-71 -303 0
-72 -304 0
-53 -433 0
-54 -434 0
-55 -435 0
-56 -436 0
-217 -357 0
-218 -358 0
-219 -359 0
-220 -360 0
-249 -293 0
-250 -294 0
-251 -295 0
-252 -296 0
-381 -489 0
-382 -490 0
-383 -491 0
-384 -492 0
-125 -217 0
-126 -218 0
-127 -219 0
-128 -220 0
-89 -477 0
-90 -478 0
-91 -479 0
-92 -480 0
-101 -445 0
-102 -446 0
-103 -447 0
-104 -448 0
-305 -457 0
-306 -458 0
-307 -459 0
-308 -460 0
-137 -381 0
-138 -382 0
-139 -383 0
-140 -384 0
-13 -113 0
-14 -114 0
-15 -115 0
-16 -116 0
-149 -201 0
-150 -202 0
-151 -203 0
-152 -204 0
-25 -317 0
-26 -318 0
-27 -319 0
-28 -320 0
-29 -233 0
-30 -234 0
-31 -235 0
-32 -236 0
-141 -161 0
-142 -162 0
-143 -163 0
-144 -164 0
-45 -465 0
-46 -466 0
-47 -467 0
-48 -468 0
-17 -325 0
-18 -326 0
-19 -327 0
-20 -328 0
-129 -277 0
-130 -278 0
-131 -279 0
-132 -280 0
-65 -281 0
-66 -282 0
-67 -283 0
-68 -284 0
-17 -349 0
-18 -350 0
-19 -351 0
-20 -352 0
-121 -241 0
-122 -242 0
-123 -243 0
-124 -244 0
-257 -309 0
-258 -310 0
-259 -311 0
-260 -312 0
-277 -425 0
-278 -426 0
-279 -427 0
-280 -428 0
-249 -493 0
-250 -494 0
-251 -495 0
-252 -496 0
-33 -69 0
-34 -70 0
-35 -71 0
-36 -72 0
-85 -233 0
-86 -234 0
-87 -235 0
-88 -236 0
-85 -137 0
-86 -138 0
-87 -139 0
-88 -140 0
-177 -493 0
-178 -494 0
-179 -495 0
-180 -496 0
-93 -265 0
-94 -266 0
-95 -267 0
-96 -268 0
-41 -449 0
-42 -450 0
-43 -451 0
-44 -452 0
-73 -157 0
-74 -158 0
-75 -159 0
-76 -160 0
-321 -409 0
-322 -410 0
-323 -411 0
-324 -412 0
-101 -329 0
-102 -330 0
-103 -331 0
-104 -332 0
-237 -401 0
-238 -402 0
-239 -403 0
-240 -404 0
-45 -449 0
-46 -450 0
-47 -451 0
-48 -452 0
-29 -453 0
-30 -454 0
-31 -455 0
-32 -456 0
-461 -473 0
-462 -474 0
-463 -475 0
-464 -476 0
-81 -213 0
-82 -214 0
-83 -215 0
-84 -216 0
-197 -497 0
-198 -498 0
-199 -499 0
-200 -500 0
-141 -185 0
-142 -186 0
-143 -187 0
-144 -188 0
-141 -485 0
-142 -486 0
-143 -487 0
-144 -488 0
-89 -413 0
-90 -414 0
-91 -415 0
-92 -416 0
-69 -237 0
-70 -238 0
-71 -239 0
-72 -240 0
-61 -69 0
-62 -70 0
-63 -71 0
-64 -72 0
-81 -309 0
-82 -310 0
-83 -311 0
-84 -312 0
-113 -317 0
-114 -318 0
-115 -319 0
-116 -320 0
-145 -361 0
-146 -362 0
-147 -363 0
-148 -364 0
-177 -421 0
-178 -422 0
-179 -423 0
-180 -424 0
-149 -189 0
-150 -190 0
-151 -191 0
-152 -192 0
-65 -261 0
-66 -262 0
-67 -263 0
-68 -264 0
-153 -337 0
-154 -338 0
-155 -339 0
-156 -340 0
-161 -169 0
-162 -170 0
-163 -171 0
-164 -172 0
-69 -445 0
-70 -446 0
-71 -447 0
-72 -448 0
-129 -333 0
-130 -334 0
-131 -335 0
-132 -336 0
-141 -329 0
-142 -330 0
-143 -331 0
-144 -332 0
-261 -477 0
-262 -478 0
-263 -479 0
-264 -480 0
-205 -293 0
-206 -294 0
-207 -295 0
-208 -296 0
-365 -389 0
-366 -390 0
-367 -391 0
-368 -392 0
-29 -257 0
-30 -258 0
-31 -259 0
-32 -260 0
-93 -473 0
-94 -474 0
-95 -475 0
-96 -476 0
-53 -61 0
-54 -62 0
-55 -63 0
-56 -64 0
-189 -373 0
-190 -374 0
-191 -375 0
-192 -376 0
-169 -269 0
-170 -270 0
-171 -271 0
-172 -272 0
-57 -309 0
-58 -310 0
-59 -311 0
-60 -312 0
-233 -429 0
-234 -430 0
-235 -431 0
-236 -432 0
-101 -353 0
-102 -354 0
-103 -355 0
-104 -356 0
-53 -205 0
-54 -206 0
-55 -207 0
-56 -208 0
-161 -409 0
-162 -410 0
-163 -411 0
-164 -412 0
-21 -89 0
-22 -90 0
-23 -91 0
-24 -92 0
-357 -377 0
-358 -378 0
-359 -379 0
-360 -380 0
-213 -445 0
-214 -446 0
-215 -447 0
-216 -448 0
-173 -421 0
-174 -422 0
-175 -423 0
-176 -424 0
-21 -285 0
-22 -286 0
-23 -287 0
-24 -288 0
-305 -317 0
-306 -318 0
-307 -319 0
-308 -320 0
-77 -457 0
-78 -458 0
-79 -459 0
-80 -460 0
-241 -437 0
-242 -438 0
-243 -439 0
-244 -440 0
-81 -233 0
-82 -234 0
-83 -235 0
-84 -236 0
-225 -441 0
-226 -442 0
-227 -443 0
-228 -444 0
-213 -253 0
-214 -254 0
-215 -255 0
-216 -256 0
-341 -353 0
-342 -354 0
-343 -355 0
-344 -356 0
-421 -493 0
-422 -494 0
-423 -495 0
-424 -496 0
-209 -409 0
-210 -410 0
-211 -411 0
-212 -412 0
-21 -77 0
-22 -78 0
-23 -79 0
-24 -80 0
-125 -401 0
-126 -402 0
-127 -403 0
-128 -404 0
-413 -453 0
-414 -454 0
-415 -455 0
-416 -456 0
-297 -373 0
-298 -374 0
-299 -375 0
-300 -376 0
-385 -437 0
-386 -438 0
-387 -439 0
-388 -440 0
-21 -29 0
-22 -30 0
-23 -31 0
-24 -32 0
-233 -381 0
-234 -382 0
-235 -383 0
-236 -384 0
-233 -309 0
-234 -310 0
-235 -311 0
-236 -312 0
-29 -457 0
-30 -458 0
-31 -459 0
-32 -460 0
-309 -445 0
-310 -446 0
-311 -447 0
-312 -448 0
-97 -133 0
-98 -134 0
-99 -135 0
-100 -136 0
-333 -377 0
-334 -378 0
-335 -379 0
-336 -380 0
-77 -373 0
-78 -374 0
-79 -375 0
-80 -376 0
-113 -441 0
-114 -442 0
-115 -443 0
-116 -444 0
-141 -385 0
-142 -386 0
-143 -387 0
-144 -388 0
-53 -477 0
-54 -478 0
-55 -479 0
-56 -480 0
-145 -409 0
-146 -410 0
-147 -411 0
-148 -412 0
-229 -381 0
-230 -382 0
-231 -383 0
-232 -384 0
-25 -293 0
-26 -294 0
-27 -295 0
-28 -296 0
-53 -345 0
-54 -346 0
-55 -347 0
-56 -348 0
-29 -497 0
-30 -498 0
-31 -499 0
-32 -500 0
-113 -413 0
-114 -414 0
-115 -415 0
-116 -416 0
-69 -337 0
-70 -338 0
-71 -339 0
-72 -340 0
-221 -357 0
-222 -358 0
-223 -359 0
-224 -360 0
-377 -493 0
-378 -494 0
-379 -495 0
-380 -496 0
-109 -181 0
-110 -182 0
-111 -183 0
-112 -184 0
-41 -397 0
-42 -398 0
-43 -399 0
-44 -400 0
-21 -397 0
-22 -398 0
-23 -399 0
-24 -400 0
-197 -305 0
-198 -306 0
-199 -307 0
-200 -308 0
-405 -497 0
-406 -498 0
-407 -499 0
-408 -500 0
-149 -321 0
-150 -322 0
-151 -323 0
-152 -324 0
-109 -373 0
-110 -374 0
-111 -375 0
-112 -376 0
-165 -361 0
-166 -362 0
-167 -363 0
-168 -364 0
-153 -469 0
-154 -470 0
-155 -471 0
-156 -472 0
-189 -345 0
-190 -346 0
-191 -347 0
-192 -348 0
-53 -429 0
-54 -430 0
-55 -431 0
-56 -432 0
-137 -413 0
-138 -414 0
-139 -415 0
-140 -416 0
-5 -429 0
-6 -430 0
-7 -431 0
-8 -432 0
-225 -413 0
-226 -414 0
-227 -415 0
-228 -416 0
-249 -485 0
-250 -486 0
-251 -487 0
-252 -488 0
-81 -441 0
-82 -442 0
-83 -443 0
-84 -444 0
-245 -445 0
-246 -446 0
-247 -447 0
-248 -448 0
-381 -433 0
-382 -434 0
-383 -435 0
-384 -436 0
-289 -329 0
-290 -330 0
-291 -331 0
-292 -332 0
-197 -253 0
-198 -254 0
-199 -255 0
-200 -256 0
-149 -457 0
-150 -458 0
-151 -459 0
-152 -460 0
-9 -149 0
-10 -150 0
-11 -151 0
-12 -152 0
-265 -445 0
-266 -446 0
-267 -447 0
-268 -448 0
-353 -469 0
-354 -470 0
-355 -471 0
-356 -472 0
-1 -165 0
-2 -166 0
-3 -167 0
-4 -168 0
-73 -125 0
-74 -126 0
-75 -127 0
-76 -128 0
-185 -373 0
-186 -374 0
-187 -375 0
-188 -376 0
-221 -373 0
-222 -374 0
-223 -375 0
-224 -376 0
-109 -297 0
-110 -298 0
-111 -299 0
-112 -300 0
-77 -133 0
-78 -134 0
-79 -135 0
-80 -136 0
-157 -313 0
-158 -314 0
-159 -315 0
-160 -316 0
-129 -137 0
-130 -138 0
-131 -139 0
-132 -140 0
-33 -73 0
-34 -74 0
-35 -75 0
-36 -76 0
-37 -329 0
-38 -330 0
-39 -331 0
-40 -332 0
-289 -489 0
-290 -490 0
-291 -491 0
-292 -492 0
-365 -437 0
-366 -438 0
-367 -439 0
-368 -440 0
-117 -305 0
-118 -306 0
-119 -307 0
-120 -308 0
-209 -381 0
-210 -382 0
-211 -383 0
-212 -384 0
-329 -381 0
-330 -382 0
-331 -383 0
-332 -384 0
-209 -445 0
-210 -446 0
-211 -447 0
-212 -448 0
-1 -169 0
-2 -170 0
-3 -171 0
-4 -172 0
-169 -173 0
-170 -174 0
-171 -175 0
-172 -176 0
-401 -453 0
-402 -454 0
-403 -455 0
-404 -456 0
-269 -357 0
-270 -358 0
-271 -359 0
-272 -360 0
-345 -349 0
-346 -350 0
-347 -351 0
-348 -352 0
-9 -277 0
-10 -278 0
-11 -279 0
-12 -280 0
-169 -405 0
-170 -406 0
-171 -407 0
-172 -408 0
-45 -229 0
-46 -230 0
-47 -231 0
-48 -232 0
-173 -457 0
-174 -458 0
-175 -459 0
-176 -460 0
-369 -397 0
-370 -398 0
-371 -399 0
-372 -400 0
-69 -313 0
-70 -314 0
-71 -315 0
-72 -316 0
-145 -373 0
-146 -374 0
-147 -375 0
-148 -376 0
-209 -349 0
-210 -350 0
-211 -351 0
-212 -352 0
-37 -369 0
-38 -370 0
-39 -371 0
-40 -372 0
-29 -181 0
-30 -182 0
-31 -183 0
-32 -184 0
-133 -153 0
-134 -154 0
-135 -155 0
-136 -156 0
-29 -145 0
-30 -146 0
-31 -147 0
-32 -148 0
-317 -441 0
-318 -442 0
-319 -443 0
-320 -444 0
-45 -193 0
-46 -194 0
-47 -195 0
-48 -196 0
-109 -449 0
-110 -450 0
-111 -451 0
-112 -452 0
-177 -293 0
-178 -294 0
-179 -295 0
-180 -296 0
-9 -317 0
-10 -318 0
-11 -319 0
-12 -320 0
-81 -293 0
-82 -294 0
-83 -295 0
-84 -296 0
-449 -469 0
-450 -470 0
-451 -471 0
-452 -472 0
-185 -229 0
-186 -230 0
-187 -231 0
-188 -232 0
-117 -449 0
-118 -450 0
-119 -451 0
-120 -452 0
-117 -205 0
-118 -206 0
-119 -207 0
-120 -208 0
