c generated_for formulae_like_variant benchmark
c dataset formulae_like_03
c variant 3
c seed_base 20290601
c family planted_3sat_dense
c expected_status SAT
c notes dense hidden-assignment 3-SAT
p cnf 200 1600
1 69 -109 0
-69 117 152 0
-43 -157 165 0
86 172 199 0
-9 31 -55 0
-26 -99 103 0
-48 89 -108 0
1 -59 153 0
-11 -36 161 0
12 -28 164 0
100 135 -193 0
-45 89 192 0
-70 74 141 0
32 -107 -165 0
70 164 -181 0
56 -146 -181 0
-105 -159 -172 0
-163 177 -189 0
44 106 -132 0
-18 -45 159 0
-45 -169 196 0
29 81 -103 0
35 -53 -78 0
37 76 -153 0
-108 159 -184 0
45 90 -200 0
-66 -79 -179 0
-61 -102 147 0
-133 150 177 0
-68 -146 -152 0
40 -54 116 0
-36 -139 -200 0
51 -162 -191 0
35 -45 147 0
-1 -54 -130 0
-115 135 137 0
58 -91 193 0
-9 93 132 0
-13 -141 159 0
-25 103 -133 0
-122 153 -169 0
-101 192 199 0
26 58 -68 0
49 181 -184 0
13 159 -195 0
-51 -147 161 0
-141 -142 162 0
-17 -77 192 0
-40 -58 -147 0
-101 182 -199 0
31 65 96 0
83 -90 -153 0
50 157 -183 0
-58 -125 -140 0
-120 133 -152 0
89 -116 145 0
33 109 -194 0
123 -147 152 0
17 159 174 0
162 172 187 0
-121 147 179 0
-29 131 -190 0
-84 140 -189 0
-5 -60 -68 0
-60 -67 98 0
-11 71 82 0
5 27 29 0
-45 92 159 0
88 91 101 0
-146 -158 185 0
-1 52 104 0
3 87 103 0
-70 81 117 0
-70 -90 168 0
-8 12 195 0
-69 158 190 0
120 126 -189 0
-89 109 197 0
-56 112 116 0
46 -70 -167 0
81 107 -142 0
6 -126 169 0
35 81 197 0
-127 -131 -184 0
-119 144 196 0
-20 74 -140 0
43 -110 -114 0
19 69 200 0
-68 158 -194 0
-161 178 179 0
19 96 118 0
-40 -126 -180 0
-111 -136 -157 0
-54 103 200 0
-26 -86 132 0
-31 -137 -160 0
-24 25 -197 0
-134 167 -174 0
31 89 -104 0
-64 132 -144 0
-43 -102 -142 0
-47 52 -168 0
1 12 178 0
-107 154 184 0
-68 124 -146 0
82 98 135 0
-43 133 150 0
14 47 62 0
122 -176 -199 0
-48 -50 -104 0
-27 57 89 0
26 85 152 0
-27 -79 116 0
-30 -125 179 0
84 -128 134 0
-8 -134 170 0
-53 78 -197 0
-4 -95 139 0
-115 160 -192 0
-13 -74 133 0
57 78 176 0
36 76 90 0
-63 -95 169 0
-114 -161 -169 0
87 -91 99 0
105 165 -194 0
-6 22 -73 0
-79 -168 196 0
8 128 -194 0
-16 -141 -194 0
-58 97 -128 0
104 151 177 0
15 -48 81 0
-46 162 193 0
48 -136 174 0
78 84 -132 0
-24 35 -199 0
-65 -92 -155 0
-1 -53 92 0
-15 -55 -180 0
75 86 157 0
-67 157 171 0
93 109 -165 0
13 57 160 0
-33 -156 -181 0
-49 129 144 0
-42 45 -102 0
-17 65 -100 0
60 178 -190 0
-19 -136 139 0
22 -122 200 0
49 -64 -132 0
48 -110 188 0
-23 88 -142 0
20 -104 174 0
24 -81 -166 0
-72 79 200 0
66 -102 -173 0
116 159 -186 0
18 -40 200 0
45 -89 170 0
102 -133 198 0
-40 94 -114 0
83 -85 -148 0
-6 -21 40 0
-69 86 175 0
-9 -100 -106 0
-47 110 -163 0
-54 -89 149 0
49 56 -149 0
28 -37 42 0
6 -11 97 0
12 -116 200 0
-36 130 -151 0
-7 -61 -134 0
-48 136 -197 0
-42 -61 119 0
20 -76 114 0
-16 -25 176 0
-29 -197 200 0
-3 13 100 0
76 145 164 0
-47 170 -174 0
72 143 151 0
-50 107 134 0
19 -104 166 0
-15 -33 48 0
109 111 165 0
124 -176 182 0
-19 27 -135 0
23 -29 132 0
-101 111 141 0
47 -48 74 0
64 -96 -127 0
-46 90 -122 0
-28 131 -140 0
-72 -78 199 0
9 30 83 0
7 -50 -179 0
26 -105 -196 0
124 -151 -173 0
-25 166 200 0
-86 -96 -111 0
24 99 -135 0
65 -152 -161 0
46 -78 -115 0
-29 85 153 0
47 -129 172 0
-70 -82 -165 0
-3 -17 -164 0
-29 38 45 0
18 -19 113 0
2 149 185 0
-28 -46 -96 0
41 -125 132 0
-48 -121 -168 0
59 94 -185 0
123 139 -159 0
-92 120 156 0
2 81 -85 0
23 28 -43 0
89 -155 163 0
28 -60 136 0
-66 -163 -184 0
22 39 177 0
131 144 187 0
4 12 199 0
57 -83 -113 0
112 116 169 0
-60 96 102 0
-3 83 87 0
-28 110 168 0
-47 -59 -174 0
104 -107 -189 0
35 84 -112 0
38 90 190 0
-65 93 -103 0
-33 -72 171 0
103 -124 182 0
7 -169 187 0
-8 -111 162 0
4 -11 95 0
-37 -68 -130 0
-33 131 -191 0
26 33 -122 0
-90 -103 -148 0
17 -61 192 0
-56 -95 108 0
-74 89 -156 0
16 152 -168 0
-5 -6 -131 0
107 132 -188 0
-17 95 -164 0
39 165 -177 0
36 67 175 0
151 196 200 0
62 64 177 0
-9 -21 130 0
29 47 -102 0
-13 -37 72 0
-40 -47 120 0
-41 57 109 0
-13 83 175 0
-82 -97 98 0
-34 -82 121 0
-23 -36 -181 0
-125 139 -192 0
-50 122 -177 0
-7 -8 -161 0
-12 150 -184 0
-92 189 -193 0
-157 -174 -194 0
-111 -154 -187 0
68 -159 193 0
86 -133 161 0
32 -121 128 0
98 -120 140 0
127 132 133 0
-40 -114 -145 0
-83 153 -199 0
-47 69 77 0
24 -72 -162 0
-25 -82 110 0
89 -123 139 0
30 91 158 0
-76 141 -160 0
24 130 -178 0
-4 -153 -186 0
35 -94 184 0
10 -89 -169 0
-107 122 -123 0
-147 180 -184 0
-72 -155 -182 0
29 132 -145 0
126 134 175 0
-85 -131 166 0
-78 135 179 0
17 86 -179 0
51 -80 -191 0
46 132 -142 0
-14 -129 168 0
-52 -117 120 0
-68 -97 134 0
34 134 -148 0
54 133 -142 0
-111 -114 -130 0
25 71 73 0
-61 -84 128 0
-48 -85 -188 0
33 -51 174 0
18 129 165 0
-50 77 -172 0
43 52 114 0
-85 100 191 0
-36 -182 183 0
-14 -41 -126 0
74 -105 -195 0
164 178 189 0
39 -84 -116 0
-36 66 123 0
15 -53 -85 0
74 -117 140 0
-91 -96 162 0
-18 -136 -188 0
-24 -81 -154 0
-42 53 -122 0
-27 -82 97 0
7 79 196 0
-148 180 191 0
-145 160 -162 0
-73 -74 -108 0
-53 92 -122 0
-122 138 162 0
-15 172 -192 0
38 102 -180 0
-26 -32 36 0
-118 145 189 0
53 -104 114 0
-156 161 171 0
27 -51 59 0
-46 -107 -130 0
-47 -123 154 0
46 -64 191 0
88 104 144 0
-49 93 112 0
88 172 181 0
19 -47 94 0
-141 148 -159 0
-21 -61 -190 0
-103 104 199 0
-7 20 -101 0
56 -182 184 0
43 -113 -189 0
-68 -117 161 0
52 68 -134 0
-13 32 -79 0
37 85 -174 0
11 121 191 0
-88 -98 -135 0
36 42 -148 0
-45 53 183 0
66 173 -200 0
-66 -113 -134 0
31 -119 122 0
19 -156 200 0
41 102 -119 0
48 -81 102 0
-63 80 -89 0
-31 155 174 0
-110 -159 -187 0
8 133 -140 0
23 -93 141 0
-32 -84 -149 0
28 -47 -192 0
-92 -148 165 0
-58 -142 -187 0
35 121 175 0
14 -21 -39 0
64 -82 -135 0
-35 -76 -170 0
-65 119 188 0
6 -148 150 0
69 -92 136 0
7 -14 144 0
147 181 -183 0
-80 163 -186 0
-9 -151 -161 0
72 82 197 0
14 -24 167 0
-8 51 120 0
28 -69 -185 0
-46 -99 128 0
3 41 -53 0
-80 113 153 0
33 145 -198 0
107 177 -184 0
-32 -93 -190 0
24 93 165 0
51 116 -183 0
7 -47 -149 0
-15 -73 -151 0
-63 -133 -196 0
-4 -119 -136 0
-1 132 -190 0
78 -112 153 0
29 -80 89 0
40 46 -87 0
57 -136 -200 0
-14 -94 -117 0
-59 82 -87 0
83 -85 194 0
-22 69 171 0
-41 133 -188 0
-81 131 -159 0
44 66 132 0
-122 -156 -192 0
28 120 170 0
136 -166 178 0
80 -91 190 0
-27 102 185 0
-96 -134 -198 0
116 -119 -189 0
-52 -123 -163 0
78 -89 -151 0
-51 -140 -146 0
-77 -126 175 0
-27 88 109 0
-24 35 46 0
-136 154 194 0
83 -108 175 0
-24 -156 167 0
39 -105 123 0
100 156 -159 0
8 -46 -101 0
-11 -14 -82 0
24 71 72 0
-45 135 164 0
47 -107 -195 0
105 152 -185 0
-16 -66 -144 0
-42 -129 -181 0
-11 20 113 0
-121 -137 148 0
69 -188 -200 0
17 -79 -94 0
-8 36 -144 0
-69 91 111 0
-103 -153 197 0
-73 -117 198 0
17 -42 -112 0
-3 -27 -78 0
13 -88 189 0
-129 146 -149 0
-3 92 147 0
-21 -116 -122 0
53 157 -191 0
32 -131 -135 0
-11 84 139 0
10 -23 -45 0
-73 199 -200 0
-64 107 -153 0
19 160 177 0
48 151 -197 0
-82 -129 138 0
45 -79 -81 0
-105 118 -184 0
-141 169 175 0
-14 45 145 0
-29 -89 -146 0
-55 -70 -173 0
64 -66 -156 0
-13 -17 -50 0
-74 121 185 0
-72 -94 -142 0
-91 97 199 0
-3 100 171 0
7 -80 192 0
57 67 184 0
-49 66 -163 0
106 -183 195 0
-10 149 -190 0
-18 -40 -127 0
91 124 152 0
45 169 -200 0
3 -17 109 0
-39 -93 104 0
34 -116 136 0
37 -112 -171 0
-21 -96 -146 0
-95 -109 -180 0
-38 -94 -173 0
11 97 -147 0
-34 104 -125 0
25 -136 -152 0
9 89 103 0
-2 -63 -148 0
-41 67 159 0
-93 114 200 0
7 -127 -190 0
-62 -73 -156 0
-31 35 110 0
4 -48 -174 0
90 134 194 0
69 -118 182 0
-52 56 145 0
-80 -114 160 0
31 -106 146 0
21 -143 199 0
71 -141 -162 0
73 -115 -164 0
86 95 -159 0
-32 80 172 0
90 152 -172 0
31 162 -163 0
-9 57 71 0
5 70 -138 0
-53 -133 -184 0
-18 78 155 0
40 -52 -139 0
43 -82 -115 0
2 -42 45 0
-43 46 -60 0
-112 -114 -146 0
8 22 48 0
-13 36 -190 0
-21 -65 114 0
36 61 -104 0
-82 -151 174 0
-16 48 -150 0
-21 -107 -172 0
-60 154 -185 0
89 -103 -157 0
27 -85 88 0
6 -115 -152 0
44 -164 180 0
-43 -45 79 0
-92 -97 119 0
-82 -115 155 0
-48 117 -146 0
-29 61 -113 0
27 141 -162 0
-132 145 151 0
13 -73 191 0
4 -37 74 0
-17 154 184 0
-21 29 137 0
5 -87 -113 0
-66 140 171 0
9 15 -42 0
36 -69 153 0
21 58 -81 0
92 -159 165 0
117 172 -175 0
-91 -128 -140 0
-34 -69 -82 0
2 29 60 0
-32 -57 -190 0
-151 169 181 0
34 -130 -148 0
-95 -149 161 0
-54 -179 -200 0
70 107 167 0
-38 111 -173 0
-29 -30 167 0
18 110 161 0
45 121 179 0
-63 120 -146 0
-60 83 116 0
5 -67 -92 0
90 162 197 0
53 101 108 0
37 47 -173 0
-12 -25 82 0
-46 74 -147 0
56 71 -91 0
94 111 -155 0
61 -126 161 0
-45 120 -199 0
59 -145 -186 0
-69 100 -154 0
-19 -179 195 0
-149 -158 168 0
101 -134 -168 0
24 79 158 0
17 -80 -106 0
-11 -38 -88 0
-62 128 -168 0
-71 -144 -182 0
-2 124 -134 0
-36 48 -151 0
66 128 -168 0
-63 -99 -183 0
-66 -121 -160 0
24 114 -116 0
88 132 166 0
20 -127 187 0
-42 -70 -198 0
21 152 164 0
-85 96 -164 0
64 -83 184 0
-5 -8 -90 0
14 107 160 0
41 75 170 0
-5 -95 -138 0
-35 -37 -61 0
113 136 -183 0
34 137 189 0
62 109 -190 0
-38 -95 118 0
25 126 -174 0
-113 124 149 0
-41 -99 160 0
31 101 -134 0
-81 -134 -190 0
-92 -164 187 0
-2 150 179 0
-44 -61 96 0
-56 110 129 0
-19 -152 -184 0
58 -79 189 0
18 74 -121 0
-113 -116 -127 0
156 -179 181 0
-15 71 -113 0
-62 -64 68 0
-33 102 138 0
-45 116 -195 0
-13 -139 162 0
-8 42 166 0
5 -158 192 0
-32 122 -141 0
18 -20 107 0
-7 92 -186 0
175 184 195 0
56 104 114 0
20 -79 182 0
97 135 -161 0
84 111 -170 0
29 -76 -162 0
-13 -62 184 0
35 59 127 0
-9 -104 196 0
35 63 185 0
-122 146 -148 0
1 -157 178 0
-28 69 -141 0
99 140 -142 0
-23 127 -130 0
-79 -83 105 0
11 -54 -57 0
-12 -121 196 0
38 -56 -149 0
-64 -72 -149 0
78 -88 170 0
-61 -78 159 0
-28 75 -173 0
124 142 196 0
23 68 187 0
43 52 -168 0
-68 76 -181 0
-66 -87 99 0
119 -147 -180 0
-92 123 151 0
-11 75 -151 0
7 -55 168 0
-125 -180 193 0
30 -66 174 0
23 70 160 0
54 -171 193 0
5 112 144 0
31 87 177 0
84 -162 191 0
-88 107 134 0
24 165 198 0
2 -80 161 0
61 178 -181 0
22 131 164 0
-10 -183 200 0
44 82 -142 0
16 81 -158 0
-15 -63 67 0
-122 155 158 0
72 -106 -121 0
-1 -153 -196 0
-27 40 -47 0
-19 -101 159 0
109 114 130 0
35 -115 189 0
5 -133 185 0
22 -105 119 0
-81 -91 130 0
30 -33 46 0
-82 -83 114 0
-70 -174 177 0
-57 -113 -143 0
23 32 173 0
-32 -164 187 0
-2 125 199 0
-6 -24 -97 0
-44 55 -127 0
16 39 -83 0
-32 -61 166 0
-17 -32 148 0
64 91 -155 0
-47 84 161 0
-95 -122 137 0
84 -173 -181 0
49 -81 114 0
-26 53 -57 0
52 -183 -191 0
-57 66 -72 0
19 -154 -157 0
113 -130 180 0
27 139 167 0
-14 -23 175 0
61 196 -198 0
-2 137 189 0
-9 -43 143 0
88 154 167 0
-95 114 151 0
96 109 -168 0
-17 125 -168 0
38 108 140 0
-68 -147 193 0
-18 -102 135 0
-75 -115 -133 0
15 22 154 0
-105 107 -171 0
-26 -79 -128 0
86 170 178 0
86 109 148 0
60 187 -191 0
28 -39 -41 0
53 55 -112 0
-58 -72 -73 0
94 131 -182 0
-8 36 198 0
58 -176 -191 0
75 -89 125 0
17 39 40 0
21 -50 -180 0
-148 174 -191 0
32 74 200 0
38 71 166 0
39 -89 104 0
-1 -93 -173 0
17 18 -110 0
28 35 -62 0
-17 -120 -166 0
95 124 -180 0
50 147 162 0
14 29 -176 0
-11 171 -179 0
36 37 -172 0
34 -99 -133 0
11 -170 183 0
-47 153 193 0
-42 107 109 0
-111 -174 181 0
-24 -127 164 0
44 76 110 0
103 119 122 0
43 -75 -186 0
-14 -40 -186 0
15 -22 56 0
-151 170 -196 0
-5 -167 184 0
21 -45 -177 0
-54 66 142 0
-47 134 -174 0
-70 -171 -172 0
-16 114 -192 0
-91 137 -179 0
41 -83 196 0
-25 71 168 0
-81 -121 133 0
-33 36 -125 0
48 68 -81 0
-9 65 136 0
25 -75 183 0
147 176 -200 0
-9 -180 -192 0
-3 -38 -176 0
-82 141 145 0
96 -116 -198 0
-42 -184 -197 0
-88 172 -193 0
-75 94 198 0
-2 78 -133 0
-110 -190 -192 0
2 57 -102 0
-112 -161 200 0
117 -164 -168 0
75 -110 -164 0
105 -154 -197 0
61 -111 -176 0
51 115 142 0
-34 144 145 0
-125 143 191 0
-138 157 166 0
156 170 200 0
-85 117 -180 0
-19 42 200 0
-39 -127 -170 0
5 -63 132 0
-34 -93 129 0
-8 157 -189 0
-4 -77 127 0
-65 131 189 0
26 75 -160 0
33 -175 184 0
2 86 165 0
-8 -70 -93 0
-70 -76 -159 0
42 120 145 0
-73 -94 -131 0
65 129 -164 0
-18 112 171 0
-113 -114 183 0
76 -172 -174 0
-18 142 199 0
-34 146 -148 0
97 -110 121 0
17 -29 -102 0
-90 130 198 0
36 -148 -166 0
60 -79 128 0
-21 -89 160 0
-139 157 -173 0
85 -151 -162 0
43 148 -179 0
-6 -63 -189 0
-1 -188 -192 0
75 101 -164 0
-12 -78 169 0
89 -147 -159 0
-101 116 118 0
-73 143 -183 0
-82 -148 -149 0
34 125 -149 0
24 85 -103 0
-89 164 -180 0
-8 85 105 0
31 -50 144 0
85 -96 99 0
-97 -179 -191 0
-25 -122 -188 0
82 117 124 0
-48 51 94 0
-42 144 160 0
-9 162 -171 0
-99 -146 -197 0
5 -93 198 0
-65 -167 180 0
-9 84 -188 0
12 118 -153 0
-20 81 185 0
-31 -110 125 0
-7 64 -114 0
51 -68 -135 0
-79 -122 135 0
-20 -87 122 0
13 38 -188 0
-104 -126 -146 0
41 123 -200 0
65 108 -164 0
-68 -96 -133 0
48 62 -181 0
56 101 -146 0
38 -82 -171 0
7 -16 -180 0
74 152 160 0
-104 157 -179 0
-43 -120 124 0
92 123 -161 0
10 63 107 0
-82 -148 154 0
-1 -102 -111 0
91 105 191 0
-27 35 -196 0
33 52 -176 0
-78 160 181 0
-47 -95 159 0
53 131 187 0
-37 124 -167 0
180 -189 -190 0
28 -177 200 0
53 -129 199 0
-22 69 -179 0
9 130 -163 0
-38 -111 -160 0
71 136 163 0
9 27 -82 0
34 74 190 0
16 -26 -84 0
87 100 180 0
-84 -134 158 0
-29 119 181 0
-58 83 -138 0
-47 -101 -168 0
143 -146 160 0
-24 -34 43 0
96 153 185 0
4 -125 172 0
-6 -113 -194 0
-126 -138 187 0
19 129 -130 0
78 -87 -91 0
-14 94 -200 0
54 59 -142 0
-10 50 -171 0
34 -86 -153 0
95 97 -123 0
23 107 -190 0
78 -167 197 0
-96 -106 181 0
-83 -145 180 0
60 74 -84 0
58 -81 -158 0
-40 152 156 0
49 138 -149 0
-58 -65 73 0
89 159 -195 0
-32 126 -148 0
15 66 -144 0
-6 -57 121 0
-40 -53 -115 0
13 48 92 0
-130 196 -198 0
65 -107 180 0
80 134 184 0
30 57 -100 0
-4 -25 -97 0
-43 -56 185 0
134 148 168 0
-55 123 136 0
-7 53 82 0
89 152 176 0
84 -130 198 0
-6 23 -124 0
-74 -95 -107 0
27 65 -78 0
36 -93 151 0
62 84 -115 0
102 122 148 0
64 160 -181 0
121 -138 -175 0
4 -56 159 0
164 -182 -194 0
-30 -42 196 0
-80 132 152 0
94 -115 -132 0
-49 -148 174 0
70 -79 -144 0
-30 -44 191 0
-65 125 -152 0
-67 108 -153 0
-10 44 -58 0
-2 -66 172 0
-12 116 149 0
36 103 -129 0
17 20 184 0
95 123 179 0
-76 108 -134 0
-94 -142 -159 0
-114 148 165 0
56 110 163 0
22 79 -101 0
-13 43 138 0
47 67 -107 0
6 37 45 0
62 117 -132 0
16 -141 -181 0
46 113 -151 0
-31 -89 134 0
-4 5 187 0
-6 123 -128 0
68 89 -97 0
44 64 104 0
-95 -125 154 0
-15 83 -189 0
36 -39 91 0
-123 -133 189 0
-58 -90 99 0
57 -87 195 0
17 -57 -177 0
43 52 -146 0
-64 -82 -86 0
41 -78 -156 0
47 173 -196 0
-16 -51 167 0
-31 -55 -179 0
-50 71 163 0
2 -52 -56 0
34 -50 -140 0
-5 40 183 0
5 -53 -84 0
-121 155 162 0
-8 -43 173 0
-25 28 -175 0
-51 52 153 0
-16 -102 -186 0
12 49 150 0
29 37 98 0
-16 56 186 0
64 -125 -151 0
-23 55 -197 0
-9 -22 144 0
-48 120 -148 0
-28 -161 192 0
-4 77 -110 0
-22 136 196 0
60 163 192 0
92 101 -134 0
24 -132 150 0
-33 -111 171 0
-57 -147 189 0
-117 -127 -156 0
-34 155 192 0
-35 -67 -72 0
77 85 -139 0
27 75 134 0
-40 91 -167 0
-9 82 151 0
-82 -152 -170 0
-107 -158 -181 0
-160 184 -187 0
-62 121 -167 0
-20 -41 -146 0
-59 -118 167 0
79 -146 149 0
-142 -178 -185 0
-16 65 -190 0
-76 -92 116 0
-44 59 130 0
32 40 -197 0
-37 54 157 0
-42 -137 -183 0
-53 -87 -148 0
-14 74 -88 0
19 -20 170 0
-36 -113 132 0
148 152 154 0
93 -147 193 0
39 -57 181 0
33 67 84 0
-110 -163 194 0
-31 123 -190 0
-79 144 -172 0
25 30 172 0
21 -117 -134 0
15 142 181 0
-102 -133 -153 0
-38 145 173 0
-22 101 -138 0
28 -73 111 0
89 -174 -186 0
3 44 134 0
11 90 103 0
-154 -186 198 0
-140 -188 190 0
-47 -141 -142 0
-17 -98 -184 0
6 50 -156 0
-127 -145 -177 0
-105 154 -191 0
-10 -44 -68 0
-116 -150 186 0
-1 -86 -110 0
94 -163 175 0
-45 64 -178 0
-12 -73 -82 0
-34 42 -156 0
-129 -193 -198 0
-44 -60 73 0
-90 -113 -148 0
-34 -100 132 0
33 98 -116 0
8 24 -151 0
-61 123 -144 0
38 115 130 0
8 71 -85 0
29 -62 129 0
87 -145 170 0
-36 38 -156 0
-9 61 123 0
28 99 172 0
-56 -93 -173 0
-81 -124 -148 0
-16 45 -86 0
27 90 -159 0
-48 111 181 0
-33 104 156 0
-27 72 102 0
-27 96 -113 0
23 32 42 0
65 82 -141 0
7 23 -61 0
-105 192 -194 0
135 151 -152 0
-62 81 130 0
-4 -63 -125 0
27 -63 -176 0
-13 -130 138 0
-7 -27 43 0
-111 137 -140 0
10 -116 -185 0
73 84 195 0
62 86 -134 0
4 -29 174 0
-136 138 -156 0
34 -101 -181 0
53 -141 -196 0
-37 86 154 0
102 141 -171 0
35 84 -200 0
-45 -138 -148 0
71 -111 159 0
-35 -46 -55 0
-89 94 -139 0
93 -105 -199 0
-46 70 165 0
-31 -43 -110 0
-28 37 116 0
-90 -100 114 0
3 -119 -181 0
38 45 189 0
68 -156 -179 0
-49 -50 152 0
-44 122 -139 0
-76 108 -128 0
28 -128 158 0
27 84 -193 0
68 96 -199 0
-34 144 170 0
-98 125 -170 0
16 21 85 0
-32 63 -106 0
-42 56 134 0
65 100 -194 0
-31 -85 -158 0
33 -37 -51 0
-18 36 -110 0
13 97 -145 0
-10 90 -176 0
-5 -8 100 0
23 55 195 0
36 -116 -194 0
15 -30 56 0
54 148 195 0
47 -66 192 0
-106 130 145 0
-32 -74 -161 0
-31 -33 180 0
-55 -102 -145 0
-58 91 116 0
94 -118 -159 0
-39 -82 179 0
-23 -118 -136 0
-38 -115 117 0
-64 143 -147 0
38 -45 55 0
-55 107 127 0
87 174 -185 0
30 61 -86 0
-21 31 -199 0
6 -13 159 0
95 -116 -167 0
3 40 77 0
-35 -70 191 0
-135 -141 -180 0
42 104 -106 0
47 61 -198 0
64 146 180 0
-60 62 -156 0
-55 -112 197 0
-6 -52 161 0
32 -78 136 0
12 79 157 0
19 77 -180 0
-108 -147 -185 0
-26 62 -85 0
-5 -13 99 0
-98 -120 -194 0
-10 116 -151 0
-21 51 -116 0
46 49 174 0
-53 57 79 0
-21 -85 -191 0
44 -59 -121 0
-66 126 -141 0
87 170 -174 0
-95 -127 171 0
-123 -144 -156 0
-16 107 -164 0
-61 -70 -77 0
-67 -72 160 0
16 -21 135 0
-58 131 -174 0
-50 90 200 0
-27 -42 87 0
-43 -144 -169 0
-21 23 -144 0
43 -185 -197 0
-73 -97 -178 0
-16 88 108 0
81 105 -183 0
-77 83 182 0
67 131 -140 0
47 -67 68 0
-12 78 130 0
133 164 176 0
89 -117 -131 0
77 -83 128 0
-67 140 145 0
157 171 185 0
-44 53 165 0
-114 179 -180 0
-17 -118 192 0
-2 -79 196 0
-15 -136 177 0
-63 100 183 0
-36 -123 165 0
49 -120 -170 0
-44 146 184 0
-150 152 -190 0
78 -121 -172 0
-51 85 -182 0
-86 -90 140 0
-76 90 163 0
17 91 -170 0
-18 -78 102 0
3 152 -162 0
15 -68 -135 0
23 -43 -198 0
-145 187 -198 0
51 163 168 0
1 -105 -136 0
37 64 119 0
45 -95 146 0
-37 -132 175 0
81 -167 170 0
-97 118 200 0
-141 -163 -189 0
31 -118 151 0
-14 126 146 0
-10 -51 -179 0
22 -38 -138 0
-116 -168 179 0
33 -44 -79 0
-17 -65 -138 0
102 151 -185 0
-64 -115 -181 0
-6 -27 188 0
-46 136 156 0
-79 -90 -154 0
28 -88 158 0
46 86 -173 0
-7 -120 -173 0
-17 -88 176 0
-162 -176 190 0
101 116 -174 0
-59 -79 90 0
-47 121 168 0
-19 -49 -134 0
-7 42 -53 0
-5 70 113 0
-27 48 -94 0
-12 -30 61 0
-114 -120 -127 0
-13 77 199 0
-64 81 -120 0
1 14 107 0
22 -99 -147 0
74 166 -169 0
-2 -58 168 0
32 -112 200 0
-66 -134 -159 0
-35 -89 112 0
-66 -90 -128 0
24 82 -135 0
2 -132 -144 0
7 -71 179 0
13 -42 127 0
-3 -31 -198 0
17 33 -110 0
4 -61 198 0
6 33 143 0
37 63 -135 0
47 62 158 0
35 -56 106 0
-52 76 96 0
21 -108 -145 0
18 23 -139 0
-17 -61 190 0
-18 -24 135 0
-6 98 169 0
-95 146 -188 0
32 38 132 0
1 -5 56 0
11 27 90 0
-78 115 -125 0
92 -163 -190 0
-45 -133 191 0
36 121 -161 0
-141 150 -164 0
-116 119 -182 0
114 135 140 0
110 116 -145 0
-60 95 181 0
-63 -105 173 0
77 87 132 0
-70 -88 148 0
83 -92 136 0
-72 124 182 0
-38 -172 -185 0
140 -171 -172 0
-39 133 157 0
28 -95 -109 0
-130 135 -190 0
-43 111 152 0
-65 111 -117 0
38 -82 90 0
27 -179 -192 0
13 88 -116 0
-52 -90 -183 0
-82 144 182 0
58 93 200 0
136 151 -170 0
-149 188 -195 0
108 -152 184 0
-114 127 144 0
35 -117 198 0
50 91 174 0
13 52 -168 0
-42 50 121 0
114 -182 199 0
69 107 177 0
62 66 73 0
2 66 179 0
-65 -73 -97 0
-58 -71 -140 0
18 144 -182 0
-41 -64 -125 0
-88 -111 156 0
1 72 80 0
-85 96 -128 0
5 10 101 0
-126 -155 -176 0
41 -76 -102 0
74 -159 -195 0
-13 134 176 0
155 157 -180 0
2 -26 -157 0
-1 -16 138 0
-52 157 167 0
-19 66 130 0
12 30 -170 0
-44 -83 -88 0
96 -195 200 0
120 130 152 0
-126 149 -197 0
-30 31 117 0
29 -176 -195 0
-36 57 81 0
-129 142 -158 0
63 -101 182 0
91 -109 128 0
78 -127 167 0
-10 44 -90 0
32 -33 -102 0
-26 45 151 0
102 103 191 0
65 -130 -169 0
48 65 126 0
-56 57 -65 0
-93 154 -180 0
-43 85 -119 0
59 -76 -165 0
124 -179 -195 0
59 -73 -132 0
-11 31 -177 0
33 66 -81 0
34 37 -85 0
65 128 -161 0
-5 54 -161 0
-17 140 158 0
-14 -47 -138 0
-136 -163 -191 0
76 -88 177 0
-30 110 -188 0
104 -132 -196 0
52 -140 -171 0
-32 87 133 0
-59 -145 -163 0
12 18 -66 0
-13 -34 -167 0
29 -62 -199 0
-12 -139 -192 0
-4 -169 174 0
-82 98 128 0
-19 46 134 0
21 -43 -128 0
-10 -98 193 0
-1 -150 -157 0
-72 -107 -200 0
-20 153 -200 0
-30 113 188 0
-67 -101 -183 0
-78 -90 -114 0
9 67 71 0
52 169 -176 0
19 -112 132 0
-3 73 126 0
-70 -113 181 0
-23 -34 147 0
18 -37 163 0
-55 144 153 0
64 -81 91 0
27 134 -173 0
7 58 118 0
-1 5 73 0
109 150 161 0
-17 -87 122 0
56 72 179 0
-64 -116 189 0
-14 -30 140 0
25 43 137 0
11 -46 193 0
-4 121 124 0
102 -112 197 0
27 -122 126 0
68 -82 -178 0
50 88 -142 0
28 -62 -87 0
-139 143 159 0
-8 82 -163 0
-92 -126 -157 0
-2 -74 75 0
41 51 -139 0
-33 174 185 0
-60 -72 -85 0
-35 -55 -125 0
-9 -84 -162 0
-28 -43 -188 0
22 33 -36 0
-17 -78 83 0
9 -137 -142 0
-35 -124 129 0
-149 162 174 0
2 -175 180 0
-44 -60 -147 0
2 33 -49 0
59 -73 -153 0
89 -92 116 0
-35 -53 -109 0
-67 135 172 0
-131 -157 -200 0
40 -82 -133 0
12 -99 -198 0
-12 -85 -121 0
-110 198 -199 0
10 41 -174 0
11 -132 165 0
68 -76 111 0
-49 -108 -119 0
-57 -83 164 0
97 100 -123 0
-8 127 179 0
-54 -97 -194 0
1 49 157 0
71 -99 144 0
-99 124 -171 0
-54 131 -149 0
-31 59 -167 0
25 43 -62 0
-44 113 -200 0
-34 -83 -103 0
30 -151 198 0
-27 122 145 0
-35 64 175 0
22 39 57 0
138 -147 -179 0
4 137 -171 0
-56 -128 -197 0
-3 -38 -108 0
28 -31 -197 0
57 -132 173 0
-24 -126 -179 0
58 -97 -125 0
-87 -144 -145 0
-78 -155 166 0
-52 -102 -127 0
-42 85 114 0
-2 88 138 0
7 23 157 0
-24 -47 -50 0
27 64 100 0
41 -61 -155 0
64 197 200 0
85 108 126 0
-61 -88 -154 0
-80 -81 181 0
87 -181 192 0
41 -172 -186 0
-55 -79 -172 0
66 -169 177 0
-41 172 -185 0
35 57 -189 0
109 -153 -154 0
77 178 -188 0
52 99 -112 0
-62 -95 133 0
-13 136 182 0
36 -52 169 0
-10 57 162 0
-58 -124 140 0
-7 67 179 0
-29 85 -165 0
-116 121 -179 0
8 -90 -157 0
63 -73 98 0
-66 -175 183 0
26 -29 115 0
16 33 54 0
3 -106 -136 0
-40 108 124 0
-53 126 134 0
-53 -55 181 0
37 -58 -149 0
-68 -88 146 0
-72 193 194 0
44 65 68 0
-35 44 -120 0
-7 -163 -186 0
69 115 154 0
-14 152 162 0
-109 -119 140 0
48 -59 113 0
14 108 -168 0
20 44 82 0
-107 172 198 0
-15 -134 161 0
25 -122 182 0
-1 167 187 0
39 87 -116 0
8 39 89 0
-124 158 193 0
88 -188 191 0
27 -123 195 0
84 -99 -133 0
44 183 200 0
-81 -121 -122 0
-154 189 200 0
14 -60 166 0
-66 181 192 0
132 167 -189 0
48 112 181 0
-128 143 -190 0
-69 -154 199 0
-112 114 -184 0
20 -57 -199 0
25 -166 -187 0
-46 67 -140 0
22 -165 195 0
-31 66 186 0
-13 118 -137 0
69 116 165 0
71 80 171 0
34 -83 195 0
-36 98 166 0
52 -72 -191 0
16 -176 -183 0
-55 92 95 0
82 130 198 0
-60 -129 -147 0
-15 98 -126 0
-62 106 143 0
64 72 89 0
96 146 156 0
7 -22 49 0
35 51 -117 0
47 158 160 0
41 144 -184 0
31 63 -150 0
-12 -137 174 0
-14 118 -120 0
31 86 -183 0
1 -7 -33 0
-118 -157 166 0
104 130 136 0
-99 181 -185 0
4 -27 155 0
-20 105 187 0
1 13 168 0
67 95 147 0
71 -81 194 0
51 -58 -74 0
86 93 -143 0
-49 -74 180 0
