c generated_for formulae_like_variant benchmark
c dataset formulae_like_03
c variant 3
c seed_base 20290601
c family xor_parity
c expected_status UNSAT
c notes large sparse contradictory parity system
p cnf 340 1920
26 126 215 0
26 -126 -215 0
-26 126 -215 0
-26 -126 215 0
26 126 -215 0
26 -126 215 0
-26 126 215 0
-26 -126 -215 0
33 59 -257 0
33 -59 257 0
-33 59 257 0
-33 -59 -257 0
46 149 242 0
46 -149 -242 0
-46 149 -242 0
-46 -149 242 0
16 85 -152 0
16 -85 152 0
-16 85 152 0
-16 -85 -152 0
134 141 168 0
134 -141 -168 0
-134 141 -168 0
-134 -141 168 0
171 176 191 0
171 -176 -191 0
-171 176 -191 0
-171 -176 191 0
70 102 153 0
70 -102 -153 0
-70 102 -153 0
-70 -102 153 0
65 202 -231 0
65 -202 231 0
-65 202 231 0
-65 -202 -231 0
20 86 -323 0
20 -86 323 0
-20 86 323 0
-20 -86 -323 0
201 290 329 0
201 -290 -329 0
-201 290 -329 0
-201 -290 329 0
149 181 -189 0
149 -181 189 0
-149 181 189 0
-149 -181 -189 0
9 23 281 0
9 -23 -281 0
-9 23 -281 0
-9 -23 281 0
220 294 -333 0
220 -294 333 0
-220 294 333 0
-220 -294 -333 0
20 144 -319 0
20 -144 319 0
-20 144 319 0
-20 -144 -319 0
43 176 192 0
43 -176 -192 0
-43 176 -192 0
-43 -176 192 0
89 235 -249 0
89 -235 249 0
-89 235 249 0
-89 -235 -249 0
74 162 242 0
74 -162 -242 0
-74 162 -242 0
-74 -162 242 0
35 99 -200 0
35 -99 200 0
-35 99 200 0
-35 -99 -200 0
19 75 -219 0
19 -75 219 0
-19 75 219 0
-19 -75 -219 0
105 226 -296 0
105 -226 296 0
-105 226 296 0
-105 -226 -296 0
67 205 254 0
67 -205 -254 0
-67 205 -254 0
-67 -205 254 0
24 68 -70 0
24 -68 70 0
-24 68 70 0
-24 -68 -70 0
138 181 324 0
138 -181 -324 0
-138 181 -324 0
-138 -181 324 0
115 217 -252 0
115 -217 252 0
-115 217 252 0
-115 -217 -252 0
204 227 286 0
204 -227 -286 0
-204 227 -286 0
-204 -227 286 0
30 294 -321 0
30 -294 321 0
-30 294 321 0
-30 -294 -321 0
50 92 -133 0
50 -92 133 0
-50 92 133 0
-50 -92 -133 0
165 207 -216 0
165 -207 216 0
-165 207 216 0
-165 -207 -216 0
131 150 -211 0
131 -150 211 0
-131 150 211 0
-131 -150 -211 0
69 292 -299 0
69 -292 299 0
-69 292 299 0
-69 -292 -299 0
43 49 -60 0
43 -49 60 0
-43 49 60 0
-43 -49 -60 0
97 262 -339 0
97 -262 339 0
-97 262 339 0
-97 -262 -339 0
8 26 -172 0
8 -26 172 0
-8 26 172 0
-8 -26 -172 0
4 226 -301 0
4 -226 301 0
-4 226 301 0
-4 -226 -301 0
142 254 290 0
142 -254 -290 0
-142 254 -290 0
-142 -254 290 0
8 108 -164 0
8 -108 164 0
-8 108 164 0
-8 -108 -164 0
6 84 212 0
6 -84 -212 0
-6 84 -212 0
-6 -84 212 0
105 251 -333 0
105 -251 333 0
-105 251 333 0
-105 -251 -333 0
45 48 275 0
45 -48 -275 0
-45 48 -275 0
-45 -48 275 0
19 140 186 0
19 -140 -186 0
-19 140 -186 0
-19 -140 186 0
200 244 -294 0
200 -244 294 0
-200 244 294 0
-200 -244 -294 0
50 318 337 0
50 -318 -337 0
-50 318 -337 0
-50 -318 337 0
2 208 -228 0
2 -208 228 0
-2 208 228 0
-2 -208 -228 0
53 59 232 0
53 -59 -232 0
-53 59 -232 0
-53 -59 232 0
71 85 252 0
71 -85 -252 0
-71 85 -252 0
-71 -85 252 0
43 48 -161 0
43 -48 161 0
-43 48 161 0
-43 -48 -161 0
73 184 275 0
73 -184 -275 0
-73 184 -275 0
-73 -184 275 0
41 179 324 0
41 -179 -324 0
-41 179 -324 0
-41 -179 324 0
199 205 -270 0
199 -205 270 0
-199 205 270 0
-199 -205 -270 0
124 172 -271 0
124 -172 271 0
-124 172 271 0
-124 -172 -271 0
13 97 174 0
13 -97 -174 0
-13 97 -174 0
-13 -97 174 0
8 94 197 0
8 -94 -197 0
-8 94 -197 0
-8 -94 197 0
11 63 225 0
11 -63 -225 0
-11 63 -225 0
-11 -63 225 0
99 107 -242 0
99 -107 242 0
-99 107 242 0
-99 -107 -242 0
191 263 269 0
191 -263 -269 0
-191 263 -269 0
-191 -263 269 0
61 211 245 0
61 -211 -245 0
-61 211 -245 0
-61 -211 245 0
68 161 278 0
68 -161 -278 0
-68 161 -278 0
-68 -161 278 0
44 166 -283 0
44 -166 283 0
-44 166 283 0
-44 -166 -283 0
122 193 324 0
122 -193 -324 0
-122 193 -324 0
-122 -193 324 0
10 28 -77 0
10 -28 77 0
-10 28 77 0
-10 -28 -77 0
21 34 247 0
21 -34 -247 0
-21 34 -247 0
-21 -34 247 0
8 69 -238 0
8 -69 238 0
-8 69 238 0
-8 -69 -238 0
5 279 304 0
5 -279 -304 0
-5 279 -304 0
-5 -279 304 0
281 287 327 0
281 -287 -327 0
-281 287 -327 0
-281 -287 327 0
203 210 265 0
203 -210 -265 0
-203 210 -265 0
-203 -210 265 0
44 167 188 0
44 -167 -188 0
-44 167 -188 0
-44 -167 188 0
271 329 339 0
271 -329 -339 0
-271 329 -339 0
-271 -329 339 0
126 179 -275 0
126 -179 275 0
-126 179 275 0
-126 -179 -275 0
61 89 339 0
61 -89 -339 0
-61 89 -339 0
-61 -89 339 0
155 235 -251 0
155 -235 251 0
-155 235 251 0
-155 -235 -251 0
46 122 251 0
46 -122 -251 0
-46 122 -251 0
-46 -122 251 0
116 123 -272 0
116 -123 272 0
-116 123 272 0
-116 -123 -272 0
140 173 -325 0
140 -173 325 0
-140 173 325 0
-140 -173 -325 0
192 199 274 0
192 -199 -274 0
-192 199 -274 0
-192 -199 274 0
222 263 281 0
222 -263 -281 0
-222 263 -281 0
-222 -263 281 0
31 116 -203 0
31 -116 203 0
-31 116 203 0
-31 -116 -203 0
65 264 330 0
65 -264 -330 0
-65 264 -330 0
-65 -264 330 0
8 70 -234 0
8 -70 234 0
-8 70 234 0
-8 -70 -234 0
60 208 234 0
60 -208 -234 0
-60 208 -234 0
-60 -208 234 0
9 146 334 0
9 -146 -334 0
-9 146 -334 0
-9 -146 334 0
63 149 166 0
63 -149 -166 0
-63 149 -166 0
-63 -149 166 0
243 291 333 0
243 -291 -333 0
-243 291 -333 0
-243 -291 333 0
144 160 -259 0
144 -160 259 0
-144 160 259 0
-144 -160 -259 0
60 168 309 0
60 -168 -309 0
-60 168 -309 0
-60 -168 309 0
12 52 -204 0
12 -52 204 0
-12 52 204 0
-12 -52 -204 0
38 123 127 0
38 -123 -127 0
-38 123 -127 0
-38 -123 127 0
174 299 -329 0
174 -299 329 0
-174 299 329 0
-174 -299 -329 0
140 161 294 0
140 -161 -294 0
-140 161 -294 0
-140 -161 294 0
132 159 301 0
132 -159 -301 0
-132 159 -301 0
-132 -159 301 0
26 30 76 0
26 -30 -76 0
-26 30 -76 0
-26 -30 76 0
18 52 210 0
18 -52 -210 0
-18 52 -210 0
-18 -52 210 0
103 122 -314 0
103 -122 314 0
-103 122 314 0
-103 -122 -314 0
52 113 234 0
52 -113 -234 0
-52 113 -234 0
-52 -113 234 0
18 38 -209 0
18 -38 209 0
-18 38 209 0
-18 -38 -209 0
46 47 -288 0
46 -47 288 0
-46 47 288 0
-46 -47 -288 0
133 206 -212 0
133 -206 212 0
-133 206 212 0
-133 -206 -212 0
94 138 211 0
94 -138 -211 0
-94 138 -211 0
-94 -138 211 0
15 200 269 0
15 -200 -269 0
-15 200 -269 0
-15 -200 269 0
73 147 -192 0
73 -147 192 0
-73 147 192 0
-73 -147 -192 0
188 278 -285 0
188 -278 285 0
-188 278 285 0
-188 -278 -285 0
268 269 -337 0
268 -269 337 0
-268 269 337 0
-268 -269 -337 0
1 19 -102 0
1 -19 102 0
-1 19 102 0
-1 -19 -102 0
61 115 315 0
61 -115 -315 0
-61 115 -315 0
-61 -115 315 0
126 138 280 0
126 -138 -280 0
-126 138 -280 0
-126 -138 280 0
113 166 -285 0
113 -166 285 0
-113 166 285 0
-113 -166 -285 0
28 184 238 0
28 -184 -238 0
-28 184 -238 0
-28 -184 238 0
125 236 240 0
125 -236 -240 0
-125 236 -240 0
-125 -236 240 0
24 174 315 0
24 -174 -315 0
-24 174 -315 0
-24 -174 315 0
2 199 -308 0
2 -199 308 0
-2 199 308 0
-2 -199 -308 0
172 183 282 0
172 -183 -282 0
-172 183 -282 0
-172 -183 282 0
177 237 266 0
177 -237 -266 0
-177 237 -266 0
-177 -237 266 0
159 226 -280 0
159 -226 280 0
-159 226 280 0
-159 -226 -280 0
99 136 231 0
99 -136 -231 0
-99 136 -231 0
-99 -136 231 0
28 44 228 0
28 -44 -228 0
-28 44 -228 0
-28 -44 228 0
124 224 -263 0
124 -224 263 0
-124 224 263 0
-124 -224 -263 0
99 120 -197 0
99 -120 197 0
-99 120 197 0
-99 -120 -197 0
1 226 243 0
1 -226 -243 0
-1 226 -243 0
-1 -226 243 0
43 304 333 0
43 -304 -333 0
-43 304 -333 0
-43 -304 333 0
235 288 -306 0
235 -288 306 0
-235 288 306 0
-235 -288 -306 0
14 129 294 0
14 -129 -294 0
-14 129 -294 0
-14 -129 294 0
6 97 271 0
6 -97 -271 0
-6 97 -271 0
-6 -97 271 0
23 299 -335 0
23 -299 335 0
-23 299 335 0
-23 -299 -335 0
283 306 -314 0
283 -306 314 0
-283 306 314 0
-283 -306 -314 0
23 46 -242 0
23 -46 242 0
-23 46 242 0
-23 -46 -242 0
109 291 297 0
109 -291 -297 0
-109 291 -297 0
-109 -291 297 0
63 276 281 0
63 -276 -281 0
-63 276 -281 0
-63 -276 281 0
35 242 -259 0
35 -242 259 0
-35 242 259 0
-35 -242 -259 0
113 170 -190 0
113 -170 190 0
-113 170 190 0
-113 -170 -190 0
99 160 282 0
99 -160 -282 0
-99 160 -282 0
-99 -160 282 0
114 285 -324 0
114 -285 324 0
-114 285 324 0
-114 -285 -324 0
86 97 -99 0
86 -97 99 0
-86 97 99 0
-86 -97 -99 0
80 180 -308 0
80 -180 308 0
-80 180 308 0
-80 -180 -308 0
29 41 86 0
29 -41 -86 0
-29 41 -86 0
-29 -41 86 0
25 135 -257 0
25 -135 257 0
-25 135 257 0
-25 -135 -257 0
76 230 246 0
76 -230 -246 0
-76 230 -246 0
-76 -230 246 0
68 92 -135 0
68 -92 135 0
-68 92 135 0
-68 -92 -135 0
58 189 211 0
58 -189 -211 0
-58 189 -211 0
-58 -189 211 0
185 211 -221 0
185 -211 221 0
-185 211 221 0
-185 -211 -221 0
63 122 -174 0
63 -122 174 0
-63 122 174 0
-63 -122 -174 0
45 52 89 0
45 -52 -89 0
-45 52 -89 0
-45 -52 89 0
5 105 -110 0
5 -105 110 0
-5 105 110 0
-5 -105 -110 0
245 263 -295 0
245 -263 295 0
-245 263 295 0
-245 -263 -295 0
18 86 188 0
18 -86 -188 0
-18 86 -188 0
-18 -86 188 0
64 107 -329 0
64 -107 329 0
-64 107 329 0
-64 -107 -329 0
47 129 -215 0
47 -129 215 0
-47 129 215 0
-47 -129 -215 0
189 200 265 0
189 -200 -265 0
-189 200 -265 0
-189 -200 265 0
59 228 250 0
59 -228 -250 0
-59 228 -250 0
-59 -228 250 0
39 70 -82 0
39 -70 82 0
-39 70 82 0
-39 -70 -82 0
38 255 -336 0
38 -255 336 0
-38 255 336 0
-38 -255 -336 0
171 234 -334 0
171 -234 334 0
-171 234 334 0
-171 -234 -334 0
72 217 -321 0
72 -217 321 0
-72 217 321 0
-72 -217 -321 0
63 176 -241 0
63 -176 241 0
-63 176 241 0
-63 -176 -241 0
3 71 -100 0
3 -71 100 0
-3 71 100 0
-3 -71 -100 0
65 164 295 0
65 -164 -295 0
-65 164 -295 0
-65 -164 295 0
84 139 -291 0
84 -139 291 0
-84 139 291 0
-84 -139 -291 0
50 53 -194 0
50 -53 194 0
-50 53 194 0
-50 -53 -194 0
40 46 317 0
40 -46 -317 0
-40 46 -317 0
-40 -46 317 0
199 214 255 0
199 -214 -255 0
-199 214 -255 0
-199 -214 255 0
197 259 308 0
197 -259 -308 0
-197 259 -308 0
-197 -259 308 0
101 140 -325 0
101 -140 325 0
-101 140 325 0
-101 -140 -325 0
155 302 314 0
155 -302 -314 0
-155 302 -314 0
-155 -302 314 0
40 53 -316 0
40 -53 316 0
-40 53 316 0
-40 -53 -316 0
47 48 98 0
47 -48 -98 0
-47 48 -98 0
-47 -48 98 0
51 67 227 0
51 -67 -227 0
-51 67 -227 0
-51 -67 227 0
107 259 267 0
107 -259 -267 0
-107 259 -267 0
-107 -259 267 0
66 244 260 0
66 -244 -260 0
-66 244 -260 0
-66 -244 260 0
221 273 -313 0
221 -273 313 0
-221 273 313 0
-221 -273 -313 0
68 157 -323 0
68 -157 323 0
-68 157 323 0
-68 -157 -323 0
33 153 307 0
33 -153 -307 0
-33 153 -307 0
-33 -153 307 0
22 82 -113 0
22 -82 113 0
-22 82 113 0
-22 -82 -113 0
58 151 205 0
58 -151 -205 0
-58 151 -205 0
-58 -151 205 0
93 262 276 0
93 -262 -276 0
-93 262 -276 0
-93 -262 276 0
131 184 -242 0
131 -184 242 0
-131 184 242 0
-131 -184 -242 0
101 171 -192 0
101 -171 192 0
-101 171 192 0
-101 -171 -192 0
63 128 283 0
63 -128 -283 0
-63 128 -283 0
-63 -128 283 0
8 152 277 0
8 -152 -277 0
-8 152 -277 0
-8 -152 277 0
18 40 -123 0
18 -40 123 0
-18 40 123 0
-18 -40 -123 0
186 199 202 0
186 -199 -202 0
-186 199 -202 0
-186 -199 202 0
197 236 283 0
197 -236 -283 0
-197 236 -283 0
-197 -236 283 0
82 230 273 0
82 -230 -273 0
-82 230 -273 0
-82 -230 273 0
88 222 333 0
88 -222 -333 0
-88 222 -333 0
-88 -222 333 0
78 101 -330 0
78 -101 330 0
-78 101 330 0
-78 -101 -330 0
9 159 -207 0
9 -159 207 0
-9 159 207 0
-9 -159 -207 0
67 165 282 0
67 -165 -282 0
-67 165 -282 0
-67 -165 282 0
65 83 -153 0
65 -83 153 0
-65 83 153 0
-65 -83 -153 0
8 225 -252 0
8 -225 252 0
-8 225 252 0
-8 -225 -252 0
36 248 -296 0
36 -248 296 0
-36 248 296 0
-36 -248 -296 0
95 289 320 0
95 -289 -320 0
-95 289 -320 0
-95 -289 320 0
61 324 333 0
61 -324 -333 0
-61 324 -333 0
-61 -324 333 0
153 272 -319 0
153 -272 319 0
-153 272 319 0
-153 -272 -319 0
103 126 -213 0
103 -126 213 0
-103 126 213 0
-103 -126 -213 0
119 137 -243 0
119 -137 243 0
-119 137 243 0
-119 -137 -243 0
43 239 -305 0
43 -239 305 0
-43 239 305 0
-43 -239 -305 0
35 89 267 0
35 -89 -267 0
-35 89 -267 0
-35 -89 267 0
72 151 -263 0
72 -151 263 0
-72 151 263 0
-72 -151 -263 0
6 221 314 0
6 -221 -314 0
-6 221 -314 0
-6 -221 314 0
153 197 317 0
153 -197 -317 0
-153 197 -317 0
-153 -197 317 0
116 148 327 0
116 -148 -327 0
-116 148 -327 0
-116 -148 327 0
62 234 241 0
62 -234 -241 0
-62 234 -241 0
-62 -234 241 0
29 118 -209 0
29 -118 209 0
-29 118 209 0
-29 -118 -209 0
80 128 326 0
80 -128 -326 0
-80 128 -326 0
-80 -128 326 0
113 151 237 0
113 -151 -237 0
-113 151 -237 0
-113 -151 237 0
131 133 310 0
131 -133 -310 0
-131 133 -310 0
-131 -133 310 0
122 138 147 0
122 -138 -147 0
-122 138 -147 0
-122 -138 147 0
27 198 -228 0
27 -198 228 0
-27 198 228 0
-27 -198 -228 0
90 155 -192 0
90 -155 192 0
-90 155 192 0
-90 -155 -192 0
159 186 -290 0
159 -186 290 0
-159 186 290 0
-159 -186 -290 0
64 76 201 0
64 -76 -201 0
-64 76 -201 0
-64 -76 201 0
35 156 -212 0
35 -156 212 0
-35 156 212 0
-35 -156 -212 0
178 285 -290 0
178 -285 290 0
-178 285 290 0
-178 -285 -290 0
24 179 197 0
24 -179 -197 0
-24 179 -197 0
-24 -179 197 0
7 209 233 0
7 -209 -233 0
-7 209 -233 0
-7 -209 233 0
101 125 197 0
101 -125 -197 0
-101 125 -197 0
-101 -125 197 0
70 110 -118 0
70 -110 118 0
-70 110 118 0
-70 -110 -118 0
132 201 327 0
132 -201 -327 0
-132 201 -327 0
-132 -201 327 0
137 233 335 0
137 -233 -335 0
-137 233 -335 0
-137 -233 335 0
230 301 -332 0
230 -301 332 0
-230 301 332 0
-230 -301 -332 0
113 162 309 0
113 -162 -309 0
-113 162 -309 0
-113 -162 309 0
50 85 138 0
50 -85 -138 0
-50 85 -138 0
-50 -85 138 0
15 173 -272 0
15 -173 272 0
-15 173 272 0
-15 -173 -272 0
18 235 -283 0
18 -235 283 0
-18 235 283 0
-18 -235 -283 0
83 88 -162 0
83 -88 162 0
-83 88 162 0
-83 -88 -162 0
220 304 -334 0
220 -304 334 0
-220 304 334 0
-220 -304 -334 0
104 109 -298 0
104 -109 298 0
-104 109 298 0
-104 -109 -298 0
205 314 340 0
205 -314 -340 0
-205 314 -340 0
-205 -314 340 0
55 83 -295 0
55 -83 295 0
-55 83 295 0
-55 -83 -295 0
36 76 -88 0
36 -76 88 0
-36 76 88 0
-36 -76 -88 0
29 252 -306 0
29 -252 306 0
-29 252 306 0
-29 -252 -306 0
129 256 266 0
129 -256 -266 0
-129 256 -266 0
-129 -256 266 0
39 73 -185 0
39 -73 185 0
-39 73 185 0
-39 -73 -185 0
71 125 297 0
71 -125 -297 0
-71 125 -297 0
-71 -125 297 0
22 41 -320 0
22 -41 320 0
-22 41 320 0
-22 -41 -320 0
69 106 313 0
69 -106 -313 0
-69 106 -313 0
-69 -106 313 0
111 147 319 0
111 -147 -319 0
-111 147 -319 0
-111 -147 319 0
51 98 -246 0
51 -98 246 0
-51 98 246 0
-51 -98 -246 0
39 191 -224 0
39 -191 224 0
-39 191 224 0
-39 -191 -224 0
54 136 -273 0
54 -136 273 0
-54 136 273 0
-54 -136 -273 0
102 206 -222 0
102 -206 222 0
-102 206 222 0
-102 -206 -222 0
41 135 -338 0
41 -135 338 0
-41 135 338 0
-41 -135 -338 0
93 323 329 0
93 -323 -329 0
-93 323 -329 0
-93 -323 329 0
44 129 -300 0
44 -129 300 0
-44 129 300 0
-44 -129 -300 0
120 283 -304 0
120 -283 304 0
-120 283 304 0
-120 -283 -304 0
1 75 -87 0
1 -75 87 0
-1 75 87 0
-1 -75 -87 0
33 85 302 0
33 -85 -302 0
-33 85 -302 0
-33 -85 302 0
257 269 -308 0
257 -269 308 0
-257 269 308 0
-257 -269 -308 0
6 115 -299 0
6 -115 299 0
-6 115 299 0
-6 -115 -299 0
110 222 -244 0
110 -222 244 0
-110 222 244 0
-110 -222 -244 0
137 233 -306 0
137 -233 306 0
-137 233 306 0
-137 -233 -306 0
17 47 276 0
17 -47 -276 0
-17 47 -276 0
-17 -47 276 0
31 41 313 0
31 -41 -313 0
-31 41 -313 0
-31 -41 313 0
46 191 -218 0
46 -191 218 0
-46 191 218 0
-46 -191 -218 0
84 178 310 0
84 -178 -310 0
-84 178 -310 0
-84 -178 310 0
172 255 285 0
172 -255 -285 0
-172 255 -285 0
-172 -255 285 0
237 254 310 0
237 -254 -310 0
-237 254 -310 0
-237 -254 310 0
3 253 -266 0
3 -253 266 0
-3 253 266 0
-3 -253 -266 0
169 191 192 0
169 -191 -192 0
-169 191 -192 0
-169 -191 192 0
153 261 329 0
153 -261 -329 0
-153 261 -329 0
-153 -261 329 0
101 146 -151 0
101 -146 151 0
-101 146 151 0
-101 -146 -151 0
14 23 35 0
14 -23 -35 0
-14 23 -35 0
-14 -23 35 0
31 88 -311 0
31 -88 311 0
-31 88 311 0
-31 -88 -311 0
108 145 212 0
108 -145 -212 0
-108 145 -212 0
-108 -145 212 0
11 135 -197 0
11 -135 197 0
-11 135 197 0
-11 -135 -197 0
10 269 298 0
10 -269 -298 0
-10 269 -298 0
-10 -269 298 0
72 197 -294 0
72 -197 294 0
-72 197 294 0
-72 -197 -294 0
35 78 218 0
35 -78 -218 0
-35 78 -218 0
-35 -78 218 0
31 198 338 0
31 -198 -338 0
-31 198 -338 0
-31 -198 338 0
146 198 235 0
146 -198 -235 0
-146 198 -235 0
-146 -198 235 0
7 156 312 0
7 -156 -312 0
-7 156 -312 0
-7 -156 312 0
142 183 -254 0
142 -183 254 0
-142 183 254 0
-142 -183 -254 0
53 182 -229 0
53 -182 229 0
-53 182 229 0
-53 -182 -229 0
19 245 -291 0
19 -245 291 0
-19 245 291 0
-19 -245 -291 0
113 129 -239 0
113 -129 239 0
-113 129 239 0
-113 -129 -239 0
13 43 -226 0
13 -43 226 0
-13 43 226 0
-13 -43 -226 0
22 168 -319 0
22 -168 319 0
-22 168 319 0
-22 -168 -319 0
219 296 -332 0
219 -296 332 0
-219 296 332 0
-219 -296 -332 0
13 21 240 0
13 -21 -240 0
-13 21 -240 0
-13 -21 240 0
14 33 -78 0
14 -33 78 0
-14 33 78 0
-14 -33 -78 0
218 242 273 0
218 -242 -273 0
-218 242 -273 0
-218 -242 273 0
146 173 226 0
146 -173 -226 0
-146 173 -226 0
-146 -173 226 0
19 70 103 0
19 -70 -103 0
-19 70 -103 0
-19 -70 103 0
44 54 -261 0
44 -54 261 0
-44 54 261 0
-44 -54 -261 0
150 153 203 0
150 -153 -203 0
-150 153 -203 0
-150 -153 203 0
261 305 -310 0
261 -305 310 0
-261 305 310 0
-261 -305 -310 0
77 245 311 0
77 -245 -311 0
-77 245 -311 0
-77 -245 311 0
86 123 141 0
86 -123 -141 0
-86 123 -141 0
-86 -123 141 0
91 251 297 0
91 -251 -297 0
-91 251 -297 0
-91 -251 297 0
147 226 -336 0
147 -226 336 0
-147 226 336 0
-147 -226 -336 0
178 222 337 0
178 -222 -337 0
-178 222 -337 0
-178 -222 337 0
99 276 327 0
99 -276 -327 0
-99 276 -327 0
-99 -276 327 0
146 181 208 0
146 -181 -208 0
-146 181 -208 0
-146 -181 208 0
54 59 -117 0
54 -59 117 0
-54 59 117 0
-54 -59 -117 0
85 114 -283 0
85 -114 283 0
-85 114 283 0
-85 -114 -283 0
44 75 280 0
44 -75 -280 0
-44 75 -280 0
-44 -75 280 0
8 290 -333 0
8 -290 333 0
-8 290 333 0
-8 -290 -333 0
54 158 -280 0
54 -158 280 0
-54 158 280 0
-54 -158 -280 0
55 122 142 0
55 -122 -142 0
-55 122 -142 0
-55 -122 142 0
165 271 -281 0
165 -271 281 0
-165 271 281 0
-165 -271 -281 0
16 70 254 0
16 -70 -254 0
-16 70 -254 0
-16 -70 254 0
45 50 -65 0
45 -50 65 0
-45 50 65 0
-45 -50 -65 0
78 204 -215 0
78 -204 215 0
-78 204 215 0
-78 -204 -215 0
95 128 297 0
95 -128 -297 0
-95 128 -297 0
-95 -128 297 0
133 184 289 0
133 -184 -289 0
-133 184 -289 0
-133 -184 289 0
132 268 298 0
132 -268 -298 0
-132 268 -298 0
-132 -268 298 0
37 110 282 0
37 -110 -282 0
-37 110 -282 0
-37 -110 282 0
81 198 -230 0
81 -198 230 0
-81 198 230 0
-81 -198 -230 0
56 86 -121 0
56 -86 121 0
-56 86 121 0
-56 -86 -121 0
151 192 291 0
151 -192 -291 0
-151 192 -291 0
-151 -192 291 0
16 97 116 0
16 -97 -116 0
-16 97 -116 0
-16 -97 116 0
16 39 333 0
16 -39 -333 0
-16 39 -333 0
-16 -39 333 0
86 117 147 0
86 -117 -147 0
-86 117 -147 0
-86 -117 147 0
208 254 306 0
208 -254 -306 0
-208 254 -306 0
-208 -254 306 0
8 95 313 0
8 -95 -313 0
-8 95 -313 0
-8 -95 313 0
21 109 -267 0
21 -109 267 0
-21 109 267 0
-21 -109 -267 0
70 321 335 0
70 -321 -335 0
-70 321 -335 0
-70 -321 335 0
66 100 -155 0
66 -100 155 0
-66 100 155 0
-66 -100 -155 0
7 138 -271 0
7 -138 271 0
-7 138 271 0
-7 -138 -271 0
40 67 322 0
40 -67 -322 0
-40 67 -322 0
-40 -67 322 0
126 226 -236 0
126 -226 236 0
-126 226 236 0
-126 -226 -236 0
92 98 184 0
92 -98 -184 0
-92 98 -184 0
-92 -98 184 0
56 108 264 0
56 -108 -264 0
-56 108 -264 0
-56 -108 264 0
108 123 168 0
108 -123 -168 0
-108 123 -168 0
-108 -123 168 0
83 212 -278 0
83 -212 278 0
-83 212 278 0
-83 -212 -278 0
137 141 -205 0
137 -141 205 0
-137 141 205 0
-137 -141 -205 0
51 270 301 0
51 -270 -301 0
-51 270 -301 0
-51 -270 301 0
107 220 221 0
107 -220 -221 0
-107 220 -221 0
-107 -220 221 0
5 126 163 0
5 -126 -163 0
-5 126 -163 0
-5 -126 163 0
154 171 175 0
154 -171 -175 0
-154 171 -175 0
-154 -171 175 0
130 215 -245 0
130 -215 245 0
-130 215 245 0
-130 -215 -245 0
138 224 -227 0
138 -224 227 0
-138 224 227 0
-138 -224 -227 0
63 164 271 0
63 -164 -271 0
-63 164 -271 0
-63 -164 271 0
98 151 -204 0
98 -151 204 0
-98 151 204 0
-98 -151 -204 0
24 88 -198 0
24 -88 198 0
-24 88 198 0
-24 -88 -198 0
190 240 267 0
190 -240 -267 0
-190 240 -267 0
-190 -240 267 0
20 85 -173 0
20 -85 173 0
-20 85 173 0
-20 -85 -173 0
135 151 -222 0
135 -151 222 0
-135 151 222 0
-135 -151 -222 0
51 151 332 0
51 -151 -332 0
-51 151 -332 0
-51 -151 332 0
12 53 -192 0
12 -53 192 0
-12 53 192 0
-12 -53 -192 0
40 263 -287 0
40 -263 287 0
-40 263 287 0
-40 -263 -287 0
57 164 -222 0
57 -164 222 0
-57 164 222 0
-57 -164 -222 0
11 206 209 0
11 -206 -209 0
-11 206 -209 0
-11 -206 209 0
130 177 -224 0
130 -177 224 0
-130 177 224 0
-130 -177 -224 0
223 262 -313 0
223 -262 313 0
-223 262 313 0
-223 -262 -313 0
2 321 -336 0
2 -321 336 0
-2 321 336 0
-2 -321 -336 0
20 45 -319 0
20 -45 319 0
-20 45 319 0
-20 -45 -319 0
16 161 315 0
16 -161 -315 0
-16 161 -315 0
-16 -161 315 0
26 116 -322 0
26 -116 322 0
-26 116 322 0
-26 -116 -322 0
59 64 -171 0
59 -64 171 0
-59 64 171 0
-59 -64 -171 0
112 143 201 0
112 -143 -201 0
-112 143 -201 0
-112 -143 201 0
6 62 131 0
6 -62 -131 0
-6 62 -131 0
-6 -62 131 0
31 196 -227 0
31 -196 227 0
-31 196 227 0
-31 -196 -227 0
150 215 281 0
150 -215 -281 0
-150 215 -281 0
-150 -215 281 0
11 183 262 0
11 -183 -262 0
-11 183 -262 0
-11 -183 262 0
119 204 -267 0
119 -204 267 0
-119 204 267 0
-119 -204 -267 0
16 130 197 0
16 -130 -197 0
-16 130 -197 0
-16 -130 197 0
19 38 -95 0
19 -38 95 0
-19 38 95 0
-19 -38 -95 0
43 216 -245 0
43 -216 245 0
-43 216 245 0
-43 -216 -245 0
109 116 -236 0
109 -116 236 0
-109 116 236 0
-109 -116 -236 0
86 153 294 0
86 -153 -294 0
-86 153 -294 0
-86 -153 294 0
61 147 -209 0
61 -147 209 0
-61 147 209 0
-61 -147 -209 0
94 133 236 0
94 -133 -236 0
-94 133 -236 0
-94 -133 236 0
76 321 327 0
76 -321 -327 0
-76 321 -327 0
-76 -321 327 0
60 237 326 0
60 -237 -326 0
-60 237 -326 0
-60 -237 326 0
103 159 180 0
103 -159 -180 0
-103 159 -180 0
-103 -159 180 0
213 315 316 0
213 -315 -316 0
-213 315 -316 0
-213 -315 316 0
21 142 288 0
21 -142 -288 0
-21 142 -288 0
-21 -142 288 0
45 188 240 0
45 -188 -240 0
-45 188 -240 0
-45 -188 240 0
100 181 245 0
100 -181 -245 0
-100 181 -245 0
-100 -181 245 0
13 233 258 0
13 -233 -258 0
-13 233 -258 0
-13 -233 258 0
154 202 -268 0
154 -202 268 0
-154 202 268 0
-154 -202 -268 0
134 268 284 0
134 -268 -284 0
-134 268 -284 0
-134 -268 284 0
45 180 -190 0
45 -180 190 0
-45 180 190 0
-45 -180 -190 0
77 120 279 0
77 -120 -279 0
-77 120 -279 0
-77 -120 279 0
110 133 -255 0
110 -133 255 0
-110 133 255 0
-110 -133 -255 0
83 303 -306 0
83 -303 306 0
-83 303 306 0
-83 -303 -306 0
55 238 307 0
55 -238 -307 0
-55 238 -307 0
-55 -238 307 0
195 197 -224 0
195 -197 224 0
-195 197 224 0
-195 -197 -224 0
130 232 250 0
130 -232 -250 0
-130 232 -250 0
-130 -232 250 0
123 200 -256 0
123 -200 256 0
-123 200 256 0
-123 -200 -256 0
185 186 -226 0
185 -186 226 0
-185 186 226 0
-185 -186 -226 0
28 135 -211 0
28 -135 211 0
-28 135 211 0
-28 -135 -211 0
73 114 -282 0
73 -114 282 0
-73 114 282 0
-73 -114 -282 0
63 133 -267 0
63 -133 267 0
-63 133 267 0
-63 -133 -267 0
23 98 -208 0
23 -98 208 0
-23 98 208 0
-23 -98 -208 0
154 188 259 0
154 -188 -259 0
-154 188 -259 0
-154 -188 259 0
68 137 252 0
68 -137 -252 0
-68 137 -252 0
-68 -137 252 0
94 204 -294 0
94 -204 294 0
-94 204 294 0
-94 -204 -294 0
98 123 240 0
98 -123 -240 0
-98 123 -240 0
-98 -123 240 0
92 122 -146 0
92 -122 146 0
-92 122 146 0
-92 -122 -146 0
35 228 322 0
35 -228 -322 0
-35 228 -322 0
-35 -228 322 0
38 76 -281 0
38 -76 281 0
-38 76 281 0
-38 -76 -281 0
47 58 70 0
47 -58 -70 0
-47 58 -70 0
-47 -58 70 0
11 22 276 0
11 -22 -276 0
-11 22 -276 0
-11 -22 276 0
1 10 -219 0
1 -10 219 0
-1 10 219 0
-1 -10 -219 0
47 65 238 0
47 -65 -238 0
-47 65 -238 0
-47 -65 238 0
28 151 260 0
28 -151 -260 0
-28 151 -260 0
-28 -151 260 0
12 270 295 0
12 -270 -295 0
-12 270 -295 0
-12 -270 295 0
130 203 -321 0
130 -203 321 0
-130 203 321 0
-130 -203 -321 0
38 44 -111 0
38 -44 111 0
-38 44 111 0
-38 -44 -111 0
86 191 -337 0
86 -191 337 0
-86 191 337 0
-86 -191 -337 0
50 166 -298 0
50 -166 298 0
-50 166 298 0
-50 -166 -298 0
61 196 -197 0
61 -196 197 0
-61 196 197 0
-61 -196 -197 0
265 270 -284 0
265 -270 284 0
-265 270 284 0
-265 -270 -284 0
65 93 333 0
65 -93 -333 0
-65 93 -333 0
-65 -93 333 0
20 160 212 0
20 -160 -212 0
-20 160 -212 0
-20 -160 212 0
101 164 257 0
101 -164 -257 0
-101 164 -257 0
-101 -164 257 0
81 280 -290 0
81 -280 290 0
-81 280 290 0
-81 -280 -290 0
8 98 190 0
8 -98 -190 0
-8 98 -190 0
-8 -98 190 0
91 133 197 0
91 -133 -197 0
-91 133 -197 0
-91 -133 197 0
24 31 -262 0
24 -31 262 0
-24 31 262 0
-24 -31 -262 0
79 234 248 0
79 -234 -248 0
-79 234 -248 0
-79 -234 248 0
138 162 -323 0
138 -162 323 0
-138 162 323 0
-138 -162 -323 0
6 139 215 0
6 -139 -215 0
-6 139 -215 0
-6 -139 215 0
20 84 261 0
20 -84 -261 0
-20 84 -261 0
-20 -84 261 0
21 60 -139 0
21 -60 139 0
-21 60 139 0
-21 -60 -139 0
13 107 -256 0
13 -107 256 0
-13 107 256 0
-13 -107 -256 0
67 270 324 0
67 -270 -324 0
-67 270 -324 0
-67 -270 324 0
76 154 326 0
76 -154 -326 0
-76 154 -326 0
-76 -154 326 0
38 239 -269 0
38 -239 269 0
-38 239 269 0
-38 -239 -269 0
102 125 236 0
102 -125 -236 0
-102 125 -236 0
-102 -125 236 0
117 121 -136 0
117 -121 136 0
-117 121 136 0
-117 -121 -136 0
53 205 -249 0
53 -205 249 0
-53 205 249 0
-53 -205 -249 0
72 170 262 0
72 -170 -262 0
-72 170 -262 0
-72 -170 262 0
15 88 243 0
15 -88 -243 0
-15 88 -243 0
-15 -88 243 0
34 68 -298 0
34 -68 298 0
-34 68 298 0
-34 -68 -298 0
195 259 313 0
195 -259 -313 0
-195 259 -313 0
-195 -259 313 0
139 197 257 0
139 -197 -257 0
-139 197 -257 0
-139 -197 257 0
87 103 329 0
87 -103 -329 0
-87 103 -329 0
-87 -103 329 0
102 169 -178 0
102 -169 178 0
-102 169 178 0
-102 -169 -178 0
7 84 -192 0
7 -84 192 0
-7 84 192 0
-7 -84 -192 0
76 225 314 0
76 -225 -314 0
-76 225 -314 0
-76 -225 314 0
173 217 259 0
173 -217 -259 0
-173 217 -259 0
-173 -217 259 0
128 166 299 0
128 -166 -299 0
-128 166 -299 0
-128 -166 299 0
69 101 129 0
69 -101 -129 0
-69 101 -129 0
-69 -101 129 0
74 76 -165 0
74 -76 165 0
-74 76 165 0
-74 -76 -165 0
96 184 320 0
96 -184 -320 0
-96 184 -320 0
-96 -184 320 0
68 96 -101 0
68 -96 101 0
-68 96 101 0
-68 -96 -101 0
53 84 -323 0
53 -84 323 0
-53 84 323 0
-53 -84 -323 0
185 309 -321 0
185 -309 321 0
-185 309 321 0
-185 -309 -321 0
22 124 -148 0
22 -124 148 0
-22 124 148 0
-22 -124 -148 0
13 155 -218 0
13 -155 218 0
-13 155 218 0
-13 -155 -218 0
85 182 318 0
85 -182 -318 0
-85 182 -318 0
-85 -182 318 0
47 88 -256 0
47 -88 256 0
-47 88 256 0
-47 -88 -256 0
35 223 -275 0
35 -223 275 0
-35 223 275 0
-35 -223 -275 0
93 170 -259 0
93 -170 259 0
-93 170 259 0
-93 -170 -259 0
82 241 263 0
82 -241 -263 0
-82 241 -263 0
-82 -241 263 0
26 129 310 0
26 -129 -310 0
-26 129 -310 0
-26 -129 310 0
199 254 -282 0
199 -254 282 0
-199 254 282 0
-199 -254 -282 0
50 172 -272 0
50 -172 272 0
-50 172 272 0
-50 -172 -272 0
111 128 330 0
111 -128 -330 0
-111 128 -330 0
-111 -128 330 0
136 218 -223 0
136 -218 223 0
-136 218 223 0
-136 -218 -223 0
137 165 -314 0
137 -165 314 0
-137 165 314 0
-137 -165 -314 0
174 179 207 0
174 -179 -207 0
-174 179 -207 0
-174 -179 207 0
86 93 -157 0
86 -93 157 0
-86 93 157 0
-86 -93 -157 0
18 54 -304 0
18 -54 304 0
-18 54 304 0
-18 -54 -304 0
33 74 -315 0
33 -74 315 0
-33 74 315 0
-33 -74 -315 0
42 197 253 0
42 -197 -253 0
-42 197 -253 0
-42 -197 253 0
52 279 -314 0
52 -279 314 0
-52 279 314 0
-52 -279 -314 0
78 110 -155 0
78 -110 155 0
-78 110 155 0
-78 -110 -155 0
124 146 -247 0
124 -146 247 0
-124 146 247 0
-124 -146 -247 0
23 199 338 0
23 -199 -338 0
-23 199 -338 0
-23 -199 338 0
60 69 -252 0
60 -69 252 0
-60 69 252 0
-60 -69 -252 0
198 274 -290 0
198 -274 290 0
-198 274 290 0
-198 -274 -290 0
65 208 333 0
65 -208 -333 0
-65 208 -333 0
-65 -208 333 0
175 193 -274 0
175 -193 274 0
-175 193 274 0
-175 -193 -274 0
109 129 309 0
109 -129 -309 0
-109 129 -309 0
-109 -129 309 0
59 206 242 0
59 -206 -242 0
-59 206 -242 0
-59 -206 242 0
85 167 -220 0
85 -167 220 0
-85 167 220 0
-85 -167 -220 0
114 251 308 0
114 -251 -308 0
-114 251 -308 0
-114 -251 308 0
108 141 283 0
108 -141 -283 0
-108 141 -283 0
-108 -141 283 0
134 272 319 0
134 -272 -319 0
-134 272 -319 0
-134 -272 319 0
80 120 -321 0
80 -120 321 0
-80 120 321 0
-80 -120 -321 0
260 292 -324 0
260 -292 324 0
-260 292 324 0
-260 -292 -324 0
102 250 307 0
102 -250 -307 0
-102 250 -307 0
-102 -250 307 0
11 226 295 0
11 -226 -295 0
-11 226 -295 0
-11 -226 295 0
82 102 295 0
82 -102 -295 0
-82 102 -295 0
-82 -102 295 0
202 284 315 0
202 -284 -315 0
-202 284 -315 0
-202 -284 315 0
66 261 -311 0
66 -261 311 0
-66 261 311 0
-66 -261 -311 0
52 174 -307 0
52 -174 307 0
-52 174 307 0
-52 -174 -307 0
101 145 178 0
101 -145 -178 0
-101 145 -178 0
-101 -145 178 0
